*SPEF "IEEE 1481-1998"
*DESIGN "aer_pending_gray_epoch"
*DATE "Thu Aug 20 12:54:18 2026"
*VENDOR "Cadence Design Systems, Inc."
*PROGRAM "Innovus"
*VERSION "23.14-s088_1"
*DESIGN_FLOW "COUPLING C" "PIN_CAP NONE" "NAME_SCOPE LOCAL"
*DIVIDER /
*DELIMITER :
*BUS_DELIMITER []
*T_UNIT 1 NS
*C_UNIT 1 PF
*R_UNIT 1 OHM
*L_UNIT 1 HENRY

// MMMC spef file for corner 'rc_180nm'

*NAME_MAP

*1 FE_PHN54_n_48
*2 FE_PHN53_out_addr_3
*3 FE_PHN52_n_44
*4 FE_PHN51_out_addr_2
*5 FE_PHN50_n_26
*6 FE_PHN49_n_38
*7 FE_PHN48_n_18
*8 FE_PHN47_n_20
*9 FE_PHN46_out_addr_1
*10 FE_PHN45_n_24
*11 FE_PHN44_out_addr_0
*12 FE_PHN43_n_32
*13 FE_PHN42_n_34
*14 FE_PHN41_n_22
*15 FE_PHN40_n_30
*16 FE_PHN39_n_36
*17 FE_PHN38_n_40
*18 FE_PHN37_n_28
*19 FE_PHN36_n_42
*20 FE_PHN35_n_46
*21 FE_PHN34_req_meta_q_1
*22 FE_PHN33_req_meta_q_0
*23 FE_PHN32_req_meta_q_10
*24 FE_PHN31_req_meta_q_11
*25 FE_PHN30_req_meta_q_6
*26 FE_PHN29_req_meta_q_4
*27 FE_PHN28_req_meta_q_14
*28 FE_PHN27_req_meta_q_3
*29 FE_PHN26_reset_release_q_0
*30 FE_PHN25_req_meta_q_2
*31 FE_PHN24_req_meta_q_8
*32 FE_PHN23_req_meta_q_5
*33 FE_PHN22_req_meta_q_7
*34 FE_PHN21_req_meta_q_15
*35 FE_PHN20_req_meta_q_9
*36 FE_PHN19_req_meta_q_13
*37 FE_PHN18_req_meta_q_12
*38 FE_PHN17_req_meta_q_1
*39 FE_PHN16_req_meta_q_0
*40 FE_PHN15_req_meta_q_4
*41 FE_PHN14_req_meta_q_10
*42 FE_PHN13_req_meta_q_3
*43 FE_PHN12_req_meta_q_14
*44 FE_PHN11_req_meta_q_11
*45 FE_PHN10_req_meta_q_2
*46 FE_PHN9_req_meta_q_9
*47 FE_PHN8_req_meta_q_12
*48 FE_PHN7_req_meta_q_13
*49 FE_PHN6_req_meta_q_5
*50 FE_PHN5_req_meta_q_6
*51 FE_PHN4_req_meta_q_8
*52 FE_PHN3_req_meta_q_7
*53 FE_PHN2_req_meta_q_15
*54 FE_PHN1_reset_release_q_0
*55 CTS_1
*56 FE_OFN0_reset_release_q_1
*57 clk
*58 rst_n
*59 src_req_async[15]
*60 src_req_async[14]
*61 src_req_async[13]
*62 src_req_async[12]
*63 src_req_async[11]
*64 src_req_async[10]
*65 src_req_async[9]
*66 src_req_async[8]
*67 src_req_async[7]
*68 src_req_async[6]
*69 src_req_async[5]
*70 src_req_async[4]
*71 src_req_async[3]
*72 src_req_async[2]
*73 src_req_async[1]
*74 src_req_async[0]
*75 src_ack_async[15]
*76 src_ack_async[14]
*77 src_ack_async[13]
*78 src_ack_async[12]
*79 src_ack_async[11]
*80 src_ack_async[10]
*81 src_ack_async[9]
*82 src_ack_async[8]
*83 src_ack_async[7]
*84 src_ack_async[6]
*85 src_ack_async[5]
*86 src_ack_async[4]
*87 src_ack_async[3]
*88 src_ack_async[2]
*89 src_ack_async[1]
*90 src_ack_async[0]
*91 out_addr[3]
*92 out_addr[2]
*93 out_addr[1]
*94 out_addr[0]
*95 out_valid
*96 out_ready
*97 reset_release_q[1]
*98 reset_release_q[0]
*99 pending_q[15]
*100 pending_q[14]
*101 pending_q[13]
*102 pending_q[12]
*103 pending_q[11]
*104 pending_q[10]
*105 pending_q[9]
*106 pending_q[8]
*107 pending_q[7]
*108 pending_q[6]
*109 pending_q[5]
*110 pending_q[4]
*111 pending_q[3]
*112 pending_q[2]
*113 pending_q[1]
*114 pending_q[0]
*115 epoch_bin_q[3]
*116 epoch_bin_q[2]
*117 epoch_bin_q[1]
*118 epoch_bin_q[0]
*119 req_sync_q[15]
*120 req_sync_q[14]
*121 req_sync_q[13]
*122 req_sync_q[12]
*123 req_sync_q[11]
*124 req_sync_q[10]
*125 req_sync_q[9]
*126 req_sync_q[8]
*127 req_sync_q[7]
*128 req_sync_q[6]
*129 req_sync_q[5]
*130 req_sync_q[4]
*131 req_sync_q[3]
*132 req_sync_q[2]
*133 req_sync_q[1]
*134 req_sync_q[0]
*135 req_meta_q[15]
*136 req_meta_q[14]
*137 req_meta_q[13]
*138 req_meta_q[12]
*139 req_meta_q[11]
*140 req_meta_q[10]
*141 req_meta_q[9]
*142 req_meta_q[8]
*143 req_meta_q[7]
*144 req_meta_q[6]
*145 req_meta_q[5]
*146 req_meta_q[4]
*147 req_meta_q[3]
*148 req_meta_q[2]
*149 req_meta_q[1]
*150 req_meta_q[0]
*151 UNCONNECTED
*152 n_1
*153 n_2
*154 n_3
*155 n_4
*156 n_5
*157 n_6
*158 n_7
*159 n_8
*160 n_9
*161 n_10
*162 n_11
*163 n_12
*164 n_13
*165 n_14
*166 n_15
*167 n_16
*168 n_17
*169 n_18
*170 n_19
*171 n_20
*172 n_21
*173 n_22
*174 n_23
*175 n_24
*176 n_25
*177 n_26
*178 n_27
*179 n_28
*180 n_29
*181 n_30
*182 n_31
*183 n_32
*184 n_33
*185 n_34
*186 n_35
*187 n_36
*188 n_37
*189 n_38
*190 n_39
*191 n_40
*192 n_41
*193 n_42
*194 n_43
*195 n_44
*196 n_45
*197 n_46
*198 n_47
*199 n_48
*200 n_49
*201 n_50
*202 n_51
*203 n_52
*204 n_53
*205 n_54
*206 n_55
*207 n_56
*208 n_57
*209 n_58
*210 n_60
*211 n_61
*212 n_62
*213 n_63
*214 n_64
*215 n_65
*216 n_66
*217 n_67
*218 n_68
*219 n_69
*220 n_70
*221 n_71
*222 n_72
*223 n_73
*224 n_74
*225 n_75
*226 n_76
*227 n_77
*228 n_78
*229 n_79
*230 n_80
*231 n_81
*232 n_82
*233 n_83
*234 n_84
*235 n_85
*236 n_86
*237 n_87
*238 n_88
*239 n_89
*240 n_90
*241 n_91
*242 n_92
*243 n_93
*244 n_94
*245 n_95
*246 n_96
*247 n_97
*248 n_98
*249 n_99
*250 n_100
*251 n_101
*252 n_102
*253 n_103
*254 n_104
*255 n_105
*256 n_106
*257 n_107
*258 n_108
*259 n_109
*260 n_110
*261 n_111
*262 n_112
*263 n_113
*264 n_114
*265 n_115
*266 n_116
*267 n_117
*268 n_118
*269 n_119
*270 n_120
*271 n_121
*272 n_122
*273 n_123
*274 n_124
*275 n_125
*276 n_126
*277 n_127
*278 n_128
*279 n_129
*280 n_130
*281 n_131
*282 n_132
*283 n_133
*284 n_134
*285 n_135
*286 n_136
*287 n_137
*288 n_138
*289 n_139
*290 n_140
*291 n_141
*292 n_142
*293 n_143
*294 n_144
*295 n_145
*296 n_146
*297 n_147
*298 n_148
*299 n_149
*300 n_150
*301 n_151
*302 n_152
*303 n_153
*304 n_154
*305 n_155
*306 n_156
*307 n_157
*308 n_158
*309 n_159
*310 n_160
*311 n_161
*312 n_181
*313 FE_PHC54_n_48
*314 FE_PHC53_out_addr_3
*315 FE_PHC52_n_44
*316 FE_PHC51_out_addr_2
*317 FE_PHC50_n_26
*318 FE_PHC49_n_38
*319 FE_PHC48_n_18
*320 FE_PHC47_n_20
*321 FE_PHC46_out_addr_1
*322 FE_PHC45_n_24
*323 FE_PHC44_out_addr_0
*324 FE_PHC43_n_32
*325 FE_PHC42_n_34
*326 FE_PHC41_n_22
*327 FE_PHC40_n_30
*328 FE_PHC39_n_36
*329 FE_PHC38_n_40
*330 FE_PHC37_n_28
*331 FE_PHC36_n_42
*332 FE_PHC35_n_46
*333 FE_PHC34_req_meta_q_1
*334 FE_PHC33_req_meta_q_0
*335 FE_PHC32_req_meta_q_10
*336 FE_PHC31_req_meta_q_11
*337 FE_PHC30_req_meta_q_6
*338 FE_PHC29_req_meta_q_4
*339 FE_PHC28_req_meta_q_14
*340 FE_PHC27_req_meta_q_3
*341 FE_PHC26_reset_release_q_0
*342 FE_PHC25_req_meta_q_2
*343 FE_PHC24_req_meta_q_8
*344 FE_PHC23_req_meta_q_5
*345 FE_PHC22_req_meta_q_7
*346 FE_PHC21_req_meta_q_15
*347 FE_PHC20_req_meta_q_9
*348 FE_PHC19_req_meta_q_13
*349 FE_PHC18_req_meta_q_12
*350 FE_PHC17_req_meta_q_1
*351 FE_PHC16_req_meta_q_0
*352 FE_PHC15_req_meta_q_4
*353 FE_PHC14_req_meta_q_10
*354 FE_PHC13_req_meta_q_3
*355 FE_PHC12_req_meta_q_14
*356 FE_PHC11_req_meta_q_11
*357 FE_PHC10_req_meta_q_2
*358 FE_PHC9_req_meta_q_9
*359 FE_PHC8_req_meta_q_12
*360 FE_PHC7_req_meta_q_13
*361 FE_PHC6_req_meta_q_5
*362 FE_PHC5_req_meta_q_6
*363 FE_PHC4_req_meta_q_8
*364 FE_PHC3_req_meta_q_7
*365 FE_PHC2_req_meta_q_15
*366 FE_PHC1_reset_release_q_0
*367 CTS_ccl_a_buf_00001
*368 FE_OFC0_reset_release_q_1
*369 pending_q_reg\[0\]
*370 pending_q_reg\[1\]
*371 pending_q_reg\[2\]
*372 pending_q_reg\[3\]
*373 pending_q_reg\[4\]
*374 pending_q_reg\[5\]
*375 pending_q_reg\[6\]
*376 pending_q_reg\[7\]
*377 pending_q_reg\[8\]
*378 pending_q_reg\[9\]
*379 pending_q_reg\[10\]
*380 pending_q_reg\[11\]
*381 pending_q_reg\[12\]
*382 pending_q_reg\[13\]
*383 pending_q_reg\[14\]
*384 pending_q_reg\[15\]
*385 g5464__2398
*386 g5476__5107
*387 g5477__6260
*388 g5465__4319
*389 g5475__8428
*390 g5466__5526
*391 g5467__6783
*392 g5469__3680
*393 g5474__1617
*394 g5470__2802
*395 g5471__1705
*396 g5472__5122
*397 g5461__8246
*398 g5473__7098
*399 g5463__6131
*400 g5462__1881
*401 out_addr_q_reg\[0\]
*402 g5478__5115
*403 g5479__7482
*404 g5480__4733
*405 g5481__6161
*406 g5482__9315
*407 g5483__9945
*408 g5485__2883
*409 g5487__2346
*410 out_addr_q_reg\[1\]
*411 g5489__1666
*412 g5490__7410
*413 g5492__6417
*414 g5491__5477
*415 g5493__2398
*416 g5494__5107
*417 g5495
*418 g5497__6260
*419 g5505__4319
*420 g5504__8428
*421 g5503__5526
*422 g5506__6783
*423 g5498__3680
*424 g5508__1617
*425 g5507__2802
*426 g5499__1705
*427 g5511__5122
*428 out_addr_q_reg\[2\]
*429 g5515__8246
*430 epoch_bin_q_reg\[2\]
*431 g5510__7098
*432 g5514__6131
*433 epoch_bin_q_reg\[3\]
*434 g5512__1881
*435 g5513__5115
*436 g5517__7482
*437 g5520__4733
*438 g5522__6161
*439 epoch_bin_q_reg\[1\]
*440 g5516__9315
*441 g5518__9945
*442 g5496__2883
*443 g5521__2346
*444 g5509
*445 g5524
*446 g5519__1666
*447 epoch_bin_q_reg\[0\]
*448 g5501__7410
*449 g5526__6417
*450 g5525__5477
*451 g5528__2398
*452 out_addr_q_reg\[3\]
*453 g5529__5107
*454 out_valid_q_reg
*455 g5531__6260
*456 g5533__4319
*457 g5532__8428
*458 g5534__5526
*459 g5535__6783
*460 g5536
*461 g5538
*462 g5537__3680
*463 g5539__1617
*464 g5540__2802
*465 g5541__1705
*466 g5543__5122
*467 g5544__8246
*468 g5542__7098
*469 g5545__6131
*470 g5546__1881
*471 g5547__5115
*472 g5548__7482
*473 g5549__4733
*474 g5550__6161
*475 g5551__9315
*476 ack_q_reg\[13\]
*477 ack_q_reg\[4\]
*478 g5553__9945
*479 ack_q_reg\[3\]
*480 g5552__2883
*481 ack_q_reg\[12\]
*482 g5554__2346
*483 ack_q_reg\[6\]
*484 ack_q_reg\[8\]
*485 ack_q_reg\[7\]
*486 ack_q_reg\[10\]
*487 ack_q_reg\[1\]
*488 ack_q_reg\[2\]
*489 ack_q_reg\[15\]
*490 g5555__1666
*491 ack_q_reg\[9\]
*492 g5556__7410
*493 ack_q_reg\[11\]
*494 ack_q_reg\[5\]
*495 ack_q_reg\[14\]
*496 ack_q_reg\[0\]
*497 g5557__6417
*498 g5558__5477
*499 g5559__2398
*500 g5591__5107
*501 g5577__6260
*502 g5578__4319
*503 g5579__8428
*504 g5580__5526
*505 g5581__6783
*506 g5582__3680
*507 g5583__1617
*508 g5584__2802
*509 g5585__1705
*510 g5586__5122
*511 g5587__8246
*512 g5588__7098
*513 g5589__6131
*514 g5590__1881
*515 g5576__5115
*516 g5607__7482
*517 g5593__4733
*518 g5594__6161
*519 g5595__9315
*520 g5596__9945
*521 g5597__2883
*522 g5598__2346
*523 g5599__1666
*524 g5600__7410
*525 g5601__6417
*526 g5602__5477
*527 g5603__2398
*528 g5604__5107
*529 g5605__6260
*530 g5606__4319
*531 g5592__8428
*532 g5613
*533 g5609
*534 g5611
*535 g5612
*536 g5608
*537 g5615
*538 g5624
*539 g5625
*540 g5631
*541 g5627
*542 g5628
*543 g5629
*544 g5626
*545 g5630
*546 g5614
*547 g5610
*548 req_sync_q_reg\[4\]
*549 req_sync_q_reg\[8\]
*550 req_sync_q_reg\[5\]
*551 req_sync_q_reg\[9\]
*552 req_sync_q_reg\[3\]
*553 req_sync_q_reg\[10\]
*554 req_sync_q_reg\[0\]
*555 req_sync_q_reg\[14\]
*556 req_sync_q_reg\[6\]
*557 req_sync_q_reg\[2\]
*558 req_sync_q_reg\[13\]
*559 req_sync_q_reg\[12\]
*560 req_sync_q_reg\[1\]
*561 req_sync_q_reg\[15\]
*562 req_sync_q_reg\[11\]
*563 req_sync_q_reg\[7\]
*564 req_meta_q_reg\[15\]
*565 req_meta_q_reg\[10\]
*566 req_meta_q_reg\[0\]
*567 req_meta_q_reg\[2\]
*568 req_meta_q_reg\[1\]
*569 req_meta_q_reg\[5\]
*570 req_meta_q_reg\[11\]
*571 req_meta_q_reg\[13\]
*572 req_meta_q_reg\[7\]
*573 req_meta_q_reg\[3\]
*574 req_meta_q_reg\[4\]
*575 req_meta_q_reg\[6\]
*576 req_meta_q_reg\[12\]
*577 req_meta_q_reg\[9\]
*578 req_meta_q_reg\[8\]
*579 req_meta_q_reg\[14\]
*580 g5659
*581 g5656
*582 g5660__6783
*583 reset_release_q_reg\[1\]
*584 g5657__3680
*585 g5663__1617
*586 reset_release_q_reg\[0\]
*587 g5674
*588 g5669
*589 g5667
*590 g5672
*591 g5668
*592 g5680
*593 g5673
*594 g5670
*595 g5679
*596 g5678
*597 g5666
*598 g5664
*599 g5677
*600 g5675
*601 g5676
*602 g5665
*603 g5671
*604 g2


*PORTS

*57 I *C 0 0.28
*58 I *C 0 8.12
*59 I *C 0 145.88
*60 I *C 0 137.48
*61 I *C 0 129.64
*62 I *C 0 121.24
*63 I *C 0 113.4
*64 I *C 0 105
*65 I *C 0 97.16
*66 I *C 0 88.76
*67 I *C 0 80.92
*68 I *C 0 73.08
*69 I *C 0 64.68
*70 I *C 0 56.84
*71 I *C 0 48.44
*72 I *C 0 40.6
*73 I *C 0 32.2
*74 I *C 0 24.36
*75 O *C 155.1 29.4
*76 O *C 155.1 36.68
*77 O *C 155.1 43.96
*78 O *C 155.1 51.24
*79 O *C 155.1 58.52
*80 O *C 155.1 65.8
*81 O *C 155.1 73.08
*82 O *C 155.1 80.36
*83 O *C 155.1 87.64
*84 O *C 155.1 94.92
*85 O *C 155.1 102.2
*86 O *C 155.1 109.48
*87 O *C 155.1 116.76
*88 O *C 155.1 124.04
*89 O *C 155.1 131.32
*90 O *C 155.1 138.6
*91 O *C 155.1 0.28
*92 O *C 155.1 7.56
*93 O *C 155.1 14.84
*94 O *C 155.1 22.12
*95 O *C 155.1 145.88
*96 I *C 0 15.96


*D_NET *1 0.00108142

*CONN
*I *313:Y O *C 55.11 37.24 *L 0 *D BUFX3
*I *489:D I *C 61.05 36.68 *L 0.00184 *D DFFRHQX1

*CAP
1 *313:Y 3.98418e-05
2 *489:D 6.3299e-05
3 *1:2 0.00026305
4 *1:3 0.00026305
5 *1:4 7.5168e-05
6 *1:5 5.09202e-05
7 *1:6 0.00013758
8 *1:7 8.25215e-05
9 *1:8 0.000105983

*RES
1 *1:8 *489:D 6.4000001
2 *1:6 *1:8 0.367676
3 *1:6 *1:7 0.312012
4 *1:2 *1:7 6.4000001
5 *1:3 *1:2 1.10312
6 *1:5 *1:3 6.4000001
7 *1:4 *1:5 6.4000001
8 *313:Y *1:4 0.223828
*END

*D_NET *2 0.00142967

*CONN
*I *314:Y O *C 127.05 33.32 *L 0 *D BUFX3
*I *457:A0N I *C 121.11 33.32 *L 0.0019 *D OAI2BB2XL

*CAP
1 *314:Y 6.32998e-05
2 *457:A0N 3.98563e-05
3 *2:2 7.51866e-05
4 *2:3 5.09217e-05
5 *2:4 0.00052778
6 *2:5 7.24243e-05
7 *2:6 0.00052778
8 *2:7 7.24243e-05

*RES
1 *2:7 *314:Y 6.4000001
2 *2:5 *2:7 0.183887
3 *2:6 *2:5 6.4000001
4 *2:4 *2:6 1.65469
5 *2:3 *2:4 6.4000001
6 *2:2 *457:A0N 0.223828
7 *2:2 *2:3 6.4000001
*END

*D_NET *3 0.00129915

*CONN
*I *315:Y O *C 88.77 107.8 *L 0 *D BUFX3
*I *496:D I *C 87.45 114.52 *L 0.00184 *D DFFRHQX1

*CAP
1 *315:Y 3.98378e-05
2 *496:D 6.33043e-05
3 *3:2 0.00038524
4 *3:3 0.00038524
5 *3:4 5.09186e-05
6 *3:5 0.000149722
7 *3:6 7.51669e-05
8 *3:7 0.000149722

*RES
1 *315:Y *3:6 0.223828
2 *3:3 *3:6 6.4000001
3 *3:3 *3:2 1.71602
4 *3:7 *3:2 6.4000001
5 *3:5 *3:7 0.551562
6 *3:4 *3:5 6.4000001
7 *496:D *3:4 6.4000001
*END

*D_NET *4 0.000885691

*CONN
*I *316:Y O *C 111.21 33.32 *L 0 *D BUFX3
*I *435:A0N I *C 109.23 33.32 *L 0.00186 *D OAI2BB2X1

*CAP
1 *316:Y 6.33015e-05
2 *435:A0N 0.000111891
3 *4:2 0.00019851
4 *4:3 0.00012195
5 *4:4 0.000154761
6 *4:5 0.000169561
7 *4:6 6.57187e-05

*RES
1 *4:6 *316:Y 6.4000001
2 *4:5 *4:6 0.183887
3 *4:4 *4:5 0.467969
4 *4:3 *4:4 6.4000001
5 *4:2 *435:A0N 0.569727
6 *4:2 *4:3 0.447656
*END

*D_NET *5 0.000673438

*CONN
*I *317:Y O *C 73.59 117.88 *L 0 *D BUFX3
*I *488:D I *C 72.27 114.52 *L 0.00184 *D DFFRHQX1

*CAP
1 *317:Y 6.33004e-05
2 *488:D 6.33004e-05
3 *5:2 6.57186e-05
4 *5:3 0.0002077
5 *5:4 0.0002077
6 *5:5 6.57186e-05

*RES
1 *5:5 *317:Y 6.4000001
2 *5:4 *5:5 0.183887
3 *5:3 *5:4 0.77998
4 *5:2 *5:3 0.183887
5 *488:D *5:2 6.4000001
*END

*D_NET *6 0.000809888

*CONN
*I *318:Y O *C 110.55 103.88 *L 0 *D BUFX3
*I *477:D I *C 115.17 104.44 *L 0.00184 *D DFFRHQX1

*CAP
1 *318:Y 4.12087e-05
2 *477:D 6.32987e-05
3 *6:2 0.0002635
4 *6:3 0.0002635
5 *6:4 7.6539e-05
6 *6:5 5.09188e-05
7 *6:6 5.09188e-05

*RES
1 *6:6 *477:D 6.4000001
2 *6:2 *6:6 6.4000001
3 *6:3 *6:2 1.10312
4 *6:5 *6:3 6.4000001
5 *6:4 *6:5 6.4000001
6 *318:Y *6:4 0.223828
*END

*D_NET *7 0.000961403

*CONN
*I *319:Y O *C 121.11 87.64 *L 0 *D BUFX3
*I *484:D I *C 119.79 94.36 *L 0.00184 *D DFFRHQX1

*CAP
1 *319:Y 6.32989e-05
2 *484:D 6.32989e-05
3 *7:2 0.000105983
4 *7:3 0.000336882
5 *7:4 0.00039194

*RES
1 *7:3 *319:Y 6.4000001
2 *7:3 *7:4 1.55996
3 *7:2 *7:4 0.367676
4 *484:D *7:2 6.4000001
*END

*D_NET *8 0.0011499

*CONN
*I *320:Y O *C 70.29 43.4 *L 0 *D BUFX3
*I *495:D I *C 65.67 46.76 *L 0.00184 *D DFFRHQX1

*CAP
1 *320:Y 6.32994e-05
2 *495:D 6.32994e-05
3 *8:2 0.000105983
4 *8:3 0.000165909
5 *8:4 0.00023975998
6 *8:5 0.00022097
7 *8:6 5.0919e-05
8 *8:7 0.00023975998

*RES
1 *8:6 *320:Y 6.4000001
2 *8:7 *8:6 6.4000001
3 *8:4 *8:7 0.919238
4 *8:3 *8:4 6.4000001
5 *8:3 *8:5 0.936035
6 *8:2 *8:5 0.367676
7 *495:D *8:2 6.4000001
*END

*D_NET *9 0.000551901

*CONN
*I *321:Y O *C 119.13 33.32 *L 0 *D BUFX3
*I *412:A0N I *C 117.15 33.32 *L 0.00186 *D OAI2BB2X1

*CAP
1 *321:Y 3.73006e-05
2 *412:A0N 0.000111891
3 *9:2 0.00023865
4 *9:3 0.00016406

*RES
1 *9:3 *321:Y 0.189909
2 *9:2 *412:A0N 0.569736
3 *9:2 *9:3 0.671478271
*END

*D_NET *10 0.00154281

*CONN
*I *322:Y O *C 126.39 63.56 *L 0 *D BUFX3
*I *493:D I *C 121.11 56.84 *L 0.00184 *D DFFRHQX1

*CAP
1 *322:Y 3.73013e-05
2 *493:D 6.32989e-05
3 *10:2 0.00029119
4 *10:3 0.00029119
5 *10:4 6.57205e-05
6 *10:5 0.000140079
7 *10:6 0.000125283
8 *10:7 0.000224381
9 *10:8 7.99878e-05
10 *10:9 0.000224381

*RES
1 *10:8 *322:Y 0.189941
2 *10:9 *10:8 6.4000001
3 *10:7 *10:9 0.936035
4 *10:2 *10:7 6.4000001
5 *10:3 *10:2 1.28701
6 *10:6 *10:3 6.4000001
7 *10:5 *10:6 0.467969
8 *10:4 *10:5 0.183887
9 *493:D *10:4 6.4000001
*END

*D_NET *11 0.00116818

*CONN
*I *323:Y O *C 125.73 37.24 *L 0 *D BUFX3
*I *402:A0N I *C 119.79 37.24 *L 0.00186 *D OAI2BB2X1

*CAP
1 *323:Y 6.33023e-05
2 *402:A0N 6.33023e-05
3 *11:2 6.89499e-05
4 *11:3 6.89499e-05
5 *11:4 0.0003576
6 *11:5 0.0003576
7 *11:6 5.39824e-05
8 *11:7 6.87808e-05
9 *11:8 6.57196e-05

*RES
1 *11:8 *323:Y 6.4000001
2 *11:7 *11:8 0.183887
3 *11:6 *11:7 0.155957
4 *11:4 *11:6 6.4000001
5 *11:5 *11:4 1.4709
6 *11:2 *11:5 6.4000001
7 *11:3 *11:2 0.155957
8 *402:A0N *11:3 6.4000001
*END

*D_NET *12 0.00150166

*CONN
*I *324:Y O *C 117.81 37.24 *L 0 *D BUFX3
*I *476:D I *C 120.45 46.76 *L 0.00184 *D DFFRHQX1

*CAP
1 *324:Y 6.3299e-05
2 *476:D 6.3299e-05
3 *12:2 0.00052193
4 *12:3 0.00052193
5 *12:4 0.000140137
6 *12:5 5.09227e-05
7 *12:6 0.000140137

*RES
1 *12:5 *476:D 6.4000001
2 *12:6 *12:5 6.4000001
3 *12:4 *12:6 0.735449
4 *12:3 *12:4 6.4000001
5 *12:2 *12:3 2.34004
6 *324:Y *12:2 6.4000001
*END

*D_NET *13 0.00137554

*CONN
*I *325:Y O *C 117.81 77.56 *L 0 *D BUFX3
*I *491:D I *C 121.11 74.2 *L 0.00184 *D DFFRHQX1

*CAP
1 *325:Y 6.3301e-05
2 *491:D 6.3301e-05
3 *13:2 0.000207238
4 *13:3 0.000215940508
5 *13:4 0.000165711
6 *13:5 0.000157009
7 *13:6 0.000185801
8 *13:7 0.000200599
9 *13:8 6.57196e-05
10 *13:9 5.09216e-05

*RES
1 *13:9 *491:D 6.4000001
2 *13:2 *13:9 6.4000001
3 *13:3 *13:2 0.551562
4 *13:3 *13:4 0.155957
5 *13:8 *325:Y 6.4000001
6 *13:5 *13:4 0.551562
7 *13:7 *13:8 0.183887
8 *13:6 *13:5 6.4000001
9 *13:6 *13:7 0.77998
*END

*D_NET *14 0.000785156

*CONN
*I *326:Y O *C 73.59 107.8 *L 0 *D BUFX3
*I *479:D I *C 72.27 104.44 *L 0.00184 *D DFFRHQX1

*CAP
1 *326:Y 6.32985e-05
2 *479:D 6.32985e-05
3 *14:2 5.09191e-05
4 *14:3 0.00020296
5 *14:4 0.00024955
6 *14:5 5.09191e-05
7 *14:6 0.00010421

*RES
1 *14:5 *326:Y 6.4000001
2 *14:6 *14:5 6.4000001
3 *14:4 *14:6 0.367676
4 *14:3 *14:4 0.77998
5 *14:2 *14:3 6.4000001
6 *479:D *14:2 6.4000001
*END

*D_NET *15 0.000942465

*CONN
*I *327:Y O *C 116.49 113.96 *L 0 *D BUFX3
*I *487:D I *C 115.17 107.24 *L 0.00184 *D DFFRHQX1

*CAP
1 *327:Y 6.33044e-05
2 *487:D 6.33044e-05
3 *15:2 0.000105978
4 *15:3 0.00038247
5 *15:4 0.000327412

*RES
1 *15:4 *327:Y 6.4000001
2 *15:3 *15:4 1.55996
3 *15:2 *15:3 0.367676
4 *487:D *15:2 6.4000001
*END

*D_NET *16 0.00111977

*CONN
*I *328:Y O *C 85.47 97.72 *L 0 *D BUFX3
*I *486:D I *C 88.11 94.36 *L 0.00184 *D DFFRHQX1

*CAP
1 *328:Y 4.12108e-05
2 *486:D 6.32989e-05
3 *16:2 0.000221031
4 *16:3 0.000222870781
5 *16:4 7.65382e-05
6 *16:5 0.000221031
7 *16:6 5.092e-05
8 *16:7 0.000222870781

*RES
1 *16:6 *486:D 6.4000001
2 *16:7 *16:6 6.4000001
3 *16:3 *16:7 0.551562
4 *16:2 *16:3 6.4000001
5 *16:2 *16:5 0.77998
6 *16:4 *16:5 6.4000001
7 *328:Y *16:4 0.223828
*END

*D_NET *17 0.000623852

*CONN
*I *329:Y O *C 111.87 97.72 *L 0 *D BUFX3
*I *494:D I *C 114.51 97.16 *L 0.00184 *D DFFRHQX1

*CAP
1 *329:Y 4.12108e-05
2 *494:D 6.33016e-05
3 *17:2 0.000170480332
4 *17:3 0.000170480332
5 *17:4 7.65399e-05
6 *17:5 5.09217e-05
7 *17:6 5.09217e-05

*RES
1 *17:6 *494:D 6.4000001
2 *17:2 *17:6 6.4000001
3 *17:3 *17:2 0.551562
4 *17:5 *17:3 6.4000001
5 *17:4 *17:5 6.4000001
6 *329:Y *17:4 0.223828
*END

*D_NET *18 0.00210522

*CONN
*I *330:Y O *C 115.17 47.32 *L 0 *D BUFX3
*I *481:D I *C 121.11 54.04 *L 0.00184 *D DFFRHQX1

*CAP
1 *330:Y 6.33023e-05
2 *481:D 6.33023e-05
3 *18:2 0.000562281563
4 *18:3 0.000562281563
5 *18:4 7.1067e-05
6 *18:5 7.1067e-05
7 *18:6 6.57218e-05
8 *18:7 0.000315696
9 *18:8 0.000330496

*RES
1 *18:6 *481:D 6.4000001
2 *18:6 *18:8 0.183887
3 *18:7 *18:8 1.404
4 *18:2 *18:7 6.4000001
5 *18:3 *18:2 1.83857
6 *18:5 *18:3 6.4000001
7 *18:4 *18:5 0.155957
8 *330:Y *18:4 6.4000001
*END

*D_NET *19 0.00147938

*CONN
*I *331:Y O *C 60.39 93.8 *L 0 *D BUFX3
*I *485:D I *C 55.77 87.08 *L 0.00184 *D DFFRHQX1

*CAP
1 *331:Y 6.32986e-05
2 *485:D 6.32986e-05
3 *19:2 0.000353378
4 *19:3 0.00036831
5 *19:4 0.000257162
6 *19:5 0.000257162
7 *19:6 6.58501e-05
8 *19:7 5.09233e-05

*RES
1 *19:7 *331:Y 6.4000001
2 *19:4 *19:7 6.4000001
3 *19:5 *19:4 1.10312
4 *19:2 *19:5 6.4000001
5 *19:3 *19:2 1.55996
6 *19:6 *19:3 0.183887
7 *485:D *19:6 6.4000001
*END

*D_NET *20 0.0015913

*CONN
*I *332:Y O *C 55.77 73.64 *L 0 *D BUFX3
*I *483:D I *C 55.11 84.28 *L 0.00184 *D DFFRHQX1

*CAP
1 *332:Y 6.33023e-05
2 *483:D 6.33023e-05
3 *20:2 0.00038913
4 *20:3 0.000348736
5 *20:4 0.00027737
6 *20:5 0.00027737
7 *20:6 0.000106244
8 *20:7 6.58496e-05

*RES
1 *20:7 *332:Y 6.4000001
2 *20:6 *483:D 6.4000001
3 *20:3 *20:7 0.183887
4 *20:5 *20:6 0.367676
5 *20:3 *20:2 1.87197
6 *20:4 *20:5 0.936035
7 *20:4 *20:2 0.367676
*END

*D_NET *21 0.000798599

*CONN
*I *333:Y O *C 39.27 57.4 *L 0 *D BUFX3
*I *560:D I *C 39.27 54.04 *L 0.00184 *D DFFRHQX1

*CAP
1 *333:Y 6.32983e-05
2 *560:D 6.32983e-05
3 *21:2 0.00027028
4 *21:3 0.00027028
5 *21:4 6.57193e-05
6 *21:5 6.57193e-05

*RES
1 *21:5 *333:Y 6.4000001
2 *21:4 *560:D 6.4000001
3 *21:2 *21:5 0.183887
4 *21:3 *21:4 0.183887
5 *21:3 *21:2 1.09199
*END

*D_NET *22 0.000962839

*CONN
*I *334:Y O *C 57.75 37.24 *L 0 *D BUFX3
*I *554:D I *C 56.43 43.96 *L 0.00184 *D DFFRHQX1

*CAP
1 *334:Y 6.33013e-05
2 *554:D 6.33013e-05
3 *22:2 0.00039266
4 *22:3 0.000337597
5 *22:4 0.00010598

*RES
1 *22:3 *334:Y 6.4000001
2 *22:3 *22:2 1.55996
3 *22:4 *22:2 0.367676
4 *554:D *22:4 6.4000001
*END

*D_NET *23 0.00070518

*CONN
*I *335:Y O *C 55.77 94.36 *L 0 *D CLKBUFXL
*I *553:D I *C 56.43 97.16 *L 0.00184 *D DFFRHQX1

*CAP
1 *335:Y 6.33015e-05
2 *553:D 6.33015e-05
3 *23:2 0.000248898
4 *23:3 0.00026383
5 *23:4 6.58498e-05

*RES
1 *23:2 *553:D 6.4000001
2 *23:3 *23:2 0.77998
3 *23:4 *23:3 0.183887
4 *335:Y *23:4 6.4000001
*END

*D_NET *24 0.00172678

*CONN
*I *336:Y O *C 57.75 93.8 *L 0 *D BUFX3
*I *562:D I *C 56.43 104.44 *L 0.00184 *D DFFRHQX1

*CAP
1 *336:Y 6.33003e-05
2 *562:D 6.33003e-05
3 *24:2 0.000105981
4 *24:3 0.000154815
5 *24:4 0.00016975
6 *24:5 9.95784e-05
7 *24:6 0.000139838
8 *24:7 0.00046517
9 *24:8 0.000465042

*RES
1 *24:3 *336:Y 6.4000001
2 *24:3 *24:4 0.467969
3 *24:4 *24:7 0.183887
4 *24:7 *24:8 2.02803
5 *24:5 *24:8 0.183887
6 *24:5 *24:6 0.312012
7 *24:2 *24:6 0.367676
8 *562:D *24:2 6.4000001
*END

*D_NET *25 0.00280646

*CONN
*I *337:Y O *C 42.57 56.84 *L 0 *D CLKBUFXL
*I *556:D I *C 39.27 74.2 *L 0.00184 *D DFFRHQX1

*CAP
1 *337:Y 6.32996e-05
2 *556:D 6.32996e-05
3 *25:2 0.000471242
4 *25:3 0.000471242
5 *25:4 0.00053603
6 *25:5 0.00053603
7 *25:6 0.000105979
8 *25:7 9.73254e-05
9 *25:8 0.000137576
10 *25:9 6.57206e-05
11 *25:10 0.000129364
12 *25:11 0.000129364

*RES
1 *25:9 *337:Y 6.4000001
2 *25:3 *25:9 0.183887
3 *25:3 *25:2 1.55996
4 *25:2 *25:10 0.183887
5 *25:10 *25:11 0.624023
6 *25:5 *25:11 0.183887
7 *25:5 *25:4 2.34004
8 *25:7 *25:4 0.183887
9 *25:7 *25:8 0.312012
10 *25:6 *25:8 0.367676
11 *556:D *25:6 6.4000001
*END

*D_NET *26 0.00184537

*CONN
*I *338:Y O *C 53.79 54.04 *L 0 *D CLKBUFXL
*I *548:D I *C 49.83 64.12 *L 0.00184 *D DFFRHQX1

*CAP
1 *338:Y 6.33005e-05
2 *548:D 6.33005e-05
3 *26:2 6.57456e-05
4 *26:3 0.000669963
5 *26:4 0.000123686
6 *26:5 0.00068478
7 *26:6 5.09183e-05
8 *26:7 0.000123686

*RES
1 *26:6 *338:Y 6.4000001
2 *26:7 *26:6 6.4000001
3 *26:4 *26:7 0.735449
4 *26:3 *26:4 6.4000001
5 *26:3 *26:5 2.80801
6 *26:2 *26:5 0.183887
7 *548:D *26:2 6.4000001
*END

*D_NET *27 0.000958479

*CONN
*I *339:Y O *C 39.27 94.36 *L 0 *D CLKBUFXL
*I *555:D I *C 39.93 97.16 *L 0.00184 *D DFFRHQX1

*CAP
1 *339:Y 6.33012e-05
2 *555:D 6.33012e-05
3 *27:2 0.00014329
4 *27:3 0.00014329
5 *27:4 5.09223e-05
6 *27:5 0.00025054
7 *27:6 0.000243838

*RES
1 *27:6 *555:D 6.4000001
2 *27:5 *27:6 0.77998
3 *27:2 *27:5 6.4000001
4 *27:3 *27:2 0.367676
5 *27:4 *27:3 6.4000001
6 *339:Y *27:4 6.4000001
*END

*D_NET *28 0.00107654

*CONN
*I *340:Y O *C 45.21 56.84 *L 0 *D CLKBUFXL
*I *552:D I *C 49.83 56.84 *L 0.00184 *D DFFRHQX1

*CAP
1 *340:Y 6.33025e-05
2 *552:D 6.33025e-05
3 *28:2 0.00036461
4 *28:3 0.000321748
5 *28:4 5.0918e-05
6 *28:5 0.000102298
7 *28:6 5.0918e-05
8 *28:7 5.94414e-05

*RES
1 *28:6 *552:D 6.4000001
2 *28:7 *28:6 6.4000001
3 *28:5 *28:7 0.183887
4 *28:5 *28:2 0.312012
5 *28:3 *28:2 1.10312
6 *28:4 *28:3 6.4000001
7 *340:Y *28:4 6.4000001
*END

*D_NET *29 7.972e-05

*CONN
*I *341:A I *C 26.07 37.24 *L 0.00446 *D BUFX3
*I *366:Y O *C 25.41 36.68 *L 0 *D CLKBUFXL

*CAP
1 *341:A 3.986e-05
2 *366:Y 3.986e-05

*RES
1 *366:Y *341:A 0.223826
*END

*D_NET *30 0.00116357

*CONN
*I *342:Y O *C 45.21 46.76 *L 0 *D CLKBUFXL
*I *557:D I *C 49.83 46.76 *L 0.00184 *D DFFRHQX1

*CAP
1 *342:Y 3.72987e-05
2 *557:D 6.33003e-05
3 *30:2 0.00038104
4 *30:3 0.00038104
5 *30:4 7.99873e-05
6 *30:5 5.09216e-05
7 *30:6 8.83424e-05
8 *30:7 8.16386e-05

*RES
1 *30:7 *557:D 6.4000001
2 *30:6 *30:7 0.155957
3 *30:2 *30:6 6.4000001
4 *30:3 *30:2 1.28701
5 *30:5 *30:3 6.4000001
6 *30:4 *30:5 6.4000001
7 *30:4 *342:Y 0.189941
*END

*D_NET *31 0.00144316

*CONN
*I *343:Y O *C 32.01 84.28 *L 0 *D CLKBUFXL
*I *549:D I *C 39.27 84.28 *L 0.00184 *D DFFRHQX1

*CAP
1 *343:Y 6.3301e-05
2 *549:D 6.3301e-05
3 *31:2 0.000130978
4 *31:3 0.000130978
5 *31:4 5.09196e-05
6 *31:5 6.63207e-05
7 *31:6 0.0003097
8 *31:7 0.000109348
9 *31:8 0.0003097
10 *31:9 5.39819e-05
11 *31:10 5.39819e-05
12 *31:11 0.000100648

*RES
1 *31:9 *549:D 6.4000001
2 *31:9 *31:10 0.155957
3 *31:11 *31:10 6.4000001
4 *31:7 *31:11 0.367676
5 *31:7 *31:8 0.155957
6 *31:6 *31:8 1.4709
7 *31:2 *31:6 0.155957
8 *31:3 *31:2 0.367676
9 *31:5 *31:3 0.155957
10 *31:4 *31:5 6.4000001
11 *343:Y *31:4 6.4000001
*END

*D_NET *32 0.00125169

*CONN
*I *344:Y O *C 43.89 64.12 *L 0 *D CLKBUFXL
*I *550:D I *C 37.95 66.92 *L 0.00184 *D DFFRHQX1

*CAP
1 *344:Y 3.73006e-05
2 *550:D 6.3301e-05
3 *32:2 0.000156429
4 *32:3 0.000156429
5 *32:4 5.09214e-05
6 *32:5 0.00035366
7 *32:6 7.99924e-05
8 *32:7 0.00035366

*RES
1 *344:Y *32:6 0.189941
2 *32:3 *32:6 6.4000001
3 *32:3 *32:2 0.624023
4 *32:7 *32:2 6.4000001
5 *32:5 *32:7 1.65469
6 *32:4 *32:5 6.4000001
7 *550:D *32:4 6.4000001
*END

*D_NET *33 0.00173859

*CONN
*I *345:Y O *C 53.79 77 *L 0 *D CLKBUFXL
*I *563:D I *C 39.27 77 *L 0.00184 *D DFFRHQX1

*CAP
1 *345:Y 6.33007e-05
2 *563:D 6.33007e-05
3 *33:2 5.09148e-05
4 *33:3 0.00075508
5 *33:4 5.09148e-05
6 *33:5 0.00075508

*RES
1 *33:4 *345:Y 6.4000001
2 *33:5 *33:4 6.4000001
3 *33:3 *33:5 3.86104
4 *33:2 *33:3 6.4000001
5 *563:D *33:2 6.4000001
*END

*D_NET *34 0.000959881

*CONN
*I *346:Y O *C 37.95 107.24 *L 0 *D CLKBUFXL
*I *561:D I *C 39.93 104.44 *L 0.00184 *D DFFRHQX1

*CAP
1 *346:Y 6.33016e-05
2 *561:D 6.33016e-05
3 *34:2 0.000165429297
4 *34:3 0.000165429297
5 *34:4 0.00014104
6 *34:5 0.00011017
7 *34:6 0.00011017
8 *34:7 0.00014104

*RES
1 *34:5 *561:D 6.4000001
2 *34:5 *34:6 0.312012
3 *34:7 *34:6 6.4000001
4 *34:4 *34:7 0.551562
5 *34:2 *346:Y 6.4000001
6 *34:3 *34:4 6.4000001
7 *34:3 *34:2 0.467969
*END

*D_NET *35 0.000982495

*CONN
*I *347:Y O *C 41.91 94.36 *L 0 *D CLKBUFXL
*I *551:D I *C 39.93 87.08 *L 0.00184 *D DFFRHQX1

*CAP
1 *347:Y 6.32984e-05
2 *551:D 6.32984e-05
3 *35:2 6.57193e-05
4 *35:3 0.00036223
5 *35:4 0.00036223
6 *35:5 6.57193e-05

*RES
1 *35:5 *347:Y 6.4000001
2 *35:4 *35:5 0.183887
3 *35:3 *35:4 1.55996
4 *35:2 *35:3 0.183887
5 *551:D *35:2 6.4000001
*END

*D_NET *36 0.00224686

*CONN
*I *348:Y O *C 70.95 107.24 *L 0 *D CLKBUFXL
*I *558:D I *C 56.43 107.24 *L 0.00184 *D DFFRHQX1

*CAP
1 *348:Y 6.33029e-05
2 *558:D 6.33029e-05
3 *36:2 7.24192e-05
4 *36:3 7.24192e-05
5 *36:4 0.000104214
6 *36:5 0.00066977
7 *36:6 0.000147077
8 *36:7 0.00066977
9 *36:8 0.000150756
10 *36:9 0.00011659
11 *36:10 5.09162e-05
12 *36:11 6.6328e-05

*RES
1 *36:10 *348:Y 6.4000001
2 *36:11 *36:10 6.4000001
3 *36:9 *36:11 0.155957
4 *36:8 *36:9 0.367676
5 *36:7 *36:8 0.312012
6 *36:5 *36:7 3.12559
7 *36:5 *36:6 0.312012
8 *36:4 *36:6 0.367676
9 *36:3 *36:4 6.4000001
10 *36:2 *36:3 0.183887
11 *558:D *36:2 6.4000001
*END

*D_NET *37 0.000673438

*CONN
*I *349:Y O *C 58.41 117.32 *L 0 *D CLKBUFXL
*I *559:D I *C 56.43 114.52 *L 0.00184 *D DFFRHQX1

*CAP
1 *349:Y 6.33004e-05
2 *559:D 6.33004e-05
3 *37:2 0.0002077
4 *37:3 0.0002077
5 *37:4 6.57186e-05
6 *37:5 6.57186e-05

*RES
1 *37:5 *349:Y 6.4000001
2 *37:2 *37:5 0.183887
3 *37:3 *37:2 0.77998
4 *37:4 *37:3 0.183887
5 *559:D *37:4 6.4000001
*END

*D_NET *38 0.00172597

*CONN
*I *333:A I *C 37.95 57.4 *L 0.00446 *D BUFX3
*I *350:Y O *C 40.59 47.32 *L 0 *D BUFX3

*CAP
1 *333:A 6.33022e-05
2 *350:Y 3.72984e-05
3 *38:2 0.000244377
4 *38:3 7.9991e-05
5 *38:4 0.000488049
6 *38:5 0.00050285
7 *38:6 6.57192e-05
8 *38:7 0.000244377

*RES
1 *38:6 *333:A 6.4000001
2 *38:5 *38:6 0.183887
3 *38:4 *38:5 2.18398
4 *38:3 *38:4 6.4000001
5 *350:Y *38:7 0.189941
6 *38:2 *38:3 0.189941
7 *38:2 *38:7 1.11914
*END

*D_NET *39 0.0012221

*CONN
*I *334:A I *C 56.43 37.24 *L 0.00446 *D BUFX3
*I *351:Y O *C 53.79 43.4 *L 0 *D BUFX3

*CAP
1 *334:A 3.9858e-05
2 *351:Y 4.12115e-05
3 *39:2 7.65382e-05
4 *39:3 0.0001421
5 *39:4 0.00039074
6 *39:5 0.00039074
7 *39:6 7.51907e-05
8 *39:7 6.57225e-05

*RES
1 *39:6 *334:A 0.223828
2 *39:7 *39:6 6.4000001
3 *39:4 *39:7 0.183887
4 *39:4 *39:5 1.87197
5 *39:3 *39:5 0.183887
6 *39:2 *39:3 3.2
7 *351:Y *39:2 0.223828
*END

*D_NET *40 0.00216222

*CONN
*I *338:A I *C 51.81 53.48 *L 0.002 *D CLKBUFXL
*I *352:Y O *C 47.19 63.56 *L 0 *D BUFX3

*CAP
1 *338:A 6.33018e-05
2 *352:Y 4.12049e-05
3 *40:2 0.00068729
4 *40:3 0.00068729
5 *40:4 7.65368e-05
6 *40:5 0.000120605
7 *40:6 0.000242992
8 *40:7 0.000242992

*RES
1 *40:3 *338:A 6.4000001
2 *40:3 *40:2 2.96396
3 *40:7 *40:2 6.4000001
4 *40:6 *40:7 1.10312
5 *40:5 *40:6 3.2
6 *40:4 *40:5 3.2
7 *352:Y *40:4 0.223828
*END

*D_NET *41 0.000724492

*CONN
*I *335:A I *C 53.79 93.8 *L 0.002 *D CLKBUFXL
*I *353:Y O *C 53.79 97.72 *L 0 *D BUFX3

*CAP
1 *335:A 6.33e-05
2 *353:Y 4.12094e-05
3 *41:2 0.00013608
4 *41:3 0.000151009
5 *41:4 0.0001008
6 *41:5 7.65396e-05
7 *41:6 0.00015555

*RES
1 *353:Y *41:5 0.223828
2 *41:6 *41:5 3.2
3 *41:4 *41:6 0.312012
4 *41:3 *41:4 0.183887
5 *41:2 *41:3 0.624023
6 *335:A *41:2 6.4000001
*END

*D_NET *42 0.00111291

*CONN
*I *340:A I *C 43.23 57.4 *L 0.002 *D CLKBUFXL
*I *354:Y O *C 47.19 57.4 *L 0 *D BUFX3

*CAP
1 *340:A 6.32992e-05
2 *354:Y 4.12077e-05
3 *42:2 5.09204e-05
4 *42:3 0.000307817
5 *42:4 7.65424e-05
6 *42:5 0.0001206
7 *42:6 0.000136002
8 *42:7 0.00031652

*RES
1 *354:Y *42:4 0.223828
2 *42:5 *42:4 3.2
3 *42:6 *42:5 3.2
4 *42:6 *42:7 0.155957
5 *42:3 *42:7 1.28701
6 *42:2 *42:3 6.4000001
7 *340:A *42:2 6.4000001
*END

*D_NET *43 0.000763211

*CONN
*I *339:A I *C 37.29 93.8 *L 0.002 *D CLKBUFXL
*I *355:Y O *C 37.29 97.72 *L 0 *D BUFX3

*CAP
1 *339:A 6.32999e-05
2 *355:Y 4.12104e-05
3 *43:2 0.00015148
4 *43:3 0.000166280137
5 *43:4 0.000104761
6 *43:5 7.65394e-05
7 *43:6 0.00015964

*RES
1 *355:Y *43:5 0.223828
2 *43:6 *43:5 3.2
3 *43:4 *43:6 0.312012
4 *43:3 *43:4 0.183887
5 *43:2 *43:3 0.624023
6 *339:A *43:2 6.4000001
*END

*D_NET *44 0.00224867

*CONN
*I *336:A I *C 56.43 93.8 *L 0.00446 *D BUFX3
*I *356:Y O *C 53.79 103.88 *L 0 *D BUFX3

*CAP
1 *336:A 6.32971e-05
2 *356:Y 4.22875e-05
3 *44:2 0.000688274
4 *44:3 0.0007032
5 *44:4 7.76219e-05
6 *44:5 0.000120596
7 *44:6 0.000136691
8 *44:7 6.58509e-05
9 *44:8 0.000107076
10 *44:9 0.000179548
11 *44:10 6.42199e-05

*RES
1 *44:7 *336:A 6.4000001
2 *44:7 *44:3 0.183887
3 *44:3 *44:2 2.65195
4 *44:10 *44:2 6.4000001
5 *44:8 *44:10 0.183887
6 *44:8 *44:9 0.312012
7 *44:6 *44:9 0.551562
8 *44:5 *44:6 3.2
9 *44:4 *44:5 3.2
10 *356:Y *44:4 0.223828
*END

*D_NET *45 0.00131667

*CONN
*I *342:A I *C 43.23 47.32 *L 0.002 *D CLKBUFXL
*I *357:Y O *C 47.19 47.32 *L 0 *D BUFX3

*CAP
1 *342:A 6.33003e-05
2 *357:Y 4.12116e-05
3 *45:2 0.00048593
4 *45:3 0.000416246
5 *45:4 5.64193e-05
6 *45:5 5.64193e-05
7 *45:6 7.65432e-05
8 *45:7 0.000120602

*RES
1 *357:Y *45:6 0.223828
2 *45:7 *45:6 3.2
3 *45:2 *45:7 3.2
4 *45:5 *342:A 6.4000001
5 *45:3 *45:2 1.28701
6 *45:4 *45:5 0.155957
7 *45:4 *45:3 6.4000001
*END

*D_NET *46 0.00140761

*CONN
*I *347:A I *C 39.93 93.8 *L 0.002 *D CLKBUFXL
*I *358:Y O *C 37.29 87.64 *L 0 *D BUFX3

*CAP
1 *347:A 6.33044e-05
2 *358:Y 4.12129e-05
3 *46:2 0.000388325
4 *46:3 0.00045801
5 *46:4 7.65412e-05
6 *46:5 0.000164649
7 *46:6 5.09203e-05
8 *46:7 0.000164649

*RES
1 *46:6 *347:A 6.4000001
2 *46:7 *46:6 6.4000001
3 *46:5 *46:7 0.551562
4 *46:2 *46:5 6.4000001
5 *46:3 *46:2 1.87197
6 *46:4 *46:3 3.2
7 *358:Y *46:4 0.223828
*END

*D_NET *47 0.000884542

*CONN
*I *349:A I *C 56.43 117.88 *L 0.002 *D CLKBUFXL
*I *359:Y O *C 53.79 113.96 *L 0 *D BUFX3

*CAP
1 *349:A 3.98602e-05
2 *359:Y 4.12126e-05
3 *47:2 7.65394e-05
4 *47:3 0.00018236
5 *47:4 0.00026222
6 *47:5 7.51869e-05
7 *47:6 0.000207159

*RES
1 *47:5 *349:A 0.223828
2 *47:6 *47:5 6.4000001
3 *47:4 *47:6 0.936035
4 *47:3 *47:4 0.367676
5 *47:2 *47:3 3.2
6 *359:Y *47:2 0.223828
*END

*D_NET *48 0.00226039

*CONN
*I *348:A I *C 68.97 107.8 *L 0.002 *D CLKBUFXL
*I *360:Y O *C 53.79 107.8 *L 0 *D BUFX3

*CAP
1 *348:A 6.33035e-05
2 *360:Y 4.12128e-05
3 *48:2 0.000179548
4 *48:3 0.000136692
5 *48:4 0.000471152
6 *48:5 0.00050531
7 *48:6 0.000303217
8 *48:7 0.000311907
9 *48:8 7.65425e-05
10 *48:9 0.0001206
11 *48:10 5.09204e-05

*RES
1 *48:10 *348:A 6.4000001
2 *48:6 *48:10 6.4000001
3 *48:7 *48:6 1.28701
4 *48:7 *48:4 0.155957
5 *48:5 *48:4 2.20625
6 *48:2 *48:5 0.312012
7 *48:3 *48:2 0.551562
8 *48:9 *48:3 3.2
9 *48:8 *48:9 3.2
10 *360:Y *48:8 0.223828
*END

*D_NET *49 0.000796421

*CONN
*I *344:A I *C 41.91 63.56 *L 0.002 *D CLKBUFXL
*I *361:Y O *C 37.95 63.56 *L 0 *D BUFX3

*CAP
1 *344:A 3.98624e-05
2 *361:Y 3.73003e-05
3 *49:2 0.000246459
4 *49:3 0.00032105
5 *49:4 0.000151749

*RES
1 *49:4 *344:A 0.223823
2 *49:3 *49:4 0.569743
3 *49:2 *49:3 1.11913049
4 *49:2 *361:Y 0.189909
*END

*D_NET *50 0.000972901

*CONN
*I *337:A I *C 40.59 57.4 *L 0.002 *D CLKBUFXL
*I *362:Y O *C 40.59 63.56 *L 0 *D BUFX3

*CAP
1 *337:A 6.3303e-05
2 *362:Y 6.3303e-05
3 *50:2 0.00042315
4 *50:3 0.00042315

*RES
1 *50:2 *362:Y 6.4000001
2 *50:3 *50:2 1.404
3 *337:A *50:3 6.4000001
*END

*D_NET *51 0.000837811

*CONN
*I *343:A I *C 30.03 83.72 *L 0.002 *D CLKBUFXL
*I *363:Y O *C 33.99 83.72 *L 0 *D BUFX3

*CAP
1 *343:A 6.32995e-05
2 *363:Y 4.12107e-05
3 *51:2 5.09187e-05
4 *51:3 9.88091e-05
5 *51:4 0.00010751
6 *51:5 0.000143809521
7 *51:6 7.65382e-05
8 *51:7 0.000120599
9 *51:8 0.000135111

*RES
1 *363:Y *51:6 0.223828
2 *51:7 *51:6 3.2
3 *51:8 *51:7 3.2
4 *51:5 *51:8 0.735449
5 *51:4 *51:5 0.155957
6 *51:3 *51:4 0.551562
7 *51:2 *51:3 6.4000001
8 *343:A *51:2 6.4000001
*END

*D_NET *52 0.00274647

*CONN
*I *345:A I *C 51.81 77.56 *L 0.002 *D CLKBUFXL
*I *364:Y O *C 36.63 83.72 *L 0 *D BUFX3

*CAP
1 *345:A 6.32941e-05
2 *364:Y 3.73033e-05
3 *52:2 0.000119698
4 *52:3 0.000117725
5 *52:4 5.09251e-05
6 *52:5 8.44046e-05
7 *52:6 0.0006127
8 *52:7 9.31087e-05
9 *52:8 0.0006127
10 *52:9 0.000116594
11 *52:10 0.0003396
12 *52:11 0.00032467
13 *52:12 0.00010789
14 *52:13 6.58464e-05

*RES
1 *52:13 *345:A 6.4000001
2 *52:10 *52:13 0.183887
3 *52:10 *52:11 1.22158
4 *52:12 *52:11 6.4000001
5 *52:9 *52:12 0.367676
6 *52:8 *52:9 0.155957
7 *52:6 *52:8 2.9417
8 *52:6 *52:7 0.155957
9 *52:5 *52:7 0.367676
10 *52:4 *52:5 6.4000001
11 *52:3 *52:4 6.4000001
12 *52:2 *52:3 0.447656
13 *52:2 *364:Y 0.189941
*END

*D_NET *53 0.000828001

*CONN
*I *346:A I *C 35.97 107.8 *L 0.002 *D CLKBUFXL
*I *365:Y O *C 37.29 103.88 *L 0 *D BUFX3

*CAP
1 *346:A 6.33013e-05
2 *365:Y 6.33013e-05
3 *53:2 0.00028498
4 *53:3 0.00028498
5 *53:4 6.57191e-05
6 *53:5 6.57191e-05

*RES
1 *53:5 *365:Y 6.4000001
2 *53:3 *53:5 0.183887
3 *53:3 *53:2 0.936035
4 *53:4 *53:2 0.183887
5 *346:A *53:4 6.4000001
*END

*D_NET *54 0.00124598

*CONN
*I *341:Y O *C 27.39 37.24 *L 0 *D BUFX3
*I *583:D I *C 23.43 33.32 *L 0.0031 *D DFFRHQXL

*CAP
1 *341:Y 6.33002e-05
2 *583:D 0.000139842
3 *54:2 0.000213272
4 *54:3 0.00026833
5 *54:4 0.000182359
6 *54:5 0.000163979
7 *54:6 5.09227e-05
8 *54:7 0.000163979

*RES
1 *54:6 *341:Y 6.4000001
2 *54:7 *54:6 6.4000001
3 *54:5 *54:7 0.735449
4 *54:2 *54:5 6.4000001
5 *54:3 *54:2 0.936035
6 *54:4 *54:3 0.367676
7 *583:D *54:4 3.2
*END

*D_NET *55 0.106998

*CONN
*I *586:CK I *C 22.77 22.68 *L 0.003 *D DFFRHQX1
*I *367:Y O *C 26.07 26.6 *L 0 *D CLKBUFX20
*I *583:CK I *C 22.77 32.76 *L 0.00202 *D DFFRHQXL
*I *579:CK I *C 22.77 113.4 *L 0.003 *D DFFRHQX1
*I *578:CK I *C 22.77 88.2 *L 0.003 *D DFFRHQX1
*I *577:CK I *C 22.77 93.24 *L 0.003 *D DFFRHQX1
*I *576:CK I *C 39.27 113.4 *L 0.003 *D DFFRHQX1
*I *575:CK I *C 22.77 73.08 *L 0.003 *D DFFRHQX1
*I *574:CK I *C 22.77 57.96 *L 0.003 *D DFFRHQX1
*I *573:CK I *C 22.77 52.92 *L 0.003 *D DFFRHQX1
*I *572:CK I *C 22.77 78.12 *L 0.003 *D DFFRHQX1
*I *571:CK I *C 39.27 108.36 *L 0.003 *D DFFRHQX1
*I *570:CK I *C 22.77 103.32 *L 0.003 *D DFFRHQX1
*I *569:CK I *C 22.77 68.04 *L 0.003 *D DFFRHQX1
*I *568:CK I *C 38.61 42.84 *L 0.003 *D DFFRHQX1
*I *567:CK I *C 22.77 47.88 *L 0.003 *D DFFRHQX1
*I *566:CK I *C 22.77 42.84 *L 0.003 *D DFFRHQX1
*I *565:CK I *C 22.77 98.28 *L 0.003 *D DFFRHQX1
*I *564:CK I *C 22.77 108.36 *L 0.003 *D DFFRHQX1
*I *563:CK I *C 38.61 78.12 *L 0.003 *D DFFRHQX1
*I *562:CK I *C 55.77 103.32 *L 0.003 *D DFFRHQX1
*I *561:CK I *C 39.27 103.32 *L 0.003 *D DFFRHQX1
*I *560:CK I *C 38.61 52.92 *L 0.003 *D DFFRHQX1
*I *559:CK I *C 55.77 113.4 *L 0.003 *D DFFRHQX1
*I *558:CK I *C 55.77 108.36 *L 0.003 *D DFFRHQX1
*I *557:CK I *C 49.17 47.88 *L 0.003 *D DFFRHQX1
*I *556:CK I *C 38.61 73.08 *L 0.003 *D DFFRHQX1
*I *555:CK I *C 39.27 98.28 *L 0.003 *D DFFRHQX1
*I *554:CK I *C 55.77 42.84 *L 0.003 *D DFFRHQX1
*I *553:CK I *C 55.77 98.28 *L 0.003 *D DFFRHQX1
*I *552:CK I *C 49.17 57.96 *L 0.003 *D DFFRHQX1
*I *551:CK I *C 39.27 88.2 *L 0.003 *D DFFRHQX1
*I *550:CK I *C 37.29 68.04 *L 0.003 *D DFFRHQX1
*I *549:CK I *C 38.61 83.16 *L 0.003 *D DFFRHQX1
*I *548:CK I *C 49.17 63 *L 0.003 *D DFFRHQX1
*I *496:CK I *C 86.79 113.4 *L 0.003 *D DFFRHQX1
*I *495:CK I *C 65.01 47.88 *L 0.003 *D DFFRHQX1
*I *494:CK I *C 113.85 98.28 *L 0.003 *D DFFRHQX1
*I *493:CK I *C 120.45 57.96 *L 0.003 *D DFFRHQX1
*I *491:CK I *C 120.45 73.08 *L 0.003 *D DFFRHQX1
*I *489:CK I *C 60.39 37.8 *L 0.003 *D DFFRHQX1
*I *488:CK I *C 71.61 113.4 *L 0.003 *D DFFRHQX1
*I *487:CK I *C 114.51 108.36 *L 0.003 *D DFFRHQX1
*I *486:CK I *C 87.45 93.24 *L 0.003 *D DFFRHQX1
*I *485:CK I *C 55.11 88.2 *L 0.003 *D DFFRHQX1
*I *484:CK I *C 119.13 93.24 *L 0.003 *D DFFRHQX1
*I *483:CK I *C 54.45 83.16 *L 0.003 *D DFFRHQX1
*I *481:CK I *C 120.45 52.92 *L 0.003 *D DFFRHQX1
*I *479:CK I *C 71.61 103.32 *L 0.003 *D DFFRHQX1
*I *477:CK I *C 114.51 103.32 *L 0.003 *D DFFRHQX1
*I *476:CK I *C 119.79 47.88 *L 0.003 *D DFFRHQX1
*I *454:CK I *C 103.29 37.8 *L 0.003 *D DFFRHQX1
*I *452:CK I *C 119.79 27.72 *L 0.003 *D DFFRHQX1
*I *447:CK I *C 59.73 32.76 *L 0.003 *D DFFRHQX1
*I *439:CK I *C 63.69 22.68 *L 0.003 *D DFFRHQX1
*I *433:CK I *C 80.85 22.68 *L 0.00204 *D JKFFRXL
*I *430:CK I *C 88.11 27.72 *L 0.003 *D DFFRHQX1
*I *428:CK I *C 103.95 27.72 *L 0.003 *D DFFRHQX1
*I *410:CK I *C 110.55 22.68 *L 0.003 *D DFFRHQX1
*I *401:CK I *C 119.79 42.84 *L 0.003 *D DFFRHQX1
*I *384:CK I *C 65.01 57.96 *L 0.003 *D DFFRHQX1
*I *383:CK I *C 65.67 68.04 *L 0.003 *D DFFRHQX1
*I *382:CK I *C 103.95 42.84 *L 0.003 *D DFFRHQX1
*I *381:CK I *C 104.61 52.92 *L 0.003 *D DFFRHQX1
*I *380:CK I *C 120.45 68.04 *L 0.003 *D DFFRHQX1
*I *379:CK I *C 82.83 88.2 *L 0.003 *D DFFRHQX1
*I *378:CK I *C 104.61 68.04 *L 0.003 *D DFFRHQX1
*I *377:CK I *C 119.79 78.12 *L 0.003 *D DFFRHQX1
*I *376:CK I *C 63.03 73.08 *L 0.003 *D DFFRHQX1
*I *375:CK I *C 51.15 68.04 *L 0.003 *D DFFRHQX1
*I *374:CK I *C 103.29 88.2 *L 0.003 *D DFFRHQX1
*I *373:CK I *C 103.29 93.24 *L 0.003 *D DFFRHQX1
*I *372:CK I *C 70.95 93.24 *L 0.003 *D DFFRHQX1
*I *371:CK I *C 68.97 88.2 *L 0.003 *D DFFRHQX1
*I *370:CK I *C 101.97 113.4 *L 0.003 *D DFFRHQX1
*I *369:CK I *C 87.45 98.28 *L 0.003 *D DFFRHQX1

*CAP
1 *586:CK 0.00013987
2 *367:Y 0.00013987
3 *583:CK 6.3326e-05
4 *579:CK 0.00013987
5 *578:CK 0.00013987
6 *577:CK 0.00013987
7 *576:CK 0.00013987
8 *575:CK 0.00013987
9 *574:CK 0.00013987
10 *573:CK 0.00013987
11 *572:CK 6.3326e-05
12 *571:CK 0.00013987
13 *570:CK 0.00013987
14 *569:CK 0.00013987
15 *568:CK 6.3326e-05
16 *567:CK 0.00013987
17 *566:CK 0.00013987
18 *565:CK 0.00013987
19 *564:CK 0.00013987
20 *563:CK 0.00013987
21 *562:CK 0.00013987
22 *561:CK 0.00013987
23 *560:CK 6.3326e-05
24 *559:CK 0.00013987
25 *558:CK 0.00013987
26 *557:CK 0.00013987
27 *556:CK 0.00013987
28 *555:CK 0.00013987
29 *554:CK 0.00013987
30 *553:CK 0.00013987
31 *552:CK 0.00013987
32 *551:CK 0.00013987
33 *550:CK 0.00013987
34 *549:CK 0.00013987
35 *548:CK 0.00013987
36 *496:CK 0.00013987
37 *495:CK 0.00013987
38 *494:CK 0.00013987
39 *493:CK 0.00013987
40 *491:CK 0.00013987
41 *489:CK 0.00013987
42 *488:CK 0.00013987
43 *487:CK 0.00013987
44 *486:CK 0.00013987
45 *485:CK 0.00013987
46 *484:CK 0.00013987
47 *483:CK 0.00013987
48 *481:CK 0.00013987
49 *479:CK 0.00013987
50 *477:CK 0.00013987
51 *476:CK 0.00013987
52 *454:CK 0.00013987
53 *452:CK 0.00013987
54 *447:CK 0.00013987
55 *439:CK 0.00013987
56 *433:CK 0.00013987
57 *430:CK 0.00013987
58 *428:CK 0.00013987
59 *410:CK 0.00013987
60 *401:CK 0.00013987
61 *384:CK 0.00013987
62 *383:CK 0.00013987
63 *382:CK 0.00013987
64 *381:CK 0.00013987
65 *380:CK 0.00013987
66 *379:CK 0.00013987
67 *378:CK 0.00013987
68 *377:CK 0.00013987
69 *376:CK 0.00013987
70 *375:CK 0.00013987
71 *374:CK 0.00013987
72 *373:CK 0.00013987
73 *372:CK 6.3326e-05
74 *371:CK 0.00013987
75 *370:CK 0.00013987
76 *369:CK 0.00013987
77 *55:76 0.000594638
78 *55:77 0.000962908
79 *55:78 0.00069582
80 *55:79 0.000622639
81 *55:80 0.000655367
82 *55:81 0.000705709
83 *55:82 0.000705709
84 *55:83 0.000408722
85 *55:84 0.000408722
86 *55:85 0.000383052
87 *55:86 0.000383052
88 *55:87 0.000899416
89 *55:88 0.000915264
90 *55:89 0.00218195
91 *55:90 0.00146409
92 *55:91 0.000702313
93 *55:92 0.000742865
94 *55:93 0.000771831
95 *55:94 0.00022234
96 *55:95 0.000292025
97 *55:96 0.000846744
98 *55:97 0.00020829
99 *55:98 0.000564107
100 *55:99 0.00075555
101 *55:100 0.00109569
102 *55:101 0.000953819
103 *55:102 0.00040819
104 *55:103 0.000114999
105 *55:104 0.000114999
106 *55:105 0.000805525
107 *55:106 0.000771565
108 *55:107 0.000353387
109 *55:108 0.000540036
110 *55:109 0.000307208
111 *55:110 0.000389312
112 *55:111 0.000698351
113 *55:112 0.000891691
114 *55:113 0.00093534
115 *55:114 0.000373264
116 *55:115 0.000642349
117 *55:116 0.000249808
118 *55:117 0.000249808
119 *55:118 9.88178e-05
120 *55:119 0.000691026
121 *55:120 0.00055292
122 *55:121 0.000917861
123 *55:122 0.00079001
124 *55:123 0.00024518
125 *55:124 0.000143466
126 *55:125 0.000103213
127 *55:126 0.000884233
128 *55:127 0.000840385
129 *55:128 0.000592075
130 *55:129 0.00100706
131 *55:130 0.00100706
132 *55:131 0.000278608
133 *55:132 0.000919226
134 *55:133 0.000748925
135 *55:134 0.000244081
136 *55:135 0.00100796
137 *55:136 0.000925652
138 *55:137 0.00143502
139 *55:138 0.000641384
140 *55:139 0.00135448
141 *55:140 0.000361677
142 *55:141 0.000361677
143 *55:142 0.000272981
144 *55:143 0.000820408
145 *55:144 0.000608522
146 *55:145 0.000596636
147 *55:146 0.000325253
148 *55:147 6.68885e-05
149 *55:148 6.68885e-05
150 *55:149 0.000563641
151 *55:150 0.000551289
152 *55:151 0.000325686
153 *55:152 0.000515264
154 *55:153 0.00100406
155 *55:154 0.00107371
156 *55:155 0.000344364
157 *55:156 0.00063629
158 *55:157 0.00087035
159 *55:158 0.000578824
160 *55:159 0.000648475
161 *55:160 0.000386748
162 *55:161 0.000386748
163 *55:162 0.000333477
164 *55:163 0.000403162
165 *55:164 8.49674e-05
166 *55:165 8.49674e-05
167 *55:166 0.000239587
168 *55:167 0.000239587
169 *55:168 0.000654269
170 *55:169 0.000939236
171 *55:170 0.000405593
172 *55:171 0.0013977
173 *55:172 0.00146739
174 *55:173 0.000101382
175 *55:174 0.000101382
176 *55:175 0.000960111
177 *55:176 0.000952687
178 *55:177 0.000255235
179 *55:178 0.000980155
180 *55:179 0.00117233
181 *55:180 0.000205593
182 *55:181 0.00149425
183 *55:182 0.000909404
184 *55:183 0.000891358
185 *55:184 0.000876542
186 *55:185 0.000918027
187 *55:186 0.000360346
188 *55:187 0.000589511
189 *55:188 0.00038192
190 *55:189 0.000120592
191 *55:190 0.000195372
192 *55:191 0.000120592
193 *55:192 0.000120592
194 *55:193 0.000206758
195 *55:194 0.00036221
196 *55:195 0.000195372
197 *55:196 0.000195372
198 *55:197 0.000296986
199 *55:198 0.000120592
200 *55:199 0.000120592
201 *55:200 0.000558947
202 *55:201 0.000910669
203 *55:202 0.00111017
204 *55:203 0.00136734
205 *55:204 0.000787613
206 *55:205 0.000873746
207 *55:206 0.000120592
208 *55:207 0.000120592
209 *55:208 0.000120592
210 *55:209 0.000372332
211 *55:210 0.000120592
212 *55:211 0.000120592
213 *55:212 0.000574296
214 *55:213 0.000120592
215 *55:214 0.000120592
216 *55:215 0.000558947
217 *55:216 0.000120592
218 *55:217 0.000561344
219 *55:218 5.94305e-05
220 *55:219 0.000357049
221 *55:220 0.000127418
222 *55:221 0.000120592
223 *55:222 0.000120592
224 *55:223 0.000120592
225 *55:224 0.000120592
226 *55:225 0.000120592
227 *55:226 0.00036221
228 *55:227 0.000120592
229 *55:228 5.94305e-05
230 *55:229 0.000367537
231 *55:230 0.00060163
232 *55:231 5.94305e-05
233 *55:232 0.000604926
234 *55:233 0.000120592
235 *55:234 0.000120592
236 *55:235 0.000576293
237 *55:236 0.000265823
238 *55:237 0.000592308
239 *55:238 0.000120592
240 *55:239 0.000120592
241 *55:240 0.000120592
242 *55:241 0.000120592
243 *55:242 0.000120592
244 *55:243 0.000120592
245 *55:244 0.000120592
246 *55:245 0.000120592
247 *55:246 0.000120592
248 *55:247 0.000120592
249 *55:248 0.000120592
250 *55:249 0.000120592
251 *55:250 0.000120592
252 *55:251 0.000120592
253 *55:252 0.000120592
254 *55:253 0.000120592
255 *55:254 0.000120592
256 *55:255 5.94305e-05
257 *55:256 0.000331279
258 *55:257 0.000355884
259 *55:258 0.000120592
260 *55:259 0.000120592
261 *55:260 0.000120592
262 *55:261 0.000120592
263 *55:262 0.000120592
264 *55:263 0.000331279
265 *55:264 0.000120592
266 *55:265 0.000120592
267 *55:266 0.000379956
268 *55:267 0.00063346
269 *55:268 0.000127418
270 *55:269 0.000374096
271 *55:270 0.000120592
272 *55:271 0.000120592
273 *55:272 0.000120592
274 *55:273 9.34242e-05
275 *55:274 0.000120592
276 *55:275 0.000112702
277 *55:276 0.000127418
278 *55:142 *84 5.853e-05
279 *55:143 *84:9 5.853e-05
280 *55:143 *84 0.0001053
281 *55:139 *84:9 0.0001053
282 *55:139 *84 0.00015803
283 *55:137 *84:9 0.00015803
284 *55:137 *84 0.00014137
285 *55:138 *84:9 0.00014137
286 *55:137 *293:7 0.00015684
287 *55:138 *293:8 0.000156839996
288 *55:98 *150:8 6.364e-05
289 *55:99 *150:5 6.364e-05
290 *55:99 *150:6 0.00020101
291 *55:100 *150:4 0.00020101
292 *55:100 *150:6 3.79e-05
293 *55:96 *150:4 3.78999993e-05
294 *55:91 *75 2.926e-05
295 *55:92 *75:10 2.926e-05
296 *55:91 *75:9 0.00010705
297 *55:92 *75:7 0.00010705
298 *55:91 *75:8 5.142e-05
299 *55:92 *75:6 5.142e-05
300 *55:92 *75:8 7.53e-06
301 *55:93 *75:6 7.53e-06
302 *55:93 *75:8 0.00017459
303 *55:89 *75:6 0.00017459
304 *55:89 *75:8 0.00016347
305 *55:90 *75:6 0.000163470011
306 *55:151 *63:8 2.461e-05
307 *55:152 *63:7 2.461e-05
308 *55:151 *63:5 3.545e-05
309 *55:152 *63:4 3.545e-05
310 *55:152 *63:8 1.992e-05
311 *55:149 *63:7 1.992e-05
312 *55:152 *63:2 6.104e-05
313 *55:149 *63:3 6.10399943e-05
314 *55:126 *67:5 6.267e-05
315 *55:127 *67:4 6.267e-05
316 *55:127 *67:5 4.178e-05
317 *55:128 *67:4 4.17800029e-05
318 *55:107 *71:5 1.773e-05
319 *55:108 *71:3 1.773e-05
320 *55:108 *71:5 6.71e-05
321 *55:109 *71:3 6.70999969e-05

*RES
1 *55:275 *377:CK 3.19998
2 *55:275 *55:124 0.367742
3 *55:85 *487:CK 3.19998
4 *55:125 *55:124 0.468014
5 *55:86 *477:CK 3.19998
6 *55:86 *55:85 1.40404
7 *55:123 *55:125 0.183812
8 *55:147 *55:86 3.19998
9 *55:120 *491:CK 3.19998
10 *55:120 *55:123 0.936029
11 *55:264 *494:CK 3.19998
12 *55:148 *55:147 0.183812
13 *55:87 *380:CK 3.19998
14 *55:87 *55:120 1.40404
15 *55:265 *55:264 3.19998
16 *55:186 *55:148 3.19998
17 *55:88 *493:CK 3.19998
18 *55:88 *55:87 2.80797
19 *55:187 *55:265 3.19998
20 *55:187 *55:186 1.40404
21 *55:270 *484:CK 3.19998
22 *55:110 *481:CK 3.19998
23 *55:110 *55:88 1.40404
24 *55:84 *374:CK 3.19998
25 *55:188 *55:187 1.40404
26 *55:142 *55:270 3.19998
27 *55:81 *488:CK 3.19998
28 *55:251 *370:CK 3.19998
29 *55:274 *476:CK 3.19998
30 *55:276 *55:110 3.19998
31 *55:140 *369:CK 3.19998
32 *55:83 *373:CK 3.19998
33 *55:84 *55:83 1.40404
34 *55:143 *55:188 3.19998
35 *55:143 *55:142 1.47085
36 *55:82 *479:CK 3.19998
37 *55:82 *55:81 2.80797
38 *55:249 *496:CK 3.19998
39 *55:153 *55:251 3.19998
40 *55:103 *55:274 3.19998
41 *55:268 *55:276 0.551555
42 *55:141 *486:CK 3.19998
43 *55:141 *55:140 1.40404
44 *55:139 *55:83 3.19998
45 *55:139 *55:143 2.9417
46 *55:165 *55:82 3.19998
47 *55:154 *55:249 3.19998
48 *55:154 *55:153 4.22874
49 *55:104 *55:103 0.367742
50 *55:269 *55:268 3.19998
51 *55:226 *559:CK 3.19998
52 *55:137 *55:141 3.19998
53 *55:137 *55:139 4.41255
54 *55:165 *55:164 0.183812
55 *55:171 *55:154 3.19998
56 *55:267 *55:104 3.19998
57 *55:267 *55:269 1.40404
58 *55:272 *401:CK 3.19998
59 *55:260 *378:CK 3.19998
60 *55:79 *558:CK 3.19998
61 *55:79 *55:226 1.40404
62 *55:245 *372:CK 6.39997
63 *55:138 *55:137 4.22874
64 *55:168 *55:164 3.19998
65 *55:172 *55:171 7.01998
66 *55:254 *382:CK 3.19998
67 *55:266 *55:267 1.40404
68 *55:273 *55:272 3.19998
69 *55:258 *381:CK 3.19998
70 *55:261 *55:260 3.19998
71 *55:80 *562:CK 3.19998
72 *55:80 *55:79 1.40404
73 *55:246 *55:245 3.19998
74 *55:169 *55:138 3.19998
75 *55:169 *55:168 2.80797
76 *55:248 *379:CK 3.19998
77 *55:131 *55:172 3.19998
78 *55:262 *410:CK 3.19998
79 *55:252 *454:CK 3.19998
80 *55:255 *55:254 3.19998
81 *55:105 *55:266 3.19998
82 *55:105 *55:273 0.367742
83 *55:259 *55:258 3.19998
84 *55:185 *55:261 3.19998
85 *55:146 *553:CK 3.19998
86 *55:146 *55:80 1.40404
87 *55:162 *55:246 3.19998
88 *55:170 *55:169 1.40404
89 *55:132 *55:248 3.19998
90 *55:132 *55:131 1.10311
91 *55:263 *55:262 3.19998
92 *55:174 *55:252 3.19998
93 *55:255 *55:106 0.183812
94 *55:106 *55:105 3.861
95 *55:181 *55:259 3.19998
96 *55:181 *55:185 4.21201
97 *55:155 *576:CK 3.19998
98 *55:225 *55:146 3.19998
99 *55:163 *55:162 1.40404
100 *55:133 *55:170 3.19998
101 *55:133 *55:132 2.9417
102 *55:256 *55:263 1.65466
103 *55:174 *55:173 0.367742
104 *55:182 *55:106 3.19998
105 *55:182 *55:181 2.80797
106 *55:150 *571:CK 3.19998
107 *55:150 *55:155 1.40404
108 *55:158 *55:225 3.19998
109 *55:244 *371:CK 3.19998
110 *55:134 *55:163 3.19998
111 *55:134 *55:133 0.367742
112 *55:238 *376:CK 3.19998
113 *55:257 *55:256 3.19998
114 *55:183 *55:173 3.19998
115 *55:183 *55:182 1.40404
116 *55:271 *452:CK 3.19998
117 *55:76 *561:CK 3.19998
118 *55:76 *55:150 1.40404
119 *55:159 *55:158 2.80797
120 *55:135 *55:244 3.19998
121 *55:135 *55:134 0.551555
122 *55:239 *55:238 3.19998
123 *55:257 *55:184 1.40404
124 *55:184 *55:183 2.80797
125 *55:91 *55:271 3.19998
126 *55:247 *433:CK 3.19998
127 *55:77 *555:CK 3.19998
128 *55:77 *55:76 1.40404
129 *55:223 *485:CK 3.19998
130 *55:136 *55:159 3.19998
131 *55:136 *55:135 3.67719
132 *55:160 *55:239 3.19998
133 *55:243 *383:CK 3.19998
134 *55:253 *428:CK 3.19998
135 *55:92 *55:184 3.19998
136 *55:92 *55:91 4.22874
137 *55:240 *439:CK 3.19998
138 *55:178 *55:247 3.19998
139 *55:151 *579:CK 3.19998
140 *55:78 *551:CK 3.19998
141 *55:78 *55:77 2.80797
142 *55:175 *55:223 3.19998
143 *55:175 *55:136 0.183812
144 *55:161 *55:160 1.40404
145 *55:177 *55:243 3.19998
146 *55:250 *430:CK 3.19998
147 *55:93 *55:253 3.19998
148 *55:93 *55:92 0.183812
149 *55:179 *55:240 3.19998
150 *55:179 *55:178 4.7803
151 *55:152 *564:CK 3.19998
152 *55:152 *55:151 1.40404
153 *55:222 *483:CK 3.19998
154 *55:176 *55:78 3.19998
155 *55:176 *55:175 4.41255
156 *55:221 *375:CK 3.19998
157 *55:121 *55:161 3.19998
158 *55:121 *55:177 0.735485
159 *55:227 *447:CK 3.19998
160 *55:89 *55:250 3.19998
161 *55:89 *55:93 4.41255
162 *55:180 *55:179 0.919297
163 *55:242 *384:CK 3.19998
164 *55:149 *570:CK 3.19998
165 *55:149 *55:152 1.40404
166 *55:216 *549:CK 3.19998
167 *55:129 *55:222 3.19998
168 *55:218 *55:176 0.183812
169 *55:122 *55:221 3.19998
170 *55:122 *55:121 3.30945
171 *55:228 *55:227 3.19998
172 *55:90 *55:89 7.72200012
173 *55:229 *55:180 3.19998
174 *55:241 *495:CK 3.19998
175 *55:116 *55:242 3.19998
176 *55:144 *565:CK 3.19998
177 *55:144 *55:149 1.40404
178 *55:213 *563:CK 3.19998
179 *55:130 *55:216 3.19998
180 *55:130 *55:129 4.41255
181 *55:219 *55:218 3.19998
182 *55:220 *55:122 0.551555
183 *55:233 *489:CK 3.19998
184 *55:228 *55:231 0.183812
185 *55:230 *55:90 3.19998
186 *55:229 *55:230 1.40404
187 *55:166 *55:241 3.19998
188 *55:117 *55:116 1.28704
189 *55:145 *577:CK 3.19998
190 *55:145 *55:144 1.40404
191 *55:210 *556:CK 3.19998
192 *55:214 *55:213 3.19998
193 *55:217 *55:130 3.19998
194 *55:217 *55:219 1.40404
195 *55:114 *55:220 3.19998
196 *55:234 *55:233 3.19998
197 *55:232 *55:231 3.19998
198 *55:230 *55:232 1.40404
199 *55:167 *55:166 1.28704
200 *55:156 *55:117 3.19998
201 *55:126 *578:CK 3.19998
202 *55:126 *55:145 1.40404
203 *55:211 *55:210 3.19998
204 *55:215 *55:214 3.19998
205 *55:215 *55:217 1.40404
206 *55:115 *548:CK 3.19998
207 *55:115 *55:114 1.40404
208 *55:235 *55:234 3.19998
209 *55:232 *55:235 1.40404
210 *55:157 *55:167 3.19998
211 *55:157 *55:156 2.80797
212 *55:127 *572:CK 6.39997
213 *55:127 *55:126 2.80797
214 *55:212 *55:211 3.19998
215 *55:212 *55:215 1.40404
216 *55:113 *552:CK 3.19998
217 *55:113 *55:115 1.40404
218 *55:235 *55:237 1.40404
219 *55:237 *55:157 1.40404
220 *55:128 *575:CK 3.19998
221 *55:128 *55:127 1.40404
222 *55:209 *55:212 1.40404
223 *55:101 *557:CK 3.19998
224 *55:101 *55:113 2.80797
225 *55:224 *554:CK 3.19998
226 *55:236 *55:237 3.19998
227 *55:109 *567:CK 3.19998
228 *55:107 *574:CK 3.19998
229 *55:194 *569:CK 3.19998
230 *55:194 *55:128 1.40404
231 *55:206 *550:CK 3.19998
232 *55:118 *55:209 3.19998
233 *55:102 *55:101 1.40404
234 *55:98 *55:224 3.19998
235 *55:98 *55:236 1.28704
236 *55:108 *573:CK 3.19998
237 *55:109 *55:108 1.40404
238 *55:108 *55:107 1.40404
239 *55:208 *560:CK 6.39997
240 *55:195 *55:194 3.19998
241 *55:119 *55:206 3.19998
242 *55:119 *55:118 0.367742
243 *55:192 *566:CK 3.19998
244 *55:207 *568:CK 6.39997
245 *55:99 *55:102 3.19998
246 *55:99 *55:98 1.83859
247 *55:193 *55:108 3.19998
248 *55:111 *55:208 3.19998
249 *55:195 *55:204 0.919297
250 *55:204 *55:119 3.12552
251 *55:191 *583:CK 6.39997
252 *55:97 *55:192 3.19998
253 *55:100 *55:207 3.19998
254 *55:100 *55:99 2.9417
255 *55:193 *55:112 0.919297
256 *55:112 *55:111 3.49326
257 *55:205 *55:204 3.19998
258 *55:95 *55:191 3.19998
259 *55:97 *55:96 0.919297
260 *55:96 *55:100 3.49326
261 *55:203 *55:112 3.19998
262 *55:203 *55:205 4.21201
263 *55:95 *55:94 0.919297
264 *55:202 *55:96 3.19998
265 *55:202 *55:203 2.80797
266 *55:198 *367:Y 3.19998
267 *55:201 *55:94 3.19998
268 *55:201 *55:202 2.80797
269 *55:199 *55:198 3.19998
270 *55:200 *55:201 1.71605
271 *55:200 *55:199 3.19998
272 *55:197 *55:200 1.09203
273 *55:196 *55:197 3.19998
274 *55:190 *55:196 0.919297
275 *55:189 *55:190 3.19998
276 *586:CK *55:189 3.19998
*END

*D_NET *56 0.101345

*CONN
*I *566:RN I *C 33.99 42.28 *L 0.004 *D DFFRHQX1
*I *554:RN I *C 66.99 42.28 *L 0.004 *D DFFRHQX1
*I *567:RN I *C 33.99 48.44 *L 0.004 *D DFFRHQX1
*I *557:RN I *C 60.39 48.44 *L 0.004 *D DFFRHQX1
*I *439:RN I *C 74.91 22.12 *L 0.004 *D DFFRHQX1
*I *560:RN I *C 49.83 52.36 *L 0.004 *D DFFRHQX1
*I *568:RN I *C 49.83 42.28 *L 0.004 *D DFFRHQX1
*I *489:RN I *C 71.61 38.36 *L 0.004 *D DFFRHQX1
*I *447:RN I *C 70.95 32.2 *L 0.004 *D DFFRHQX1
*I *433:RN I *C 88.77 23.24 *L 0.00224 *D JKFFRXL
*I *552:RN I *C 60.39 58.52 *L 0.004 *D DFFRHQX1
*I *495:RN I *C 76.23 48.44 *L 0.004 *D DFFRHQX1
*I *573:RN I *C 33.99 52.36 *L 0.004 *D DFFRHQX1
*I *574:RN I *C 33.99 58.52 *L 0.004 *D DFFRHQX1
*I *430:RN I *C 99.33 28.28 *L 0.004 *D DFFRHQX1
*I *548:RN I *C 60.39 62.44 *L 0.004 *D DFFRHQX1
*I *384:RN I *C 76.23 58.52 *L 0.004 *D DFFRHQX1
*I *569:RN I *C 33.99 68.6 *L 0.004 *D DFFRHQX1
*I *550:RN I *C 48.51 68.6 *L 0.004 *D DFFRHQX1
*I *383:RN I *C 76.89 68.6 *L 0.004 *D DFFRHQX1
*I *575:RN I *C 33.99 72.52 *L 0.004 *D DFFRHQX1
*I *572:RN I *C 33.99 78.68 *L 0.004 *D DFFRHQX1
*I *454:RN I *C 114.51 38.36 *L 0.004 *D DFFRHQX1
*I *428:RN I *C 115.17 28.28 *L 0.004 *D DFFRHQX1
*I *556:RN I *C 49.83 72.52 *L 0.004 *D DFFRHQX1
*I *578:RN I *C 33.99 88.76 *L 0.004 *D DFFRHQX1
*I *452:RN I *C 131.01 28.28 *L 0.004 *D DFFRHQX1
*I *563:RN I *C 49.83 78.68 *L 0.004 *D DFFRHQX1
*I *565:RN I *C 33.99 98.84 *L 0.004 *D DFFRHQX1
*I *577:RN I *C 33.99 92.68 *L 0.004 *D DFFRHQX1
*I *410:RN I *C 121.77 22.12 *L 0.004 *D DFFRHQX1
*I *485:RN I *C 66.33 88.76 *L 0.004 *D DFFRHQX1
*I *570:RN I *C 33.99 102.76 *L 0.004 *D DFFRHQX1
*I *551:RN I *C 50.49 88.76 *L 0.004 *D DFFRHQX1
*I *401:RN I *C 131.01 42.28 *L 0.004 *D DFFRHQX1
*I *549:RN I *C 49.83 82.6 *L 0.004 *D DFFRHQX1
*I *561:RN I *C 50.49 102.76 *L 0.004 *D DFFRHQX1
*I *553:RN I *C 66.99 98.84 *L 0.004 *D DFFRHQX1
*I *476:RN I *C 131.01 48.44 *L 0.004 *D DFFRHQX1
*I *483:RN I *C 65.67 82.6 *L 0.004 *D DFFRHQX1
*I *562:RN I *C 66.99 102.76 *L 0.004 *D DFFRHQX1
*I *382:RN I *C 115.17 42.28 *L 0.004 *D DFFRHQX1
*I *375:RN I *C 62.37 68.6 *L 0.004 *D DFFRHQX1
*I *564:RN I *C 33.99 108.92 *L 0.004 *D DFFRHQX1
*I *376:RN I *C 74.25 72.52 *L 0.004 *D DFFRHQX1
*I *579:RN I *C 33.99 112.84 *L 0.004 *D DFFRHQX1
*I *576:RN I *C 50.49 112.84 *L 0.004 *D DFFRHQX1
*I *555:RN I *C 50.49 98.84 *L 0.004 *D DFFRHQX1
*I *571:RN I *C 50.49 108.92 *L 0.004 *D DFFRHQX1
*I *558:RN I *C 66.99 108.92 *L 0.004 *D DFFRHQX1
*I *481:RN I *C 131.67 52.36 *L 0.004 *D DFFRHQX1
*I *372:RN I *C 82.17 92.68 *L 0.004 *D DFFRHQX1
*I *479:RN I *C 82.83 102.76 *L 0.004 *D DFFRHQX1
*I *559:RN I *C 66.99 112.84 *L 0.004 *D DFFRHQX1
*I *493:RN I *C 131.67 58.52 *L 0.004 *D DFFRHQX1
*I *381:RN I *C 115.83 52.36 *L 0.004 *D DFFRHQX1
*I *371:RN I *C 80.19 88.76 *L 0.004 *D DFFRHQX1
*I *380:RN I *C 131.67 68.6 *L 0.004 *D DFFRHQX1
*I *488:RN I *C 82.83 112.84 *L 0.004 *D DFFRHQX1
*I *377:RN I *C 131.01 78.68 *L 0.004 *D DFFRHQX1
*I *491:RN I *C 131.67 72.52 *L 0.004 *D DFFRHQX1
*I *484:RN I *C 130.35 92.68 *L 0.004 *D DFFRHQX1
*I *369:RN I *C 98.67 98.84 *L 0.004 *D DFFRHQX1
*I *379:RN I *C 94.05 88.76 *L 0.004 *D DFFRHQX1
*I *486:RN I *C 98.67 92.68 *L 0.004 *D DFFRHQX1
*I *496:RN I *C 98.01 112.84 *L 0.004 *D DFFRHQX1
*I *370:RN I *C 113.19 112.84 *L 0.004 *D DFFRHQX1
*I *374:RN I *C 114.51 88.76 *L 0.004 *D DFFRHQX1
*I *373:RN I *C 114.51 92.68 *L 0.004 *D DFFRHQX1
*I *378:RN I *C 115.83 68.6 *L 0.004 *D DFFRHQX1
*I *494:RN I *C 125.07 98.84 *L 0.004 *D DFFRHQX1
*I *477:RN I *C 125.73 102.76 *L 0.004 *D DFFRHQX1
*I *487:RN I *C 125.73 108.92 *L 0.004 *D DFFRHQX1
*I *368:Y O *C 36.63 36.68 *L 0 *D CLKBUFX4

*CAP
1 *566:RN 0.000139838
2 *554:RN 0.000139838
3 *567:RN 0.000139838
4 *557:RN 0.000139838
5 *439:RN 0.000139838
6 *560:RN 0.000139838
7 *568:RN 0.000139838
8 *489:RN 0.000139838
9 *447:RN 0.000139838
10 *433:RN 6.32958e-05
11 *552:RN 0.000139838
12 *495:RN 0.000139838
13 *573:RN 0.000139838
14 *574:RN 0.000139838
15 *430:RN 0.000139838
16 *548:RN 0.000139838
17 *384:RN 3.98423e-05
18 *569:RN 0.000139838
19 *550:RN 6.32958e-05
20 *383:RN 0.000139838
21 *575:RN 6.32958e-05
22 *572:RN 0.000139838
23 *454:RN 0.000139838
24 *428:RN 0.000139838
25 *556:RN 0.000139838
26 *578:RN 0.000139838
27 *452:RN 0.000139838
28 *563:RN 6.32958e-05
29 *565:RN 0.000139838
30 *577:RN 0.000139838
31 *410:RN 0.000139838
32 *485:RN 6.32958e-05
33 *570:RN 0.000139838
34 *551:RN 0.000139838
35 *401:RN 0.000139838
36 *549:RN 3.98423e-05
37 *561:RN 0.000139838
38 *553:RN 0.000139838
39 *476:RN 0.000139838
40 *483:RN 0.000139838
41 *562:RN 0.000139838
42 *382:RN 0.000139838
43 *375:RN 3.98423e-05
44 *564:RN 0.000139838
45 *376:RN 0.000139838
46 *579:RN 0.000139838
47 *576:RN 0.000139838
48 *555:RN 0.000139838
49 *571:RN 0.000139838
50 *558:RN 0.000139838
51 *481:RN 0.000139838
52 *372:RN 0.000139838
53 *479:RN 0.000139838
54 *559:RN 0.000139838
55 *493:RN 0.000139838
56 *381:RN 0.000139838
57 *371:RN 3.98423e-05
58 *380:RN 0.000139838
59 *488:RN 0.000139838
60 *377:RN 0.000139838
61 *491:RN 0.000139838
62 *484:RN 0.000139838
63 *369:RN 0.000139838
64 *379:RN 0.000139838
65 *486:RN 0.000139838
66 *496:RN 0.000139838
67 *370:RN 0.000139838
68 *374:RN 0.000139838
69 *373:RN 0.000139838
70 *378:RN 6.32958e-05
71 *494:RN 0.000139838
72 *477:RN 0.000139838
73 *487:RN 0.000139838
74 *368:Y 0.000923256
75 *56:74 0.000256612
76 *56:75 0.000256612
77 *56:76 0.000503068
78 *56:77 0.000283
79 *56:78 0.000251937
80 *56:79 0.000490549
81 *56:80 0.000518418
82 *56:81 0.000499847
83 *56:82 0.000184355
84 *56:83 0.000103839
85 *56:84 0.000846715
86 *56:85 0.000588181
87 *56:86 0.000566078
88 *56:87 0.000585298
89 *56:88 0.000985825
90 *56:89 0.000453901
91 *56:90 6.80229e-05
92 *56:91 0.000137682
93 *56:92 0.000161525
94 *56:93 0.000544806
95 *56:94 0.000482861
96 *56:95 0.000284169
97 *56:96 0.000756225
98 *56:97 0.000138773
99 *56:98 0.000615738
100 *56:99 0.000692124
101 *56:100 8.61e-05
102 *56:101 8.61e-05
103 *56:102 0.000294662
104 *56:103 0.000294662
105 *56:104 0.000505302
106 *56:105 0.000878791
107 *56:106 0.000386865
108 *56:107 0.00050325
109 *56:108 0.000469095
110 *56:109 0.000616933
111 *56:110 0.000616933
112 *56:111 0.000161577
113 *56:112 0.000247781
114 *56:113 0.000116982
115 *56:114 0.00019542
116 *56:115 0.000409332
117 *56:116 0.000627348
118 *56:117 0.000578026
119 *56:118 0.000200874
120 *56:119 0.000473563
121 *56:120 0.000473563
122 *56:121 0.000251703
123 *56:122 0.000294532
124 *56:123 0.000550598
125 *56:124 0.000279727
126 *56:125 9.35282e-05
127 *56:126 9.35282e-05
128 *56:127 0.000438811
129 *56:128 0.00041102
130 *56:129 0.000357282
131 *56:130 0.000357282
132 *56:131 0.000191706
133 *56:132 0.000120566
134 *56:133 0.000230301
135 *56:134 0.000285156
136 *56:135 0.000574623
137 *56:136 0.000574623
138 *56:137 0.000241469
139 *56:138 0.000593375
140 *56:139 0.000234067
141 *56:140 0.000502003
142 *56:141 0.000225262
143 *56:142 0.000225262
144 *56:143 0.000132436
145 *56:144 0.000208796
146 *56:145 0.000234561
147 *56:146 0.000492081
148 *56:147 0.000323388
149 *56:148 0.000417513
150 *56:149 0.000362763
151 *56:150 0.000349361
152 *56:151 0.000370866
153 *56:152 0.000427045
154 *56:153 0.000493458
155 *56:154 0.000937074
156 *56:155 0.000772796
157 *56:156 0.000368866
158 *56:157 0.000368866
159 *56:158 0.000247365
160 *56:159 0.000484316
161 *56:160 0.000102567
162 *56:161 0.000214821
163 *56:162 0.000612491
164 *56:163 0.000425903
165 *56:164 0.000322687
166 *56:165 0.000322687
167 *56:166 0.000427357
168 *56:167 0.000381125
169 *56:168 0.0003424
170 *56:169 0.000272741
171 *56:170 0.000538755
172 *56:171 0.000579013
173 *56:172 0.000304765
174 *56:173 0.000892349
175 *56:174 0.00147313
176 *56:175 0.000313492
177 *56:176 0.000930061
178 *56:177 0.00137176
179 *56:178 0.000180641
180 *56:179 0.000755186
181 *56:180 0.00170213
182 *56:181 0.000937152
183 *56:182 0.000252014
184 *56:183 0.000215886
185 *56:184 0.000377048
186 *56:185 0.000438941
187 *56:186 0.000457304
188 *56:187 0.000479433
189 *56:188 0.000146461
190 *56:189 0.000146461
191 *56:190 0.00015672
192 *56:191 0.000356192
193 *56:192 0.000113865
194 *56:193 0.000306272
195 *56:194 0.000630698
196 *56:195 0.000591479
197 *56:196 0.000288688
198 *56:197 0.000606076
199 *56:198 0.000609011
200 *56:199 0.00068319
201 *56:200 0.000366035
202 *56:201 0.000387541
203 *56:202 0.000232223
204 *56:203 0.000240898
205 *56:204 0.000612699
206 *56:205 0.000612699
207 *56:206 0.000178044
208 *56:207 0.000207081
209 *56:208 0.000485978
210 *56:209 0.000346737
211 *56:210 0.000346737
212 *56:211 0.000920114
213 *56:212 0.000920114
214 *56:213 0.000363022
215 *56:214 0.000481666
216 *56:215 0.000265261
217 *56:216 0.000222405
218 *56:217 0.000657009
219 *56:218 0.000587324
220 *56:219 0.000303493
221 *56:220 0.000580129
222 *56:221 0.000250274
223 *56:222 0.000129475
224 *56:223 0.000340374
225 *56:224 0.000279676
226 *56:225 0.000355932
227 *56:226 0.000390164
228 *56:227 0.000419254
229 *56:228 0.000897154
230 *56:229 0.000142097
231 *56:230 0.000364633
232 *56:231 0.000478394
233 *56:232 0.000554624
234 *56:233 0.000689735
235 *56:234 0.00095767
236 *56:235 0.000300973
237 *56:236 0.00035588
238 *56:237 0.000167992
239 *56:238 0.000184459
240 *56:239 0.000501224
241 *56:240 0.000129578
242 *56:241 7.51914e-05
243 *56:242 0.000897154
244 *56:243 0.000305129
245 *56:244 0.000509925
246 *56:245 0.000365308
247 *56:246 0.000782588
248 *56:247 0.000376398
249 *56:248 0.00015446
250 *56:249 7.51914e-05
251 *56:250 6.58411e-05
252 *56:251 0.000120592
253 *56:252 0.000312973
254 *56:253 0.000290506
255 *56:254 0.000142097
256 *56:255 0.000303155
257 *56:256 0.000312973
258 *56:257 7.51914e-05
259 *56:258 0.000120592
260 *56:259 7.51914e-05
261 *56:260 0.000142227
262 *56:261 6.89059e-05
263 *56:262 0.000292948
264 *56:263 0.000235158
265 *56:264 0.000408163
266 *56:265 0.000142227
267 *56:266 0.000120592
268 *56:267 0.000923542
269 *56:268 0.000470238
270 *56:269 0.000391073
271 *56:270 0.000571636
272 *56:271 0.000391073
273 *56:272 0.000120592
274 *56:273 0.000622413
275 *56:274 0.000478939
276 *56:275 0.00035614
277 *56:276 0.00035614
278 *56:277 0.000622413
279 *56:278 0.000120592
280 *56:279 6.57113e-05
281 *56:280 0.000170278
282 *56:281 0.000120592
283 *56:282 0.000494237
284 *56:283 0.000678748
285 *56:284 0.000250274
286 *56:285 0.000152201
287 *56:286 0.000606206
288 *56:287 0.000252664
289 *56:288 0.000309752
290 *56:289 0.000449564
291 *56:290 0.00015446
292 *56:291 0.000305129
293 *56:292 0.000326634
294 *56:177 *126:10 0.00028642
295 *56:179 *126:11 0.00028642
296 *56:172 *126:10 8.396e-05
297 *56:173 *126:11 8.396e-05
298 *56:173 *126:10 0.00022725
299 *56:174 *126:11 0.00022725
300 *56:174 *126:16 5.1e-05
301 *56:180 *126:15 5.1e-05
302 *56:174 *126:10 0.00020313
303 *56:180 *126:11 0.00020313
304 *56:180 *126:16 0.00010722
305 *56:181 *126:15 0.00010722
306 *56:180 *126:14 3.79e-05
307 *56:181 *126:13 3.79e-05
308 *56:182 *126:3 1.513e-05
309 *56:183 *126:4 1.51300136e-05
310 *56:131 *183:11 6.338e-05
311 *56:132 *183:5 6.338e-05
312 *56:102 *183:8 2.291e-05
313 *56:103 *183:7 2.291e-05
314 *56:133 *183:6 1.736e-05
315 *56:134 *183:4 1.736e-05
316 *56:102 *183:3 9.92e-06
317 *56:103 *183:2 9.92e-06
318 *56:133 *183:3 2.128e-05
319 *56:134 *183:2 2.12799969e-05
320 *56:121 *94:10 1.263e-05
321 *56:122 *94:8 1.263e-05
322 *56:121 *94:7 5.271e-05
323 *56:122 *94:5 5.271e-05
324 *56:123 *94:13 4.002e-05
325 *56:124 *94:12 4.002e-05
326 *56:124 *94:12 8.86e-06
327 *56:125 *94:11 8.86e-06
328 *56:126 *94:12 8.86e-06
329 *56:127 *94:11 8.86e-06
330 *56:127 *94:16 4.475e-05
331 *56:128 *94:14 4.475e-05
332 *56:129 *94:12 5.617e-05
333 *56:130 *94:11 5.61700046e-05
334 *56:98 *179:2 3.086e-05
335 *56:99 *179:3 3.086e-05
336 *56:100 *179:2 1.773e-05
337 *56:101 *179:3 1.773e-05
338 *56:102 *179:2 0.00014231
339 *56:103 *179:3 0.000142309996
340 *56:78 *136:3 4.002e-05
341 *56:79 *136:2 4.002e-05
342 *56:79 *136:3 9.405e-05
343 *56:80 *136:2 9.405e-05
344 *56:80 *136:5 3.283e-05
345 *56:81 *136:4 3.283e-05
346 *56:81 *136:5 1.034e-05
347 *56:76 *136:4 1.03399905e-05

*RES
1 *56:119 *428:RN 3.2
2 *56:120 *56:119 1.71602
3 *56:281 *410:RN 3.2
4 *56:106 *56:120 3.2
5 *56:105 *56:281 3.2
6 *56:106 *56:105 1.83857
7 *56:279 *378:RN 6.4000001
8 *56:105 *56:104 2.57402
9 *56:156 *56:279 0.183887
10 *56:128 *56:104 3.2
11 *56:157 *56:156 1.55996
12 *56:127 *452:RN 3.2
13 *56:128 *56:127 1.71602
14 *56:150 *493:RN 3.2
15 *56:157 *56:98 0.183887
16 *56:127 *56:126 0.467969
17 *56:151 *481:RN 3.2
18 *56:151 *56:150 1.71602
19 *56:99 *381:RN 3.2
20 *56:99 *56:98 2.96396
21 *56:130 *56:126 0.183887
22 *56:287 *56:151 0.183887
23 *56:100 *56:99 0.183887
24 *56:130 *56:129 1.87197
25 *56:286 *476:RN 3.2
26 *56:286 *56:287 1.09199
27 *56:101 *56:100 0.312012
28 *56:129 *56:125 0.183887
29 *56:123 *401:RN 3.2
30 *56:123 *56:286 1.71602
31 *56:102 *56:101 0.183887
32 *56:125 *56:124 0.467969
33 *56:124 *56:123 1.09199
34 *56:103 *56:102 2.02803
35 *56:121 *56:124 3.2
36 *56:103 *56:143 0.183887
37 *56:122 *56:121 1.4709
38 *56:144 *382:RN 3.2
39 *56:144 *56:143 0.467969
40 *56:122 *56:135 0.312012
41 *56:164 *376:RN 3.2
42 *56:258 *383:RN 3.2
43 *56:133 *56:144 0.183887
44 *56:136 *56:135 2.57402
45 *56:165 *56:164 1.09199
46 *56:158 *56:258 3.2
47 *56:134 *454:RN 3.2
48 *56:134 *56:133 1.09199
49 *56:280 *56:136 0.312012
50 *56:154 *56:165 3.2
51 *56:154 *56:158 0.735449
52 *56:131 *56:134 3.2
53 *56:131 *56:280 0.551562
54 *375:RN *56:249 0.223828
55 *56:155 *56:154 3.12559
56 *56:132 *56:131 0.367676
57 *56:278 *370:RN 3.2
58 *56:152 *56:249 3.2
59 *56:152 *56:155 3.2
60 *384:RN *56:257 0.223828
61 *56:132 *56:277 0.312012
62 *56:291 *380:RN 3.2
63 *56:202 *56:278 3.2
64 *56:153 *56:152 2.02803
65 *56:248 *548:RN 3.2
66 *56:148 *56:257 3.2
67 *56:273 *56:277 2.9417
68 *56:292 *491:RN 3.2
69 *56:291 *56:292 1.09199
70 *56:203 *56:202 0.919238
71 *56:247 *56:153 0.735449
72 *56:247 *56:248 0.312012
73 *56:149 *56:148 1.87197
74 *56:215 *56:273 0.312012
75 *56:288 *56:292 0.183887
76 *56:290 *377:RN 3.2
77 *56:203 *56:276 0.155957
78 *56:246 *552:RN 3.2
79 *56:246 *56:247 0.77998
80 *56:145 *56:149 0.183887
81 *56:216 *56:215 0.919238
82 *56:288 *56:289 1.404
83 *56:289 *56:290 0.312012
84 *56:204 *488:RN 3.2
85 *56:275 *56:276 1.65469
86 *56:88 *557:RN 3.2
87 *56:88 *56:246 2.80801
88 *56:146 *495:RN 3.2
89 *56:146 *56:145 0.936035
90 *56:217 *56:216 3.2
91 *56:200 *487:RN 3.2
92 *56:171 *56:289 0.551562
93 *56:205 *479:RN 3.2
94 *56:205 *56:204 2.80801
95 *56:274 *56:275 0.155957
96 *56:89 *56:88 1.71602
97 *56:147 *56:146 1.09199
98 *56:218 *56:217 2.80801
99 *56:201 *477:RN 3.2
100 *56:201 *56:200 1.71602
101 *56:171 *56:170 2.496
102 *56:212 *56:205 3.2
103 *56:268 *56:274 1.65469
104 *56:77 *578:RN 3.2
105 *56:251 *554:RN 3.2
106 *56:245 *56:89 3.2
107 *56:256 *56:147 3.2
108 *56:272 *56:218 3.2
109 *56:284 *56:201 0.183887
110 *56:170 *56:167 0.367676
111 *56:285 *484:RN 3.2
112 *56:212 *56:211 4.22871
113 *56:199 *496:RN 3.2
114 *56:199 *56:268 3.2
115 *56:76 *577:RN 3.2
116 *56:77 *56:76 1.09199
117 *56:138 *56:251 3.2
118 *56:245 *56:138 1.83857
119 *56:252 *56:256 1.4709
120 *56:271 *430:RN 3.2
121 *56:271 *56:272 3.2
122 *56:283 *494:RN 3.2
123 *56:283 *56:284 1.09199
124 *56:167 *56:166 1.404
125 *56:166 *56:285 0.312012
126 *56:96 *56:211 3.2
127 *56:96 *56:199 2.80801
128 *56:81 *565:RN 3.2
129 *56:76 *56:81 1.71602
130 *56:138 *56:137 1.10312
131 *56:114 *56:252 3.2
132 *56:269 *56:271 1.404
133 *56:183 *374:RN 3.2
134 *56:190 *373:RN 3.2
135 *56:282 *56:283 2.02803
136 *56:175 *56:166 3.2
137 *56:97 *56:96 0.467969
138 *56:80 *570:RN 3.2
139 *56:81 *56:80 1.09199
140 *56:78 *579:RN 3.2
141 *56:254 *489:RN 3.2
142 *56:115 *56:137 3.2
143 *56:115 *56:114 0.624023
144 *56:266 *433:RN 6.4000001
145 *56:270 *56:269 3.2
146 *56:193 *559:RN 3.2
147 *56:183 *56:182 0.77998
148 *56:182 *56:190 0.312012
149 *56:176 *56:282 3.2
150 *56:176 *56:175 1.4709
151 *56:97 *56:92 0.183887
152 *56:79 *564:RN 3.2
153 *56:80 *56:79 1.71602
154 *56:79 *56:78 1.09199
155 *56:116 *56:254 0.183887
156 *56:116 *56:115 1.09199
157 *56:267 *56:266 3.2
158 *56:267 *56:270 2.9417
159 *56:194 *558:RN 3.2
160 *56:194 *56:193 1.09199
161 *56:177 *56:182 3.2
162 *56:177 *56:176 2.9417
163 *56:93 *369:RN 3.2
164 *56:93 *56:92 0.624023
165 *56:228 *56:79 3.2
166 *56:117 *447:RN 3.2
167 *56:117 *56:116 1.71602
168 *56:264 *56:267 1.83857
169 *56:195 *562:RN 3.2
170 *56:195 *56:194 1.71602
171 *56:179 *56:177 4.4126
172 *56:94 *486:RN 3.2
173 *56:94 *56:93 1.71602
174 *56:228 *56:242 4.59639
175 *56:243 *576:RN 3.2
176 *56:255 *439:RN 3.2
177 *56:118 *56:117 0.77998
178 *56:264 *56:107 0.312012
179 *56:196 *553:RN 3.2
180 *56:196 *56:195 1.09199
181 *371:RN *56:259 0.223828
182 *56:95 *56:179 3.2
183 *56:95 *56:94 0.312012
184 *56:197 *571:RN 3.2
185 *56:197 *56:242 3.2
186 *56:197 *56:243 1.09199
187 *56:253 *56:255 0.919238
188 *56:118 *56:213 0.183887
189 *56:108 *56:107 2.39014
190 *56:188 *56:196 0.183887
191 *56:260 *56:259 3.2
192 *56:265 *372:RN 3.2
193 *56:91 *379:RN 3.2
194 *56:178 *56:95 0.624023
195 *56:198 *561:RN 3.2
196 *56:198 *56:197 1.71602
197 *56:253 *56:214 0.467969
198 *56:214 *56:213 1.55996
199 *56:111 *56:108 0.155957
200 *56:187 *483:RN 3.2
201 *56:250 *485:RN 6.4000001
202 *56:189 *56:188 0.936035
203 *56:260 *56:261 0.183887
204 *56:263 *56:265 0.183887
205 *56:91 *56:90 0.155957
206 *56:172 *56:178 3.2
207 *56:191 *555:RN 3.2
208 *56:191 *56:198 1.09199
209 *56:112 *56:214 3.2
210 *56:112 *56:111 0.551562
211 *56:187 *56:186 1.71602
212 *56:186 *56:250 0.183887
213 *56:184 *56:189 0.183887
214 *56:261 *56:262 0.155957
215 *56:262 *56:263 0.936035
216 *56:173 *56:90 3.2
217 *56:173 *56:172 1.28701
218 *56:192 *56:191 0.467969
219 *56:113 *56:112 0.367676
220 *56:186 *56:185 0.155957
221 *56:185 *56:184 1.71602
222 *56:174 *56:262 3.2
223 *56:174 *56:173 3.49326
224 *56:209 *56:192 0.183887
225 *56:113 *56:109 0.155957
226 *56:180 *56:185 3.2
227 *56:180 *56:174 4.4126
228 *56:210 *56:209 1.55996
229 *56:110 *56:109 2.9417
230 *56:236 *560:RN 3.2
231 *56:181 *56:180 4.22871
232 *56:210 *56:206 0.183887
233 *56:244 *56:110 0.155957
234 *56:235 *56:236 0.936035
235 *56:207 *56:181 3.2
236 *56:207 *56:206 0.624023
237 *56:239 *56:244 2.57402
238 *56:235 *56:141 0.183887
239 *549:RN *56:241 0.223828
240 *56:208 *551:RN 3.2
241 *56:208 *56:207 0.155957
242 *56:238 *56:239 3.2
243 *56:142 *56:141 0.936035
244 *56:159 *56:241 6.4000001
245 *56:159 *56:208 1.71602
246 *56:238 *56:240 0.467969
247 *56:139 *56:142 0.183887
248 *56:160 *56:159 0.312012
249 *56:233 *56:240 0.183887
250 *56:140 *568:RN 3.2
251 *56:140 *56:139 0.936035
252 *56:161 *56:160 0.183887
253 *56:233 *56:234 3.43203
254 *56:234 *56:140 1.24805
255 *56:162 *563:RN 6.4000001
256 *56:162 *56:161 0.77998
257 *56:84 *56:234 3.2
258 *56:169 *550:RN 6.4000001
259 *56:163 *556:RN 3.2
260 *56:163 *56:162 1.71602
261 *368:Y *56:84 4.47656
262 *56:169 *56:168 1.09199
263 *56:237 *56:163 3.2
264 *56:229 *368:Y 3.2
265 *56:232 *56:168 3.2
266 *56:232 *56:237 0.367676
267 *56:83 *56:229 0.183887
268 *56:231 *56:232 2.39014
269 *56:83 *56:82 0.312012
270 *56:230 *56:231 0.155957
271 *56:227 *572:RN 3.2
272 *56:219 *56:82 0.551562
273 *56:225 *56:230 1.65469
274 *56:226 *575:RN 6.4000001
275 *56:226 *56:227 1.71602
276 *56:220 *566:RN 3.2
277 *56:219 *56:220 0.936035
278 *56:224 *56:225 3.2
279 *56:224 *56:226 0.155957
280 *56:87 *567:RN 3.2
281 *56:220 *56:87 1.71602
282 *56:223 *569:RN 3.2
283 *56:223 *56:224 0.936035
284 *56:86 *573:RN 3.2
285 *56:87 *56:86 1.09199
286 *56:222 *56:223 0.467969
287 *56:85 *574:RN 3.2
288 *56:86 *56:85 1.71602
289 *56:74 *56:222 0.183887
290 *56:85 *56:221 1.09199
291 *56:75 *56:74 1.24805
292 *56:75 *56:221 0.183887
*END

*D_NET *57 0.00597602

*CONN
*I *367:A I *C 24.09 27.16 *L 0.0305 *D CLKBUFX20
*P *57 I *C 0 0.28 *L 0

*CAP
1 *367:A 0.000139844
2 *57 4.37606e-05
3 *57:2 0.00104728
4 *57:3 0.00104728
5 *57:4 6.92142e-05
6 *57:5 0.0015206
7 *57:6 0.0015206
8 *57:7 0.000120609
9 *57:2 *74:3 0.00023341
10 *57:3 *74 0.000233410001

*RES
1 *57:7 *367:A 3.20002
2 *57:2 *57:7 3.20002
3 *57:3 *57:2 6.435
4 *57:6 *57:3 3.20002
5 *57:5 *57:6 7.48799992
6 *57:4 *57:5 3.20002
7 *57 *57:4 0.236742
*END

*D_NET *58 0.00659462

*CONN
*P *58 I *C 0 8.12 *L 0
*I *586:RN I *C 33.99 22.12 *L 0.004 *D DFFRHQX1
*I *583:RN I *C 33.99 32.2 *L 0.00249 *D DFFRHQXL

*CAP
1 *58 0.00174552
2 *586:RN 0.000139846
3 *583:RN 0.000139846
4 *58:3 0.00060573
5 *58:4 0.0013389
6 *58:5 0.000853778
7 *58:6 0.00177098

*RES
1 *58:3 *583:RN 3.2
2 *58:4 *586:RN 3.2
3 *58:4 *58:3 2.80806
4 *58:5 *58:4 3.9
5 *58:6 *58:5 3.2
6 *58 *58:6 9.42964268
*END

*D_NET *59 0.00697623

*CONN
*P *59 I *C 0 145.88 *L 0
*I *564:D I *C 23.43 107.24 *L 0.00184 *D DFFRHQX1

*CAP
1 *59 0.00109723
2 *564:D 6.32929e-05
3 *59:2 0.00014665
4 *59:3 0.00014665
5 *59:4 0.00152721
6 *59:5 0.00147233
7 *59:6 0.00031714
8 *59:7 0.00031714
9 *59:8 0.000172984
10 *59:9 0.000118103
11 *59:10 0.0011227
12 *59:11 5.09187e-05
13 *59:4 *60:3 0.00021194
14 *59:5 *60:2 0.000211939999

*RES
1 *59:11 *564:D 6.40004
2 *59:2 *59:11 6.40004
3 *59:3 *59:2 0.551599
4 *59:8 *59:3 3.20002
5 *59:8 *59:9 0.468019
6 *59:6 *59:9 0.183822
7 *59:6 *59:7 1.56002
8 *59:7 *59:5 0.183822
9 *59:5 *59:4 8.73600006
10 *59:10 *59:4 3.20002
11 *59 *59:10 5.93642
*END

*D_NET *60 0.00513199

*CONN
*P *60 I *C 0 137.48 *L 0
*I *579:D I *C 23.43 114.52 *L 0.00184 *D DFFRHQX1

*CAP
1 *60 0.00120163
2 *579:D 6.3307e-05
3 *60:2 0.00107319
4 *60:3 0.00114288
5 *60:4 0.0012271
6 *60:3 *59:4 0.00021194
7 *60:2 *59:5 0.000211939999

*RES
1 *60:2 *579:D 6.40002
2 *60:2 *60:3 6.39596
3 *60:4 *60:3 3.20001
4 *60 *60:4 6.48792839
*END

*D_NET *61 0.00721142

*CONN
*P *61 I *C 0 129.64 *L 0
*I *571:D I *C 39.93 107.24 *L 0.00184 *D DFFRHQX1

*CAP
1 *61 0.0021327
2 *571:D 6.32942e-05
3 *61:2 0.000540833
4 *61:3 0.000540833
5 *61:4 0.000105973
6 *61:5 0.000359315
7 *61:6 0.000319072
8 *61:7 0.000468186
9 *61:8 0.000523083
10 *61:9 0.00215816

*RES
1 *61:4 *571:D 6.40003
2 *61:4 *61:5 0.367663
3 *61:5 *61:6 1.40407
4 *61:6 *61:3 0.183831
5 *61:3 *61:2 2.49605
6 *61:7 *61:2 0.183831
7 *61:7 *61:8 2.34001
8 *61:9 *61:8 3.19993
9 *61 *61:9 11.4520712
*END

*D_NET *62 0.00508839

*CONN
*P *62 I *C 0 121.24 *L 0
*I *576:D I *C 39.93 114.52 *L 0.00184 *D DFFRHQX1

*CAP
1 *62 0.000791402
2 *576:D 6.33007e-05
3 *62:2 0.00134166
4 *62:3 0.000859719
5 *62:4 0.000331919
6 *62:5 0.000401587
7 *62:6 0.00129879

*RES
1 *62:4 *576:D 6.39997
2 *62:4 *62:5 1.56003
3 *62:6 *62:5 3.19998
4 *62:2 *62:6 6.80271435
5 *62:2 *62:3 0.312026
6 *62 *62:3 4.28169
*END

*D_NET *63 0.00400711

*CONN
*P *63 I *C 0 113.4 *L 0
*I *570:D I *C 23.43 104.44 *L 0.00184 *D DFFRHQX1

*CAP
1 *63 0.00124914
2 *570:D 6.33013e-05
3 *63:2 0.000132674
4 *63:3 7.76189e-05
5 *63:4 0.000131936
6 *63:5 0.000117146
7 *63:6 0.00134428
8 *63:7 0.000324609
9 *63:8 0.000284343
10 *63:8 *55:151 2.461e-05
11 *63:7 *55:152 2.461e-05
12 *63:5 *55:151 3.545e-05
13 *63:4 *55:152 3.545e-05
14 *63:8 *55:152 1.992e-05
15 *63:7 *55:149 1.992e-05
16 *63:2 *55:152 6.104e-05
17 *63:3 *55:149 6.10399943e-05

*RES
1 *63:3 *570:D 6.39997
2 *63:3 *63:2 0.46799
3 *63:2 *63:7 0.367714
4 *63:7 *63:8 1.40397
5 *63:4 *63:8 0.183857
6 *63:4 *63:5 0.623953
7 *63:6 *63:5 3.19999
8 *63 *63:6 6.67178583
*END

*D_NET *64 0.00379654

*CONN
*P *64 I *C 0 105 *L 0
*I *565:D I *C 23.43 97.16 *L 0.00184 *D DFFRHQX1

*CAP
1 *64 0.00123089
2 *565:D 6.33119e-05
3 *64:2 6.57198e-05
4 *64:3 0.00010384
5 *64:4 0.00010384
6 *64:5 0.000171462
7 *64:6 0.000156671
8 *64:7 0.00132603
9 *64:8 0.000287403
10 *64:9 0.000287403

*RES
1 *64:2 *565:D 6.39997
2 *64:2 *64:3 0.183857
3 *64:3 *64:4 0.312027
4 *64:4 *64:8 0.183857
5 *64:8 *64:9 1.24801
6 *64:5 *64:9 0.183857
7 *64:5 *64:6 0.623953
8 *64:7 *64:6 3.19999
9 *64 *64:7 6.67178583
*END

*D_NET *65 0.00300804

*CONN
*P *65 I *C 0 97.16 *L 0
*I *577:D I *C 23.43 94.36 *L 0.00184 *D DFFRHQX1

*CAP
1 *65 0.00116521
2 *577:D 6.33004e-05
3 *65:2 0.000104767
4 *65:3 0.00123354
5 *65:4 0.000154816
6 *65:5 0.000154816
7 *65:6 0.000131589

*RES
1 *65:4 *577:D 6.4000001
2 *65:4 *65:5 0.467969
3 *65:6 *65:5 3.2
4 *65:2 *65:6 0.183887
5 *65:2 *65:3 0.312012
6 *65 *65:3 6.3041
*END

*D_NET *66 0.00288973

*CONN
*P *66 I *C 0 88.76 *L 0
*I *578:D I *C 23.43 87.08 *L 0.00184 *D DFFRHQX1

*CAP
1 *66 9.78564e-06
2 *578:D 6.33003e-05
3 *66:2 0.00129556
4 *66:3 0.000112268
5 *66:4 0.000120591
6 *66:5 0.00128823

*RES
1 *66:4 *578:D 6.40004
2 *66:5 *66:4 3.20002
3 *66:2 *66:5 6.43499994
4 *66:2 *66:3 0.467975
5 *66 *66:3 0.0529246
*END

*D_NET *67 0.0031753

*CONN
*P *67 I *C 0 80.92 *L 0
*I *572:D I *C 23.43 77 *L 0.00184 *D DFFRHQX1

*CAP
1 *67 0.000791399
2 *572:D 6.32967e-05
3 *67:2 0.000479796
4 *67:3 0.00085972
5 *67:4 0.000132785
6 *67:5 0.000132785
7 *67:6 0.000506623
8 *67:5 *55:126 6.267e-05
9 *67:4 *55:127 6.267e-05
10 *67:5 *55:127 4.178e-05
11 *67:4 *55:128 4.17800029e-05

*RES
1 *67:4 *572:D 6.4000001
2 *67:4 *67:5 0.77998
3 *67:6 *67:5 3.2
4 *67:2 *67:6 2.20625
5 *67:2 *67:3 0.312012
6 *67 *67:3 4.28164
*END

*D_NET *68 0.00282141

*CONN
*P *68 I *C 0 73.08 *L 0
*I *575:D I *C 23.43 74.2 *L 0.00184 *D DFFRHQX1

*CAP
1 *68 0.000655461
2 *575:D 6.33052e-05
3 *68:2 0.00072378
4 *68:3 0.000615724
5 *68:4 0.000120602
6 *68:5 0.000642539

*RES
1 *68:4 *575:D 6.4000001
2 *68:5 *68:4 3.2
3 *68:3 *68:5 2.9417
4 *68:2 *68:3 0.312012
5 *68 *68:2 3.54619
*END

*D_NET *69 0.00286171

*CONN
*P *69 I *C 0 64.68 *L 0
*I *569:D I *C 23.43 66.92 *L 0.00184 *D DFFRHQX1

*CAP
1 *69 0.00119921
2 *569:D 6.32933e-05
3 *69:2 0.000222115
4 *69:3 0.00122466
5 *69:4 0.000152431

*RES
1 *69:4 *569:D 6.40002
2 *69:2 *69:4 0.623984
3 *69:3 *69:2 3.20001
4 *69 *69:3 6.48792839
*END

*D_NET *70 0.00268481

*CONN
*P *70 I *C 0 56.84 *L 0
*I *574:D I *C 23.43 56.84 *L 0.00184 *D DFFRHQX1

*CAP
1 *70 0.00120289
2 *574:D 6.33016e-05
3 *70:2 0.000120602
4 *70:3 0.00129802

*RES
1 *70:2 *574:D 6.40002
2 *70:3 *70:2 3.20001
3 *70 *70:3 6.48792839
*END

*D_NET *71 0.00345439

*CONN
*P *71 I *C 0 48.44 *L 0
*I *573:D I *C 23.43 54.04 *L 0.00184 *D DFFRHQX1

*CAP
1 *71 0.00123563
2 *573:D 6.32941e-05
3 *71:2 6.57105e-05
4 *71:3 0.00028727
5 *71:4 0.00133076
6 *71:5 0.000302073
7 *71:5 *55:107 1.773e-05
8 *71:3 *55:108 1.773e-05
9 *71:5 *55:108 6.71e-05
10 *71:3 *55:109 6.70999969e-05

*RES
1 *71:2 *573:D 6.39997
2 *71:2 *71:5 0.183857
3 *71:3 *71:5 1.56003
4 *71:4 *71:3 3.19999
5 *71 *71:4 6.67178583
*END

*D_NET *72 0.00348529

*CONN
*P *72 I *C 0 40.6 *L 0
*I *567:D I *C 23.43 46.76 *L 0.00184 *D DFFRHQX1

*CAP
1 *72 0.000791399
2 *567:D 6.32967e-05
3 *72:2 0.000322912
4 *72:3 0.000377799
5 *72:4 0.00085972
6 *72:5 0.000523638
7 *72:6 6.57236e-05
8 *72:7 0.000480779

*RES
1 *72:6 *567:D 6.4000001
2 *72:6 *72:2 0.183887
3 *72:3 *72:2 1.404
4 *72:7 *72:3 3.2
5 *72:5 *72:7 2.39014
6 *72:4 *72:5 0.312012
7 *72 *72:4 4.28164
*END

*D_NET *73 0.00579752

*CONN
*P *73 I *C 0 32.2 *L 0
*I *568:D I *C 39.27 43.96 *L 0.00184 *D DFFRHQX1

*CAP
1 *73 0.00116766
2 *568:D 6.33048e-05
3 *73:2 0.00073844
4 *73:3 0.000808127
5 *73:4 0.000249992
6 *73:5 0.00120182
7 *73:6 0.000879281
8 *73:7 0.000688926

*RES
1 *73:2 *568:D 6.4000001
2 *73:3 *73:2 3.43203
3 *73:7 *73:3 3.2
4 *73:6 *73:7 3.49326
5 *73:4 *73:6 1.10312
6 *73:4 *73:5 0.155957
7 *73 *73:5 6.3041
*END

*D_NET *74 0.00491111

*CONN
*P *74 I *C 0 24.36 *L 0
*I *566:D I *C 23.43 43.96 *L 0.00184 *D DFFRHQX1

*CAP
1 *74 0.000906621
2 *566:D 6.33175e-05
3 *74:2 0.0011852
4 *74:3 0.000932081
5 *74:4 0.00121083
6 *74:5 0.000146238
7 *74:3 *57:2 0.00023341
8 *74 *57:3 0.000233410001

*RES
1 *74:5 *566:D 6.4000001
2 *74:4 *74:5 0.551562
3 *74:2 *74:4 5.45996
4 *74:3 *74:2 3.2
5 *74 *74:3 5.93633
*END

*D_NET *75 0.0112908

*CONN
*P *75 O *C 155.1 29.4 *L 0
*I *591:A I *C 72.93 43.4 *L 0.00346 *D INVX1
*I *489:Q O *C 72.93 36.68 *L 0 *D DFFRHQX1

*CAP
1 *75 0.00199492
2 *591:A 0.000139845
3 *489:Q 0.000139845
4 *75:3 0.000252765
5 *75:4 0.000800848
6 *75:5 0.000631161
7 *75:6 0.00169908
8 *75:7 0.000431509
9 *75:8 0.0016907
10 *75:9 0.000431509
11 *75:10 0.00201202
12 *75 *55:91 2.926e-05
13 *75:10 *55:92 2.926e-05
14 *75:9 *55:91 0.00010705
15 *75:7 *55:92 0.00010705
16 *75:8 *55:91 5.142e-05
17 *75:6 *55:92 5.142e-05
18 *75:8 *55:92 7.53e-06
19 *75:6 *55:93 7.53e-06
20 *75:8 *55:93 0.00017459
21 *75:6 *55:89 0.00017459
22 *75:8 *55:89 0.00016347
23 *75:6 *55:90 0.000163470011

*RES
1 *75:10 *75 10.5327854
2 *75:9 *75:10 0.077948
3 *75:7 *75:9 2.20633
4 *75:7 *75:8 0.077948
5 *75:3 *591:A 3.20005
6 *75:6 *75:8 10.1122
7 *75:4 *75:3 1.09208
8 *75:4 *489:Q 3.20005
9 *75:5 *75:6 3.20005
10 *75:5 *75:4 2.80806
*END

*D_NET *76 0.0102209

*CONN
*P *76 O *C 155.1 36.68 *L 0
*I *592:A I *C 70.29 53.48 *L 0.00346 *D INVX1
*I *495:Q O *C 77.55 46.76 *L 0 *D DFFRHQX1

*CAP
1 *76 0.000995307
2 *592:A 0.000139844
3 *495:Q 0.000139844
4 *76:3 0.000281574
5 *76:4 0.00033631
6 *76:5 7.53282e-05
7 *76:6 9.02303e-05
8 *76:7 0.000383896
9 *76:8 0.000441193
10 *76:9 0.0023308
11 *76:10 0.000120603
12 *76:11 0.000383896
13 *76:12 0.000441193
14 *76:13 0.00102077
15 *76:14 0.000354697
16 *76:15 0.000354697
17 *76:16 0.0023308

*RES
1 *76:13 *76 5.38467
2 *76:14 *76:13 3.20004
3 *76:14 *76:15 1.404
4 *76:16 *76:15 3.20004
5 *76:9 *76:16 16.1794281
6 *76:8 *76:9 3.20004
7 *76:8 *76:12 1.87208
8 *76:10 *495:Q 3.20004
9 *76:11 *76:12 3.20004
10 *76:11 *76:10 3.20004
11 *76:7 *76:11 1.8385
12 *76:4 *76:7 3.20004
13 *76:5 *592:A 3.20004
14 *76:4 *76:3 1.09194
15 *76:6 *76:5 0.312054
16 *76:6 *76:3 0.183924
*END

*D_NET *77 0.00609546

*CONN
*P *77 O *C 155.1 43.96 *L 0
*I *590:A I *C 116.49 47.32 *L 0.00346 *D INVX1
*I *476:Q O *C 132.33 46.76 *L 0 *D DFFRHQX1

*CAP
1 *77 0.000587499
2 *590:A 0.000139844
3 *476:Q 0.000222245
4 *77:3 0.00085364
5 *77:4 0.000491734
6 *77:5 0.000197795
7 *77:6 0.000233056
8 *77:7 0.000163368
9 *77:8 0.000120605
10 *77:9 0.000559702
11 *77:10 0.000119693
12 *77:11 0.000509175
13 *77:12 0.000150707
14 *77:13 0.000509175
15 *77:14 0.000237771
16 *77:15 0.000612964
17 *77:16 0.000148728
18 *77:17 0.000237771

*RES
1 *77:15 *77 3.17852
2 *77:14 *77:15 3.20000005
3 *77:14 *77:17 0.77998
4 *77:16 *77:17 3.20000005
5 *77:12 *77:16 0.671484
6 *77:12 *77:13 0.189893
7 *77:11 *77:13 2.68594
8 *77:10 *77:11 0.189893
9 *476:Q *77:10 0.447656
10 *77:8 *476:Q 3.20000005
11 *77:9 *77:8 3.20000005
12 *77:3 *77:9 2.75786
13 *77:4 *77:3 1.10312
14 *77:5 *77:4 0.551562
15 *77:6 *77:5 3.20000005
16 *77:7 *77:6 0.624023
17 *590:A *77:7 3.20000005
*END

*D_NET *78 0.00530727

*CONN
*P *78 O *C 155.1 51.24 *L 0
*I *593:A I *C 117.15 57.4 *L 0.00346 *D INVX1
*I *481:Q O *C 132.99 54.04 *L 0 *D DFFRHQX1

*CAP
1 *78 0.00113121
2 *593:A 0.000139839
3 *481:Q 0.000279679
4 *78:3 0.000128067
5 *78:4 0.000883832
6 *78:5 5.83856e-05
7 *78:6 0.000120601
8 *78:7 0.00115668
9 *78:8 0.000262576
10 *78:9 0.000262576
11 *78:10 0.000883832

*RES
1 *78:7 *78 6.12021446
2 *78:6 *78:7 3.2
3 *481:Q *78:6 3.2
4 *78:8 *481:Q 3.2
5 *78:8 *78:9 0.779969
6 *78:10 *78:9 3.2
7 *78:5 *593:A 3.2
8 *78:4 *78:10 4.41254
9 *78:3 *78:5 0.155956
10 *78:3 *78:4 3.2
*END

*D_NET *79 0.00394609

*CONN
*P *79 O *C 155.1 58.52 *L 0
*I *594:A I *C 128.37 63.56 *L 0.00346 *D INVX1
*I *493:Q O *C 132.99 56.84 *L 0 *D DFFRHQX1

*CAP
1 *79 0.00113121
2 *594:A 0.000139839
3 *493:Q 0.000139839
4 *79:3 0.000222617
5 *79:4 0.000374741
6 *79:5 0.000334481
7 *79:6 0.000152194
8 *79:7 0.00115668
9 *79:8 0.000294487

*RES
1 *79:7 *79 6.12021446
2 *79:6 *79:7 3.2
3 *79:6 *79:8 0.312006
4 *79:8 *493:Q 3.2
5 *79:4 *79:8 0.735423
6 *79:4 *79:5 1.09197
7 *79:3 *79:5 0.551544
8 *594:A *79:3 3.2
*END

*D_NET *80 0.0106988

*CONN
*P *80 O *C 155.1 65.8 *L 0
*I *600:A I *C 97.35 83.72 *L 0.00346 *D INVX1
*I *486:Q O *C 99.99 94.36 *L 0 *D DFFRHQX1

*CAP
1 *80 0.000621499
2 *600:A 0.000139836
3 *486:Q 0.000139836
4 *80:3 0.000428311
5 *80:4 0.00030851
6 *80:5 0.000226817
7 *80:6 0.000146026
8 *80:7 0.00203874
9 *80:8 0.00203874
10 *80:9 0.000142231
11 *80:10 0.00026645
12 *80:11 0.00130242
13 *80:12 0.000646946
14 *80:13 0.00130242
15 *80:7 *83 8.843e-05
16 *80:8 *83:12 8.843e-05
17 *80:7 *83:8 0.00034228
18 *80:8 *83:9 0.00034228
19 *80:7 *83:3 4.433e-05
20 *80:8 *83:4 4.43300081e-05

*RES
1 *80:12 *80 3.36241
2 *80:11 *80:12 3.19994
3 *80:11 *80:13 6.39605
4 *80:7 *80:13 3.19994
5 *80:8 *80:7 11.9507141
6 *80:10 *486:Q 3.19994
7 *80:3 *80:8 3.19994
8 *80:3 *80:10 0.779926
9 *80:4 *80:3 0.93602
10 *80:5 *80:4 0.551619
11 *80:6 *80:5 0.467919
12 *80:9 *80:6 0.183812
13 *600:A *80:9 3.19994
*END

*D_NET *81 0.00474782

*CONN
*P *81 O *C 155.1 73.08 *L 0
*I *596:A I *C 117.15 73.64 *L 0.00346 *D INVX1
*I *491:Q O *C 132.99 74.2 *L 0 *D DFFRHQX1

*CAP
1 *81 0.000553519
2 *596:A 0.000139856
3 *491:Q 6.32982e-05
4 *81:3 0.000120599
5 *81:4 0.00101514
6 *81:5 0.000120599
7 *81:6 0.00153525
8 *81:7 0.000587675
9 *81:8 0.000611874

*RES
1 *81:7 *81 2.99463
2 *81:7 *81:8 0.155957
3 *81:5 *491:Q 6.4000001
4 *81:6 *81:8 3.12559
5 *81:6 *81:5 3.2
6 *81:4 *81:6 4.4126
7 *81:3 *81:4 3.2
8 *596:A *81:3 3.2
*END

*D_NET *82 0.00510457

*CONN
*P *82 O *C 155.1 80.36 *L 0
*I *595:A I *C 126.39 83.72 *L 0.00346 *D INVX1
*I *484:Q O *C 131.67 94.36 *L 0 *D DFFRHQX1

*CAP
1 *82 0.000791399
2 *595:A 0.000139843
3 *484:Q 0.000139843
4 *82:3 0.000120598
5 *82:4 0.000283281
6 *82:5 0.000223487
7 *82:6 0.000433264
8 *82:7 0.000283609
9 *82:8 0.000283281
10 *82:9 0.000125846
11 *82:10 0.000148108
12 *82:11 0.000202982
13 *82:12 0.000296583
14 *82:13 0.000296583
15 *82:14 0.00085972
16 *82:15 0.000476122

*RES
1 *82:11 *484:Q 3.2
2 *82:14 *82 4.28164291
3 *82:10 *82:11 0.467978
4 *82:14 *82:15 0.312029
5 *82:10 *82:13 0.183846
6 *82:6 *82:15 2.20628
7 *82:12 *82:13 1.24799
8 *82:5 *82:6 3.2
9 *82:9 *82:12 0.183846
10 *82:5 *82:7 0.623993
11 *82:7 *82:9 0.467978
12 *82:8 *82:7 3.2
13 *82:4 *82:8 1.47083
14 *82:3 *82:4 3.2
15 *595:A *82:3 3.2
*END

*D_NET *83 0.0112604

*CONN
*P *83 O *C 155.1 87.64 *L 0
*I *588:A I *C 68.97 83.72 *L 0.00346 *D INVX1
*I *485:Q O *C 67.65 87.08 *L 0 *D DFFRHQX1

*CAP
1 *83 0.00080869
2 *588:A 3.9839e-05
3 *485:Q 6.33216e-05
4 *83:3 0.00222389
5 *83:4 0.0022152
6 *83:5 7.54361e-05
7 *83:6 0.000234724
8 *83:7 0.000225121
9 *83:8 0.00146576
10 *83:9 0.00146576
11 *83:10 6.58327e-05
12 *83:11 7.51986e-05
13 *83:12 0.000842828
14 *83 *80:7 8.843e-05
15 *83:12 *80:8 8.843e-05
16 *83:8 *80:7 0.00034228
17 *83:9 *80:8 0.00034228
18 *83:3 *80:7 4.433e-05
19 *83:4 *80:8 4.43300081e-05
20 *83:3 *167:11 2.377e-05
21 *83:4 *167:9 2.377e-05
22 *83:3 *167:8 0.00020684
23 *83:4 *167:6 0.00020684
24 *83:3 *167:7 2.377e-05
25 *83:4 *167:5 2.37699858e-05

*RES
1 *83:12 *83 4.64931
2 *83:8 *83:12 0.155921
3 *83:9 *83:8 8.64135
4 *83:11 *588:A 0.223784
5 *83:3 *83:9 0.155921
6 *83:7 *83:11 3.20001
7 *83:4 *83:3 10.8475714
8 *83:7 *83:6 0.779934
9 *83:6 *83:4 3.20001
10 *83:6 *83:5 0.155921
11 *83:10 *83:5 0.183894
12 *485:Q *83:10 6.40003
*END

*D_NET *84 0.0134285

*CONN
*P *84 O *C 155.1 94.92 *L 0
*I *587:A I *C 61.71 77.56 *L 0.00346 *D INVX1
*I *483:Q O *C 66.99 84.28 *L 0 *D DFFRHQX1

*CAP
1 *84 0.00425258
2 *587:A 0.000139803
3 *483:Q 0.000139803
4 *84:3 0.000394288
5 *84:4 0.000394288
6 *84:5 0.000426737
7 *84:6 0.000426737
8 *84:7 0.000798913
9 *84:8 0.000729175
10 *84:9 0.00428732
11 *84:10 6.6925e-05
12 *84 *187:6 0.00022272
13 *84:9 *187:7 0.000222719998
14 *84 *55:142 5.853e-05
15 *84:9 *55:143 5.853e-05
16 *84 *55:143 0.0001053
17 *84:9 *55:139 0.0001053
18 *84 *55:139 0.00015803
19 *84:9 *55:137 0.00015803
20 *84 *55:137 0.00014137
21 *84:9 *55:138 0.00014137

*RES
1 *84:9 *84 24.505928
2 *84:10 *84:9 0.155929
3 *84:7 *84:10 3.2001
4 *84:8 *84:7 3.43194
5 *84:8 *483:Q 3.2001
6 *84:5 *84:8 3.2001
7 *84:6 *84:5 1.47104
8 *84:3 *84:6 3.2001
9 *84:4 *84:3 1.24818
10 *587:A *84:4 3.2001
*END

*D_NET *85 0.00674998

*CONN
*P *85 O *C 155.1 102.2 *L 0
*I *599:A I *C 117.15 87.64 *L 0.00346 *D INVX1
*I *494:Q O *C 126.39 97.16 *L 0 *D DFFRHQX1

*CAP
1 *85 0.000689439
2 *599:A 0.000139838
3 *494:Q 0.000222242
4 *85:3 0.000698712
5 *85:4 0.000629027
6 *85:5 0.000576742
7 *85:6 0.000576742
8 *85:7 0.000120595
9 *85:8 0.000706249
10 *85:9 0.000119701
11 *85:10 0.000706249
12 *85:11 0.000187978
13 *85:12 0.000186015
14 *85:13 0.000237776
15 *85:14 0.000237776
16 *85:15 0.0007149

*RES
1 *85:15 *85 3.73009
2 *85:14 *85:15 3.2
3 *85:13 *85:14 0.779983
4 *85:12 *85:13 3.2
5 *85:11 *85:12 0.895291
6 *85:10 *85:11 0.189915
7 *85:8 *85:10 3.80504346
8 *85:8 *85:9 0.189915
9 *494:Q *85:9 0.447645
10 *85:7 *494:Q 3.2
11 *85:5 *85:7 3.2
12 *85:6 *85:5 2.57399
13 *85:3 *85:6 3.2
14 *85:4 *85:3 2.65202
15 *599:A *85:4 3.2
*END

*D_NET *86 0.00609502

*CONN
*P *86 O *C 155.1 109.48 *L 0
*I *597:A I *C 111.87 103.88 *L 0.00346 *D INVX1
*I *477:Q O *C 127.05 104.44 *L 0 *D DFFRHQX1

*CAP
1 *86 0.00140309
2 *597:A 0.000139841
3 *477:Q 0.000139841
4 *86:3 0.000879823
5 *86:4 0.000879823
6 *86:5 0.000117625
7 *86:6 0.000187304
8 *86:7 0.000158725
9 *86:8 0.000262796
10 *86:9 0.000224683
11 *86:10 5.94329e-05
12 *86:11 0.000136464
13 *86:12 0.00150558

*RES
1 *86:12 *86 7.59107161
2 *86:11 *86:12 0.467955
3 *86:10 *86:11 0.183823
4 *86:7 *477:Q 3.20005
5 *86:9 *86:10 3.20005
6 *86:7 *86:8 0.312048
7 *86:8 *86:9 0.623979
8 *86:3 *86:8 3.20005
9 *86:4 *86:3 4.22874
10 *86:6 *86:4 3.20005
11 *86:5 *86:6 0.467955
12 *597:A *86:5 3.20005
*END

*D_NET *87 0.00951602

*CONN
*P *87 O *C 155.1 116.76 *L 0
*I *598:A I *C 86.79 103.88 *L 0.00346 *D INVX1
*I *479:Q O *C 84.15 104.44 *L 0 *D DFFRHQX1

*CAP
1 *87 0.00360053
2 *598:A 0.000139871
3 *479:Q 7.9729e-05
4 *87:3 0.000855385
5 *87:4 0.000917132
6 *87:5 0.00362598
7 *87:6 0.000115029
8 *87:7 0.000182364

*RES
1 *87:5 *87 19.3579292
2 *87:3 *87:5 3.20013
3 *87:7 *598:A 3.20013
4 *87:4 *87:3 3.58796
5 *87:4 *87:7 0.367746
6 *87:6 *87:4 3.20013
7 *479:Q *87:6 0.447794
*END

*D_NET *88 0.0106401

*CONN
*P *88 O *C 155.1 124.04 *L 0
*I *589:A I *C 77.55 107.8 *L 0.00346 *D INVX1
*I *488:Q O *C 84.15 114.52 *L 0 *D DFFRHQX1

*CAP
1 *88 0.003646
2 *589:A 0.000139827
3 *488:Q 0.000139827
4 *88:3 0.000217321
5 *88:4 0.000147689
6 *88:5 0.000743216
7 *88:6 0.000801449
8 *88:7 0.000210976
9 *88:8 0.000423636
10 *88:9 0.000423636
11 *88:10 6.63195e-05
12 *88:11 0.00368014

*RES
1 *88:11 *88 19.7256432
2 *88:10 *88:11 0.155913
3 *88:5 *88:10 3.20012
4 *88:6 *88:5 3.27597
5 *88:6 *488:Q 3.20012
6 *88:7 *88:6 0.468039
7 *88:9 *88:7 3.20012
8 *88:8 *88:9 1.83844
9 *88:3 *88:8 3.20012
10 *88:4 *88:3 0.623951
11 *589:A *88:4 3.20012
*END

*D_NET *89 0.00782059

*CONN
*P *89 O *C 155.1 131.32 *L 0
*I *601:A I *C 111.87 107.8 *L 0.00346 *D INVX1
*I *487:Q O *C 127.05 107.24 *L 0 *D DFFRHQX1

*CAP
1 *89 0.0014031
2 *601:A 0.000139837
3 *487:Q 0.000139837
4 *89:3 0.000852733
5 *89:4 0.000852733
6 *89:5 0.000243467
7 *89:6 0.000173799
8 *89:7 0.000157188
9 *89:8 0.00113563
10 *89:9 0.00104419
11 *89:10 9.733e-05
12 *89:11 0.000152197
13 *89:12 0.00142856

*RES
1 *89:12 *89 7.59107161
2 *89:11 *89:12 3.20005
3 *89:10 *89:11 0.312048
4 *89:7 *487:Q 3.20005
5 *89:9 *89:10 0.183823
6 *89:7 *89:8 0.312048
7 *89:8 *89:9 5.304
8 *89:3 *89:8 3.20005
9 *89:4 *89:3 4.22874
10 *89:5 *89:4 3.20005
11 *89:6 *89:5 0.936027
12 *601:A *89:6 3.20005
*END

*D_NET *90 0.00999308

*CONN
*P *90 O *C 155.1 138.6 *L 0
*I *602:A I *C 95.37 107.8 *L 0.00346 *D INVX1
*I *496:Q O *C 99.33 114.52 *L 0 *D DFFRHQX1

*CAP
1 *90 0.00289835
2 *602:A 0.000139822
3 *496:Q 6.33082e-05
4 *90:3 0.000502941
5 *90:4 0.000382169
6 *90:5 0.000142098
7 *90:6 0.00149053
8 *90:7 0.00138435
9 *90:8 0.00292382
10 *90:9 6.57174e-05

*RES
1 *90:8 *90 15.6807861
2 *90:7 *90:8 3.19999
3 *90:9 *496:Q 6.39999
4 *90:6 *90:7 6.86393
5 *90:6 *90:9 0.183759
6 *90:3 *90:6 0.735515
7 *90:4 *90:3 1.71604
8 *90:5 *90:4 0.183759
9 *602:A *90:5 3.19999
*END

*D_NET *91 0.00935124

*CONN
*I *314:A I *C 125.73 33.32 *L 0.00446 *D BUFX3
*P *91 O *C 155.1 0.28 *L 0
*I *452:Q O *C 132.33 26.6 *L 0 *D DFFRHQX1

*CAP
1 *314:A 6.32964e-05
2 *91 0.000553523
3 *452:Q 0.00022645
4 *91:3 0.000390504
5 *91:4 0.000460186
6 *91:5 0.000173902
7 *91:6 0.000112922
8 *91:7 0.000152294
9 *91:8 0.000143592
10 *91:9 0.000468573
11 *91:10 0.000468573
12 *91:11 0.000430663
13 *91:12 0.000430663
14 *91:13 5.64158e-05
15 *91:14 5.64158e-05
16 *91:15 0.000120589
17 *91:16 0.000123917
18 *91:17 0.00054698
19 *91:18 0.000150315
20 *91:19 0.00054698
21 *91:20 0.00147358
22 *91:21 0.000578976
23 *91:22 0.000148359
24 *91:23 0.00147358

*RES
1 *91:21 *91 2.99462
2 *91:20 *91:21 3.20003
3 *91:20 *91:23 7.33199978
4 *91:22 *91:23 3.20003
5 *91:18 *91:22 0.671488
6 *91:18 *91:19 0.189968
7 *91:17 *91:19 2.90971
8 *91:16 *91:17 0.189968
9 *452:Q *91:16 0.447622
10 *91:15 *452:Q 3.20003
11 *91:5 *91:15 3.20003
12 *91:13 *314:A 6.39995
13 *91:6 *91:5 0.367741
14 *91:13 *91:14 0.155957
15 *91:9 *91:6 0.155957
16 *91:11 *91:14 6.39995
17 *91:10 *91:9 2.20634
18 *91:12 *91:11 1.28704
19 *91:10 *91:7 0.155957
20 *91:3 *91:12 6.39995
21 *91:8 *91:7 0.551556
22 *91:4 *91:3 1.56002
23 *91:4 *91:8 3.20003
*END

*D_NET *92 0.00835571

*CONN
*I *316:A I *C 109.89 33.32 *L 0.00446 *D BUFX3
*P *92 O *C 155.1 7.56 *L 0
*I *428:Q O *C 116.49 26.6 *L 0 *D DFFRHQX1

*CAP
1 *316:A 6.33089e-05
2 *92 0.00198079
3 *428:Q 0.000139843
4 *92:3 0.000213346
5 *92:4 0.000213346
6 *92:5 5.5135e-05
7 *92:6 0.00131807
8 *92:7 0.00131384
9 *92:8 0.00052591
10 *92:9 0.00052591
11 *92:10 0.00200626

*RES
1 *92:10 *92 10.7166433
2 *92:7 *92:10 3.19998
3 *92:7 *92:6 6.08404
4 *92:6 *428:Q 3.19998
5 *92:6 *92:5 0.156001
6 *92:8 *92:5 6.39996
7 *92:3 *316:A 6.39996
8 *92:9 *92:8 1.83865
9 *92:4 *92:3 0.936006
10 *92:4 *92:9 6.39996
*END

*D_NET *93 0.00682545

*CONN
*I *321:A I *C 117.81 33.32 *L 0.00446 *D BUFX3
*P *93 O *C 155.1 14.84 *L 0
*I *410:Q O *C 123.09 23.8 *L 0 *D DFFRHQX1

*CAP
1 *321:A 6.32989e-05
2 *93 0.00102928
3 *410:Q 0.000222246
4 *93:3 6.5713e-05
5 *93:4 0.000659657
6 *93:5 0.000277643
7 *93:6 0.000604776
8 *93:7 0.000120595
9 *93:8 0.000277643
10 *93:9 0.000119693
11 *93:10 0.000557394
12 *93:11 0.000160895
13 *93:12 0.000557394
14 *93:13 0.000447776
15 *93:14 0.00105474
16 *93:15 0.000158931
17 *93:16 0.000447776

*RES
1 *93:14 *93 5.56865
2 *93:13 *93:14 3.2
3 *93:13 *93:16 1.87197
4 *93:15 *93:16 3.2
5 *93:11 *93:15 0.671484
6 *93:11 *93:12 0.189941
7 *93:10 *93:12 2.90977
8 *93:9 *93:10 0.189941
9 *410:Q *93:9 0.447656
10 *93:7 *410:Q 3.2
11 *93:8 *93:7 3.2
12 *93:5 *93:8 1.28701
13 *93:4 *93:5 3.2
14 *93:4 *93:6 2.65195
15 *93:3 *93:6 0.183887
16 *321:A *93:3 6.4000001
*END

*D_NET *94 0.00601683

*CONN
*I *323:A I *C 124.41 37.24 *L 0.00446 *D BUFX3
*P *94 O *C 155.1 22.12 *L 0
*I *401:Q O *C 132.33 43.96 *L 0 *D DFFRHQX1

*CAP
1 *323:A 6.32922e-05
2 *94 0.00113121
3 *401:Q 0.000139839
4 *94:3 5.09197e-05
5 *94:4 9.98979e-05
6 *94:5 0.000233648
7 *94:6 0.000108599
8 *94:7 0.000233648
9 *94:8 8.03419e-05
10 *94:9 6.57279e-05
11 *94:10 7.16406e-05
12 *94:11 0.000408275
13 *94:12 0.000594869
14 *94:13 0.000281744
15 *94:14 0.000451694
16 *94:15 0.00115668
17 *94:16 0.000396803
18 *94:10 *56:121 1.263e-05
19 *94:8 *56:122 1.263e-05
20 *94:7 *56:121 5.271e-05
21 *94:5 *56:122 5.271e-05
22 *94:13 *56:123 4.002e-05
23 *94:12 *56:124 4.002e-05
24 *94:12 *56:124 8.86e-06
25 *94:11 *56:125 8.86e-06
26 *94:12 *56:126 8.86e-06
27 *94:11 *56:127 8.86e-06
28 *94:16 *56:127 4.475e-05
29 *94:14 *56:128 4.475e-05
30 *94:12 *56:129 5.617e-05
31 *94:11 *56:130 5.61700046e-05

*RES
1 *94:15 *94 6.12021
2 *94:14 *94:15 3.2
3 *94:14 *94:16 2.02803
4 *94:11 *94:16 0.183887
5 *94:13 *401:Q 3.2
6 *94:11 *94:12 2.18398
7 *94:12 *94:13 1.09199
8 *94:9 *94:12 0.183887
9 *94:10 *94:9 6.4000001
10 *94:8 *94:10 0.367676
11 *94:7 *94:8 0.155957
12 *94:5 *94:7 1.28701
13 *94:5 *94:6 0.155957
14 *94:4 *94:6 0.367676
15 *94:3 *94:4 6.4000001
16 *323:A *94:3 6.4000001
*END

*D_NET *95 0.0194602

*CONN
*P *95 O *C 155.1 145.88 *L 0
*I *585:B I *C 100.65 33.32 *L 0.00391 *D NAND2BX1
*I *454:Q O *C 115.83 36.68 *L 0 *D DFFRHQX1

*CAP
1 *95 0.00181088
2 *585:B 6.33311e-05
3 *454:Q 8.24143e-05
4 *95:3 0.000159306
5 *95:4 0.000928577
6 *95:5 0.000782621
7 *95:6 0.000303794
8 *95:7 0.000303794
9 *95:8 0.00458102
10 *95:9 0.00456641
11 *95:10 0.00115478
12 *95:11 0.00111452
13 *95:12 6.57078e-05
14 *95:13 6.87835e-05
15 *95:14 0.000123656
16 *95:15 0.000117715
17 *95:16 0.00183639
18 *95:17 6.57078e-05
19 *95:8 *123:19 0.00030923
20 *95:9 *123:20 0.000309229997
21 *95:3 *286:13 6.242e-05
22 *95:4 *286:14 6.242e-05
23 *95:4 *286:13 1.263e-05
24 *95:5 *286:14 1.263e-05
25 *95:4 *286:14 2.527e-05
26 *95:5 *286:35 2.527e-05
27 *95:4 *286:35 0.0001227
28 *95:5 *286:33 0.0001227
29 *95:4 *286:33 2.527e-05
30 *95:5 *286:31 2.527e-05
31 *95:4 *286:31 7.5e-05
32 *95:5 *286:29 7.5e-05
33 *95:4 *286:19 2.259e-05
34 *95:5 *286:20 2.259e-05
35 *95:6 *286:38 1.034e-05
36 *95:7 *286:37 1.03399962e-05

*RES
1 *95:16 *95 9.79739
2 *95:8 *95:16 3.19995
3 *95:9 *95:8 25.5839996
4 *95:9 *95:10 0.367739
5 *95:11 *95:10 5.61602
6 *454:Q *95:15 0.447767
7 *95:17 *95:11 0.183869
8 *95:6 *95:15 6.3999
9 *95:3 *95:17 6.3999
10 *95:7 *95:6 1.40381
11 *95:4 *95:3 0.919347
12 *95:4 *95:7 6.3999
13 *95:5 *95:4 4.41247
14 *95:14 *95:5 3.19995
15 *95:13 *95:14 0.156152
16 *95:12 *95:13 0.183869
17 *585:B *95:12 6.3999
*END

*D_NET *96 0.0123408

*CONN
*P *96 I *C 0 15.96 *L 0
*I *585:AN I *C 99.99 31.08 *L 0.0021 *D NAND2BX1

*CAP
1 *96 0.00392288
2 *585:AN 0.000109832
3 *96:2 0.000145077
4 *96:3 0.000145077
5 *96:4 0.000393239
6 *96:5 0.000393239
7 *96:6 0.00394836
8 *96:7 0.000120617
9 *96:8 0.000654174
10 *96:9 0.000331304
11 *96:10 0.000120617
12 *96:11 0.000654174
13 *96:12 0.000419267
14 *96:13 0.000331304
15 *96:14 0.000364381
16 *96:15 0.000145138
17 *96:16 0.000142125

*RES
1 *96:15 *585:AN 0.447631
2 *96:16 *96:15 3.20005
3 *96:2 *96:16 0.18371
4 *96:3 *96:2 0.468007
5 *96:4 *96:3 0.18371
6 *96:5 *96:4 2.02792
7 *96:5 *96:14 0.18371
8 *96:12 *96:14 1.71614
9 *96:13 *96:12 3.20005
10 *96:9 *96:13 1.65468
11 *96:10 *96:9 3.20005
12 *96:11 *96:10 3.20005
13 *96:8 *96:11 4.4126
14 *96:7 *96:8 3.20005
15 *96:6 *96:7 3.20005
16 *96 *96:6 21.1965008
*END

*D_NET *97 0.000845579

*CONN
*I *368:A I *C 34.65 37.24 *L 0.00406 *D CLKBUFX4
*I *583:Q O *C 34.65 33.88 *L 0 *D DFFRHQXL

*CAP
1 *368:A 0.000139841
2 *583:Q 0.000139841
3 *97:2 0.00028295
4 *97:3 0.00028295

*RES
1 *97:3 *368:A 3.20000005
2 *97:2 *97:3 0.935986
3 *583:Q *97:2 3.20000005
*END

*D_NET *98 0.00437514

*CONN
*I *366:A I *C 23.43 37.24 *L 0.002 *D CLKBUFXL
*I *586:Q O *C 35.31 23.8 *L 0 *D DFFRHQX1

*CAP
1 *366:A 3.98579e-05
2 *586:Q 0.000123597
3 *98:2 0.00095752
4 *98:3 0.00103408
5 *98:4 0.000954711
6 *98:5 0.000954711
7 *98:6 0.000151747
8 *98:7 0.000158927

*RES
1 *586:Q *98:7 0.671499
2 *98:5 *98:7 3.20001
3 *98:5 *98:4 4.21203
4 *98:2 *98:4 3.20001
5 *98:3 *98:2 4.92417383
6 *98:6 *366:A 0.223833
7 *98:6 *98:3 0.569763
*END

*D_NET *99 0.00346835

*CONN
*I *516:A1 I *C 65.67 53.48 *L 0.00314 *D AOI21XL
*I *500:B0 I *C 74.25 53.48 *L 0.00441 *D AOI21X1
*I *384:Q O *C 77.55 56.84 *L 0 *D DFFRHQX1

*CAP
1 *516:A1 8.21177e-05
2 *500:B0 6.33014e-05
3 *384:Q 0.000139838
4 *99:3 0.00011745
5 *99:4 0.000267398
6 *99:5 0.000267398
7 *99:6 0.000111352
8 *99:7 0.000120606
9 *99:8 0.00038949
10 *99:9 0.000152539
11 *99:10 0.00038949
12 *99:11 0.000225231
13 *99:12 0.000294909
14 *99:13 0.000347804
15 *99:14 7.10692e-05
16 *99:15 0.000287599
17 *99:16 0.000140748

*RES
1 *99:16 *384:Q 3.2
2 *99:11 *500:B0 6.4000001
3 *99:14 *99:16 0.155957
4 *99:11 *99:12 0.77998
5 *99:15 *99:14 3.2
6 *99:13 *99:12 3.2
7 *99:13 *99:15 0.919238
8 *99:9 *99:13 0.551562
9 *99:9 *99:10 0.155957
10 *99:8 *99:10 1.65469
11 *99:7 *99:8 0.155957
12 *99:6 *99:7 0.551562
13 *99:5 *99:6 3.2
14 *99:4 *99:5 0.77998
15 *99:3 *516:A1 0.447656
16 *99:3 *99:4 3.2
*END

*D_NET *100 0.00307991

*CONN
*I *530:A1 I *C 66.33 63.56 *L 0.00314 *D AOI21XL
*I *501:B0 I *C 71.61 63.56 *L 0.00441 *D AOI21X1
*I *383:Q O *C 78.21 66.92 *L 0 *D DFFRHQX1

*CAP
1 *530:A1 0.000139845
2 *501:B0 6.33053e-05
3 *383:Q 0.000139845
4 *100:3 0.00012693
5 *100:4 0.00012693
6 *100:5 0.00042009
7 *100:6 5.51139e-05
8 *100:7 0.000124799
9 *100:8 0.00077575
10 *100:9 0.000378316
11 *100:10 0.000114383
12 *100:11 0.000210998
13 *100:12 0.000105126
14 *100:13 0.000156251
15 *100:14 0.000142236

*RES
1 *100:14 *383:Q 3.2
2 *100:13 *100:14 0.183887
3 *100:11 *100:13 0.624023
4 *100:12 *100:11 3.2
5 *100:6 *501:B0 6.4000001
6 *100:10 *100:12 0.367676
7 *100:6 *100:7 0.155957
8 *100:9 *100:10 0.155957
9 *100:8 *100:7 3.2
10 *100:8 *100:9 1.28701
11 *100:5 *100:8 1.4709
12 *100:4 *100:5 3.2
13 *100:3 *100:4 0.155957
14 *530:A1 *100:3 3.2
*END

*D_NET *101 0.00273587

*CONN
*I *524:A1 I *C 111.21 47.32 *L 0.00314 *D AOI21XL
*I *502:B0 I *C 105.93 47.32 *L 0.00441 *D AOI21X1
*I *382:Q O *C 116.49 43.96 *L 0 *D DFFRHQX1

*CAP
1 *524:A1 6.22098e-05
2 *502:B0 6.3297e-05
3 *382:Q 0.000139837
4 *101:3 9.75394e-05
5 *101:4 0.000173151
6 *101:5 0.000173151
7 *101:6 0.000126569
8 *101:7 0.000196249
9 *101:8 5.09186e-05
10 *101:9 0.000185339
11 *101:10 0.00034697
12 *101:11 0.000185339
13 *101:12 0.00041665
14 *101:11 *182:3 0.00018925
15 *101:9 *182:4 0.00018925
16 *101:12 *182:5 4.791e-05
17 *101:10 *182:3 4.791e-05
18 *101:12 *182:3 2.216e-05
19 *101:10 *182:4 2.21599954e-05

*RES
1 *101:7 *382:Q 3.2
2 *101:7 *101:6 0.467969
3 *101:12 *101:6 3.2
4 *101:10 *101:12 1.83857
5 *101:3 *524:A1 0.447656
6 *101:5 *101:10 3.2
7 *101:4 *101:3 3.2
8 *101:5 *101:4 0.467969
9 *101:11 *101:4 3.2
10 *101:9 *101:11 1.10312
11 *101:8 *101:9 6.4000001
12 *502:B0 *101:8 6.4000001
*END

*D_NET *102 0.00206863

*CONN
*I *526:A1 I *C 113.19 57.4 *L 0.00314 *D AOI21XL
*I *503:B0 I *C 109.89 57.4 *L 0.00441 *D AOI21X1
*I *381:Q O *C 117.15 54.04 *L 0 *D DFFRHQX1

*CAP
1 *526:A1 3.98619e-05
2 *503:B0 6.33002e-05
3 *381:Q 0.000139842
4 *102:3 0.000159969
5 *102:4 0.00030225
6 *102:5 9.25129e-05
7 *102:6 0.000228088
8 *102:7 0.000287561
9 *102:8 7.51901e-05
10 *102:9 0.000196247
11 *102:10 0.000196247
12 *102:11 0.000287561

*RES
1 *102:9 *381:Q 3.2
2 *102:9 *102:10 0.467969
3 *102:8 *526:A1 0.223828
4 *102:11 *102:10 3.2
5 *102:3 *102:8 3.2
6 *102:7 *102:11 1.28701
7 *102:5 *503:B0 6.4000001
8 *102:4 *102:3 0.467969
9 *102:4 *102:7 3.2
10 *102:6 *102:5 0.467969
11 *102:6 *102:4 0.735449
*END

*D_NET *103 0.00327097

*CONN
*I *528:A1 I *C 121.11 63.56 *L 0.00314 *D AOI21XL
*I *504:B0 I *C 118.47 63.56 *L 0.00441 *D AOI21X1
*I *380:Q O *C 132.99 66.92 *L 0 *D DFFRHQX1

*CAP
1 *528:A1 8.85826e-05
2 *504:B0 6.32998e-05
3 *380:Q 0.000139838
4 *103:3 0.00067409
5 *103:4 0.00067409
6 *103:5 0.000112672
7 *103:6 0.000200463
8 *103:7 0.000131074
9 *103:8 0.000138994
10 *103:9 0.0001784
11 *103:10 0.00027372
12 *103:11 0.000222619
13 *103:3 *123:3 0.00018656
14 *103:4 *123:4 0.000186559994

*RES
1 *103:11 *380:Q 3.2
2 *103:10 *103:11 0.551562
3 *103:9 *103:10 0.77998
4 *103:3 *103:9 3.2
5 *103:4 *103:3 3.12559
6 *103:6 *528:A1 0.447656
7 *103:8 *103:4 3.2
8 *103:7 *103:6 3.2
9 *103:7 *103:8 0.155957
10 *103:5 *103:7 0.367676
11 *504:B0 *103:5 6.4000001
*END

*D_NET *104 0.00149273

*CONN
*I *522:A1 I *C 96.03 87.64 *L 0.00314 *D AOI21XL
*I *505:B0 I *C 91.41 83.72 *L 0.00441 *D AOI21X1
*I *379:Q O *C 95.37 87.08 *L 0 *D DFFRHQX1

*CAP
1 *522:A1 4.17199e-05
2 *505:B0 6.33001e-05
3 *379:Q 0.00010502
4 *104:3 0.0003645
5 *104:4 0.00029482
6 *104:5 0.000180378
7 *104:6 0.000180378
8 *104:7 5.09193e-05
9 *104:5 *167:8 0.00010585
10 *104:6 *167:6 0.000105850002

*RES
1 *379:Q *522:A1 0.223828
2 *104:7 *379:Q 6.4000001
3 *104:5 *104:7 6.4000001
4 *104:6 *104:5 1.10312
5 *104:3 *104:6 3.2
6 *104:4 *104:3 1.24805
7 *505:B0 *104:4 6.4000001
*END

*D_NET *105 0.00261896

*CONN
*I *523:A1 I *C 110.55 77.56 *L 0.00314 *D AOI21XL
*I *506:B0 I *C 110.55 73.64 *L 0.00441 *D AOI21X1
*I *378:Q O *C 117.15 66.92 *L 0 *D DFFRHQX1

*CAP
1 *523:A1 6.22108e-05
2 *506:B0 6.33008e-05
3 *378:Q 0.000139843
4 *105:3 9.95125e-05
5 *105:4 0.000220218
6 *105:5 0.000158461
7 *105:6 0.000115489
8 *105:7 0.000185169
9 *105:8 0.00047942
10 *105:9 0.00047942
11 *105:10 0.000260658
12 *105:11 7.99875e-05
13 *105:12 0.000275282

*RES
1 *105:7 *378:Q 3.2
2 *105:7 *105:6 0.312012
3 *105:8 *105:6 3.2
4 *105:3 *523:A1 0.447656
5 *105:9 *105:8 1.83857
6 *105:11 *105:3 0.189941
7 *105:5 *105:9 3.2
8 *105:12 *105:11 3.2
9 *105:4 *506:B0 6.4000001
10 *105:5 *105:4 0.77998
11 *105:10 *105:12 0.936035
12 *105:10 *105:4 0.367676
*END

*D_NET *106 0.00326836

*CONN
*I *531:A1 I *C 122.43 83.72 *L 0.00314 *D AOI21XL
*I *507:B0 I *C 119.79 83.72 *L 0.00441 *D AOI21X1
*I *377:Q O *C 132.33 77 *L 0 *D DFFRHQX1

*CAP
1 *531:A1 7.97131e-05
2 *507:B0 6.32994e-05
3 *377:Q 0.000139834
4 *106:3 0.000115046
5 *106:4 0.00061257
6 *106:5 0.00061257
7 *106:6 0.000275575
8 *106:7 0.000370888
9 *106:8 0.000172316
10 *106:9 0.000123953
11 *106:10 0.000131515
12 *106:11 0.00018657
13 *106:12 0.000152939
14 *106:4 *169:2 9.545e-05
15 *106:5 *169:3 9.545e-05
16 *106:8 *169:6 2.034e-05
17 *106:9 *169:4 2.0340002e-05

*RES
1 *106:12 *377:Q 3.2
2 *106:7 *106:12 0.551562
3 *106:7 *106:6 1.55996
4 *106:3 *531:A1 0.447656
5 *106:4 *106:6 3.2
6 *106:10 *106:3 6.4000001
7 *106:5 *106:4 2.57402
8 *106:10 *106:11 0.467969
9 *106:11 *106:5 3.2
10 *106:8 *106:11 0.367676
11 *106:9 *106:8 0.467969
12 *507:B0 *106:9 6.4000001
*END

*D_NET *107 0.00200906

*CONN
*I *519:A1 I *C 66.33 77.56 *L 0.00314 *D AOI21XL
*I *509:B0 I *C 70.95 77.56 *L 0.00441 *D AOI21X1
*I *376:Q O *C 75.57 74.2 *L 0 *D DFFRHQX1

*CAP
1 *519:A1 0.000139842
2 *509:B0 6.33022e-05
3 *376:Q 6.33022e-05
4 *107:3 0.000329086
5 *107:4 0.000141494
6 *107:5 0.0004261
7 *107:6 8.80353e-05
8 *107:7 0.000325835
9 *107:8 0.000204646
10 *107:9 0.000227422

*RES
1 *107:9 *376:Q 6.4000001
2 *107:7 *107:9 0.919238
3 *107:6 *509:B0 6.4000001
4 *107:7 *107:8 0.624023
5 *107:4 *519:A1 3.2
6 *107:5 *107:6 0.312012
7 *107:5 *107:8 0.367676
8 *107:3 *107:4 0.312012
9 *107:3 *107:5 1.28701
*END

*D_NET *108 0.00275628

*CONN
*I *517:A1 I *C 57.75 77.56 *L 0.00314 *D AOI21XL
*I *510:B0 I *C 58.41 73.64 *L 0.00441 *D AOI21X1
*I *375:Q O *C 63.69 66.92 *L 0 *D DFFRHQX1

*CAP
1 *517:A1 0.000139845
2 *510:B0 6.3301e-05
3 *375:Q 8.24057e-05
4 *108:3 0.000234194
5 *108:4 0.000179441
6 *108:5 8.27432e-05
7 *108:6 0.000122222
8 *108:7 6.78057e-05
9 *108:8 0.000411126
10 *108:9 0.00048081
11 *108:10 0.000117732
12 *108:11 0.000387333
13 *108:12 0.000387333

*RES
1 *375:Q *108:10 0.447656
2 *108:11 *108:10 3.2
3 *108:11 *108:12 1.404
4 *108:8 *108:12 3.2
5 *108:7 *510:B0 6.4000001
6 *108:9 *108:8 1.83857
7 *108:7 *108:6 0.155957
8 *108:6 *108:9 3.2
9 *108:3 *517:A1 3.2
10 *108:6 *108:5 0.155957
11 *108:4 *108:3 0.77998
12 *108:4 *108:5 0.183887
*END

*D_NET *109 0.0019437

*CONN
*I *520:A1 I *C 113.19 83.72 *L 0.00314 *D AOI21XL
*I *512:B0 I *C 109.23 83.72 *L 0.00441 *D AOI21X1
*I *374:Q O *C 115.83 87.08 *L 0 *D DFFRHQX1

*CAP
1 *520:A1 0.000139841
2 *512:B0 6.32986e-05
3 *374:Q 6.32986e-05
4 *109:3 5.5122e-05
5 *109:4 0.000124802
6 *109:5 0.000177569
7 *109:6 0.000186272
8 *109:7 7.01888e-05
9 *109:8 0.000120602
10 *109:9 0.000163716
11 *109:10 0.00036652
12 *109:11 0.00011563
13 *109:12 0.00029684

*RES
1 *109:12 *374:Q 6.4000001
2 *109:10 *109:12 0.936035
3 *109:8 *520:A1 3.2
4 *109:11 *109:10 3.2
5 *109:9 *109:8 3.2
6 *109:9 *109:11 0.735449
7 *109:7 *109:9 0.183887
8 *109:6 *109:7 0.155957
9 *109:3 *512:B0 6.4000001
10 *109:5 *109:6 0.919238
11 *109:4 *109:3 0.155957
12 *109:4 *109:5 3.2
*END

*D_NET *110 0.00401878

*CONN
*I *521:A1 I *C 106.59 103.88 *L 0.00314 *D AOI21XL
*I *511:B0 I *C 105.27 97.72 *L 0.00441 *D AOI21X1
*I *373:Q O *C 115.83 94.36 *L 0 *D DFFRHQX1

*CAP
1 *521:A1 0.000123361
2 *511:B0 6.32967e-05
3 *373:Q 0.000139841
4 *110:3 0.000235231
5 *110:4 0.00046255
6 *110:5 0.00046255
7 *110:6 0.00011499
8 *110:7 0.000123685
9 *110:8 0.000169803
10 *110:9 0.0001611
11 *110:10 0.000279471
12 *110:11 0.000279471
13 *110:12 0.00014409
14 *110:13 0.000103831
15 *110:14 0.000105843
16 *110:15 0.000105843
17 *110:16 0.0001421
18 *110:17 0.000126918
19 *110:18 0.00018238
20 *110:19 9.55379e-05
21 *110:20 0.000198444
22 *110:21 0.000198444

*RES
1 *110:20 *373:Q 3.2
2 *110:20 *110:21 0.467969
3 *110:6 *110:21 3.2
4 *110:7 *110:6 0.551562
5 *110:7 *110:4 0.155957
6 *110:5 *110:4 1.83857
7 *110:8 *110:5 0.155957
8 *110:3 *521:A1 0.671484
9 *110:9 *110:8 0.551562
10 *110:16 *110:3 3.2
11 *110:17 *110:9 3.2
12 *110:19 *511:B0 6.4000001
13 *110:15 *110:16 0.183887
14 *110:17 *110:18 0.155957
15 *110:18 *110:19 0.312012
16 *110:14 *110:15 0.467969
17 *110:12 *110:18 0.367676
18 *110:11 *110:14 0.183887
19 *110:12 *110:13 0.312012
20 *110:10 *110:11 1.24805
21 *110:10 *110:13 0.183887
*END

*D_NET *111 0.0022299

*CONN
*I *529:A1 I *C 76.23 97.72 *L 0.00314 *D AOI21XL
*I *513:B0 I *C 81.51 97.72 *L 0.00441 *D AOI21X1
*I *372:Q O *C 83.49 94.36 *L 0 *D DFFRHQX1

*CAP
1 *529:A1 0.000139841
2 *513:B0 6.33022e-05
3 *372:Q 0.000139841
4 *111:3 0.000194859
5 *111:4 0.000290579
6 *111:5 0.000343818398
7 *111:6 0.000343818398
8 *111:7 0.000120603
9 *111:8 0.000223016
10 *111:5 *131:6 0.00018511
11 *111:6 *131:7 0.000185110005

*RES
1 *111:8 *372:Q 3.2
2 *111:4 *111:8 0.551562
3 *111:3 *513:B0 6.4000001
4 *111:4 *111:3 0.936035
5 *111:5 *111:3 3.2
6 *111:6 *111:5 1.4709
7 *111:7 *111:6 3.2
8 *529:A1 *111:7 3.2
*END

*D_NET *112 0.00239101

*CONN
*I *527:A1 I *C 73.59 83.72 *L 0.00314 *D AOI21XL
*I *514:B0 I *C 78.21 83.72 *L 0.00441 *D AOI21X1
*I *371:Q O *C 81.51 87.08 *L 0 *D DFFRHQX1

*CAP
1 *527:A1 0.000139842
2 *514:B0 6.33028e-05
3 *371:Q 6.33028e-05
4 *112:3 0.000376362
5 *112:4 0.000376362
6 *112:5 0.00039936
7 *112:6 0.000292541
8 *112:7 0.000120597
9 *112:8 0.000227422
10 *112:3 *176:18 9.469e-05
11 *112:4 *176:15 9.469e-05
12 *112:3 *176:15 6.262e-05
13 *112:4 *176:14 6.262e-05
14 *112:5 *176:7 8.65e-06
15 *112:6 *176:8 8.64999628e-06

*RES
1 *112:8 *371:Q 6.4000001
2 *112:5 *112:8 0.919238
3 *112:6 *514:B0 6.4000001
4 *112:6 *112:5 0.936035
5 *112:3 *112:6 3.2
6 *112:4 *112:3 1.28701
7 *112:7 *112:4 3.2
8 *527:A1 *112:7 3.2
*END

*D_NET *113 0.00299713

*CONN
*I *525:A1 I *C 107.91 107.8 *L 0.00314 *D AOI21XL
*I *515:B0 I *C 103.95 107.8 *L 0.00441 *D AOI21X1
*I *370:Q O *C 114.51 114.52 *L 0 *D DFFRHQX1

*CAP
1 *525:A1 3.98556e-05
2 *515:B0 6.33005e-05
3 *370:Q 0.000139839
4 *113:3 0.000280508
5 *113:4 0.000346412
6 *113:5 0.000212658
7 *113:6 0.000212658
8 *113:7 0.00051855
9 *113:8 0.00051855
10 *113:9 0.000180098
11 *113:10 8.47752e-05
12 *113:11 9.02428e-05
13 *113:12 6.57218e-05
14 *113:13 0.000129497
15 *113:14 0.000114447

*RES
1 *113:5 *370:Q 3.2
2 *113:14 *525:A1 0.223828
3 *113:6 *113:5 0.467969
4 *113:13 *113:14 0.379785
5 *113:7 *113:6 3.2
6 *113:11 *113:13 0.223828
7 *113:8 *113:7 2.39014
8 *113:12 *113:11 6.4000001
9 *113:3 *113:8 3.2
10 *113:10 *515:B0 6.4000001
11 *113:4 *113:12 0.183887
12 *113:4 *113:3 0.936035
13 *113:9 *113:10 0.312012
14 *113:9 *113:4 0.551562
*END

*D_NET *114 0.00334204

*CONN
*I *518:A1 I *C 91.41 107.8 *L 0.00314 *D AOI21XL
*I *508:B0 I *C 95.37 103.88 *L 0.00441 *D AOI21X1
*I *369:Q O *C 99.99 97.16 *L 0 *D DFFRHQX1

*CAP
1 *518:A1 0.00013984
2 *508:B0 6.32988e-05
3 *369:Q 0.00013984
4 *114:3 0.000158713
5 *114:4 0.000158713
6 *114:5 0.000307188
7 *114:6 0.000237505
8 *114:7 0.00053637
9 *114:8 0.000481624
10 *114:9 0.000274278
11 *114:10 0.000516498
12 *114:11 0.000255618
13 *114:12 7.25472e-05

*RES
1 *114:12 *369:Q 3.2
2 *114:8 *114:12 0.183887
3 *114:6 *508:B0 6.4000001
4 *114:8 *114:7 1.87197
5 *114:6 *114:5 0.77998
6 *114:11 *114:7 3.2
7 *114:10 *114:5 3.2
8 *114:10 *114:11 1.10312
9 *114:3 *518:A1 3.2
10 *114:9 *114:10 1.10312
11 *114:4 *114:3 0.312012
12 *114:4 *114:9 3.2
*END

*D_NET *115 0.00288012

*CONN
*I *582:S0 I *C 84.81 32.76 *L 0.00672 *D MXI2X1
*I *462:A0N I *C 93.39 33.32 *L 0.00185 *D OAI2BB1X1
*I *433:QN O *C 94.71 23.8 *L 0 *D JKFFRXL

*CAP
1 *582:S0 6.3302e-05
2 *462:A0N 0.000139836
3 *433:QN 6.3302e-05
4 *115:3 0.000121071
5 *115:4 0.000184052
6 *115:5 0.000480792
7 *115:6 0.000480792
8 *115:7 0.000489746
9 *115:8 0.00056751
10 *115:9 0.000183749
11 *115:10 0.000105985

*RES
1 *115:10 *433:QN 6.4000001
2 *115:7 *115:10 0.367676
3 *115:9 *462:A0N 3.2
4 *115:7 *115:8 2.02803
5 *115:8 *115:9 0.624023
6 *115:5 *115:8 3.2
7 *115:3 *582:S0 6.4000001
8 *115:6 *115:5 2.39014
9 *115:4 *115:3 0.467969
10 *115:4 *115:6 3.2
*END

*D_NET *116 0.0043584

*CONN
*I *604:A I *C 83.49 37.24 *L 0.00377 *D MXI2X1
*I *603:A I *C 82.17 33.32 *L 0.00346 *D INVX1
*I *582:A I *C 88.11 33.32 *L 0.00377 *D MXI2X1
*I *430:Q O *C 100.65 26.6 *L 0 *D DFFRHQX1

*CAP
1 *604:A 0.000139835
2 *603:A 0.000139835
3 *582:A 0.000139835
4 *430:Q 0.000139835
5 *116:4 0.000128784
6 *116:5 0.000260217
7 *116:6 0.000144093
8 *116:7 8.90311e-05
9 *116:8 0.00067562
10 *116:9 0.000605939
11 *116:10 0.000266392
12 *116:11 0.000266392
13 *116:12 0.000162897
14 *116:13 0.000162897
15 *116:14 0.000142103
16 *116:15 0.0002813
17 *116:16 0.0002813
18 *116:17 7.24228e-05
19 *116:10 *218:7 3.678e-05
20 *116:11 *218:8 3.678e-05
21 *116:8 *218:3 8.271e-05
22 *116:9 *218:4 8.271e-05
23 *116:4 *218:9 1.034e-05
24 *116:5 *218:10 1.03400009e-05

*RES
1 *116:17 *430:Q 3.20000005
2 *116:15 *116:17 0.183838
3 *116:15 *116:16 1.09199
4 *116:14 *116:16 0.183838
5 *116:8 *116:14 3.20000005
6 *116:9 *116:8 3.12559
7 *116:12 *582:A 3.20000005
8 *116:12 *116:9 3.20000005
9 *116:12 *116:13 0.312012
10 *116:10 *116:13 3.20000005
11 *116:4 *604:A 3.20000005
12 *116:11 *116:10 1.28701
13 *116:5 *116:4 0.77998
14 *116:5 *116:11 3.20000005
15 *116:6 *116:5 0.367725
16 *116:7 *116:6 0.312012
17 *603:A *116:7 3.20000005
*END

*D_NET *117 0.00489702

*CONN
*I *604:S0 I *C 80.19 37.8 *L 0.00672 *D MXI2X1
*I *584:B I *C 76.23 42.28 *L 0.00627 *D XOR2X1
*I *450:B I *C 76.89 27.16 *L 0.00375 *D NAND2X1
*I *446:A1 I *C 72.93 27.16 *L 0.00324 *D OAI21XL
*I *439:Q O *C 76.23 23.8 *L 0 *D DFFRHQX1

*CAP
1 *604:S0 0.000139837
2 *584:B 6.32996e-05
3 *450:B 6.32996e-05
4 *446:A1 0.000139837
5 *439:Q 0.000139837
6 *117:5 0.000367908
7 *117:6 0.000444898
8 *117:7 0.000102441
9 *117:8 6.18215e-05
10 *117:9 0.000160485
11 *117:10 0.000411549
12 *117:11 0.000305384
13 *117:12 0.00034169
14 *117:13 0.000104271
15 *117:14 0.000146239
16 *117:15 0.000133555
17 *117:16 0.000177982
18 *117:17 0.000108308
19 *117:18 0.00060542
20 *117:19 0.000120604
21 *117:20 0.000535737
22 *117:21 0.00022262

*RES
1 *117:14 *584:B 6.4000001
2 *117:21 *604:S0 3.2
3 *117:14 *117:5 0.551562
4 *117:6 *117:21 0.551562
5 *117:6 *117:5 1.24805
6 *117:7 *117:6 0.467969
7 *117:19 *117:7 3.2
8 *117:20 *117:19 3.2
9 *117:18 *117:20 2.65195
10 *117:17 *117:18 3.2
11 *117:16 *117:17 0.367676
12 *117:8 *450:B 6.4000001
13 *117:9 *117:16 3.2
14 *117:9 *117:8 0.155957
15 *117:15 *117:9 0.467969
16 *117:13 *117:15 0.183887
17 *117:11 *446:A1 3.2
18 *117:12 *117:13 0.312012
19 *117:12 *439:Q 3.2
20 *117:10 *117:11 0.936035
21 *117:10 *117:12 0.919238
*END

*D_NET *118 0.00304236

*CONN
*I *584:A I *C 76.23 43.4 *L 0.00553 *D XOR2X1
*I *458:B I *C 79.53 31.64 *L 0.00323 *D AND2X2
*I *451:A1N I *C 75.57 32.76 *L 0.00223 *D AOI2BB1XL
*I *447:Q O *C 72.27 33.88 *L 0 *D DFFRHQX1

*CAP
1 *584:A 0.000139839
2 *458:B 0.000139839
3 *451:A1N 0.000195268
4 *447:Q 0.000122356
5 *118:4 0.000120706
6 *118:5 0.000159661
7 *118:6 0.000124191
8 *118:7 0.0007513
9 *118:8 0.000451273
10 *118:9 0.000142098
11 *118:10 0.000274703
12 *118:11 0.000421122

*RES
1 *118:10 *458:B 3.20000005
2 *118:9 *584:A 3.20000005
3 *118:10 *118:11 0.935986
4 *118:8 *118:9 0.183838
5 *118:7 *118:11 1.10312
6 *118:7 *118:8 2.33999
7 *118:6 *118:7 0.624023
8 *451:A1N *118:6 3.20000005
9 *118:4 *451:A1N 0.447656
10 *118:4 *118:5 0.189893
11 *447:Q *118:5 0.671484
*END

*D_NET *119 0.00913419

*CONN
*I *561:Q O *C 51.81 104.44 *L 0 *D DFFRHQX1
*I *540:A I *C 62.37 53.48 *L 0.00346 *D INVX1
*I *500:A1 I *C 72.93 53.48 *L 0.00443 *D AOI21X1

*CAP
1 *561:Q 0.000133312
2 *540:A 0.000241051
3 *500:A1 0.000139871
4 *119:3 0.000923492
5 *119:4 0.000863064
6 *119:5 5.72516e-05
7 *119:6 0.000126919
8 *119:7 0.000141355
9 *119:8 0.000211064
10 *119:9 0.000168661
11 *119:10 0.00270316
12 *119:11 0.00263349
13 *119:12 0.000120567
14 *119:13 0.0002764
15 *119:14 0.000120567
16 *119:15 0.000167176
17 *119:16 0.000106749

*RES
1 *119:6 *500:A1 3.19999
2 *119:6 *119:5 0.15594
3 *119:3 *119:5 3.19999
4 *119:13 *540:A 1.34299
5 *119:4 *119:3 3.67713
6 *119:14 *119:13 3.19999
7 *119:16 *119:4 0.15594
8 *119:15 *119:14 3.19999
9 *119:15 *119:16 0.367796
10 *119:11 *119:15 3.19999
11 *119:11 *119:10 13.5719995
12 *119:7 *119:10 3.19999
13 *119:8 *119:7 0.919283
14 *119:12 *119:8 3.19999
15 *119:9 *119:12 3.19999
16 *561:Q *119:9 1.11913
*END

*D_NET *120 0.00741918

*CONN
*I *555:Q O *C 51.81 97.16 *L 0 *D DFFRHQX1
*I *538:A I *C 63.69 63.56 *L 0.00346 *D INVX1
*I *501:A1 I *C 70.29 63.56 *L 0.00443 *D AOI21X1

*CAP
1 *555:Q 6.32994e-05
2 *538:A 0.000139842
3 *501:A1 7.97421e-05
4 *120:3 0.000999358
5 *120:4 0.000999358
6 *120:5 0.000476979
7 *120:6 0.00103812
8 *120:7 0.000159072
9 *120:8 0.000213834
10 *120:9 0.000362673
11 *120:10 0.000377611
12 *120:11 0.000183182
13 *120:12 0.000574542
14 *120:13 0.000345866
15 *120:14 0.000345866
16 *120:15 5.0912e-05
17 *120:16 0.000122211
18 *120:17 0.000130306
19 *120:18 0.000112532
20 *120:19 0.000183182
21 *120:20 0.000104422
22 *120:21 0.000120611
23 *120:22 0.000115067
24 *120:23 0.000120611

*RES
1 *120:22 *501:A1 0.447656
2 *120:23 *120:22 3.2
3 *120:21 *538:A 3.2
4 *120:5 *120:23 3.2
5 *120:6 *120:21 3.2
6 *120:6 *120:5 1.4709
7 *120:12 *120:6 2.75781
8 *120:8 *120:12 3.2
9 *120:8 *120:7 0.624023
10 *120:7 *120:10 0.183887
11 *120:10 *120:9 1.71602
12 *120:15 *120:9 6.4000001
13 *120:16 *120:15 6.4000001
14 *120:16 *120:17 0.467969
15 *120:13 *120:17 0.183887
16 *120:13 *120:14 1.55996
17 *120:14 *120:18 0.183887
18 *120:18 *120:20 0.467969
19 *120:19 *120:20 6.4000001
20 *120:11 *120:19 0.735449
21 *120:3 *555:Q 6.4000001
22 *120:4 *120:11 6.4000001
23 *120:4 *120:3 4.52402
*END

*D_NET *121 0.0131184

*CONN
*I *558:Q O *C 68.31 107.24 *L 0 *D DFFRHQX1
*I *541:A I *C 107.91 47.32 *L 0.00346 *D INVX1
*I *502:A1 I *C 104.61 47.32 *L 0.00443 *D AOI21X1

*CAP
1 *558:Q 6.33e-05
2 *541:A 3.98459e-05
3 *502:A1 0.000139839
4 *121:3 0.000182108
5 *121:4 0.000207751
6 *121:5 0.000101843
7 *121:6 0.000189066
8 *121:7 0.000361063
9 *121:8 0.000369741
10 *121:9 0.00108921
11 *121:10 0.00122584
12 *121:11 0.000448469
13 *121:12 0.000448469
14 *121:13 0.000534128
15 *121:14 0.000388765
16 *121:15 0.00170785
17 *121:16 0.00165299
18 *121:17 0.000423399
19 *121:18 0.000423399
20 *121:19 5.09215e-05
21 *121:20 0.000120606
22 *121:21 0.000954739
23 *121:22 0.000969567
24 *121:23 7.51834e-05
25 *121:24 0.000142106
26 *121:17 *122:11 6.42e-05
27 *121:18 *122:12 6.42e-05
28 *121:15 *122:11 0.00028746
29 *121:16 *122:12 0.00028746
30 *121:22 *122:11 5.245e-05
31 *121:21 *122:12 5.24500208e-05

*RES
1 *121:23 *541:A 0.223757
2 *121:3 *502:A1 3.19998
3 *121:24 *121:23 3.19998
4 *121:4 *121:3 0.31204
5 *121:5 *121:24 0.183827
6 *121:4 *121:6 0.551625
7 *121:6 *121:5 0.31204
8 *121:20 *121:6 3.19998
9 *121:21 *121:20 3.19998
10 *121:21 *121:22 4.83597
11 *121:22 *121:18 0.183827
12 *121:18 *121:17 2.18399
13 *121:16 *121:17 0.183827
14 *121:16 *121:15 9.51599979
15 *121:7 *121:15 3.19998
16 *121:8 *121:7 1.83856
17 *121:11 *121:8 0.155948
18 *121:12 *121:11 2.02238
19 *121:12 *121:9 0.155948
20 *121:10 *121:9 5.14801
21 *121:10 *121:13 0.780029
22 *121:14 *121:13 1.65473
23 *121:19 *121:14 6.39995
24 *558:Q *121:19 6.39995
*END

*D_NET *122 0.0124032

*CONN
*I *559:Q O *C 68.31 114.52 *L 0 *D DFFRHQX1
*I *542:A I *C 111.21 57.4 *L 0.00346 *D INVX1
*I *503:A1 I *C 108.57 57.4 *L 0.00443 *D AOI21X1

*CAP
1 *559:Q 0.00013984
2 *542:A 0.00013984
3 *503:A1 0.00013984
4 *122:3 0.000128054
5 *122:4 0.000128054
6 *122:5 6.04826e-05
7 *122:6 0.000130193
8 *122:7 0.000146341
9 *122:8 0.00019445
10 *122:9 0.00235417
11 *122:10 0.00235417
12 *122:11 0.00274877
13 *122:12 0.00274877
14 *122:13 0.000120588
15 *122:14 6.14892e-05
16 *122:11 *121:17 6.42e-05
17 *122:12 *121:18 6.42e-05
18 *122:11 *121:15 0.00028746
19 *122:12 *121:16 0.00028746
20 *122:11 *121:22 5.245e-05
21 *122:12 *121:21 5.24500208e-05

*RES
1 *122:3 *503:A1 3.20009
2 *122:5 *542:A 3.20009
3 *122:4 *122:3 0.156062
4 *122:6 *122:5 0.156062
5 *122:14 *122:4 3.20009
6 *122:7 *122:6 3.20009
7 *122:14 *122:8 0.183822
8 *122:8 *122:7 0.551465
9 *122:12 *122:8 3.20009
10 *122:12 *122:11 15.2880001
11 *122:9 *122:11 3.20009
12 *122:10 *122:9 11.399
13 *122:13 *122:10 3.20009
14 *559:Q *122:13 3.20009
*END

*D_NET *123 0.012342

*CONN
*I *562:Q O *C 68.31 104.44 *L 0 *D DFFRHQX1
*I *546:A I *C 123.75 63.56 *L 0.00346 *D INVX1
*I *504:A1 I *C 117.15 63.56 *L 0.00443 *D AOI21X1

*CAP
1 *562:Q 0.00013985
2 *546:A 6.33134e-05
3 *504:A1 0.00013985
4 *123:3 0.000273075
5 *123:4 0.000342794
6 *123:5 0.000385351
7 *123:6 0.000385351
8 *123:7 0.000319811
9 *123:8 0.000311096
10 *123:9 0.00067187
11 *123:10 0.00067187
12 *123:11 0.000495566
13 *123:12 0.000495566
14 *123:13 0.000385874
15 *123:14 0.000385874
16 *123:15 0.00035654
17 *123:16 0.000288223
18 *123:17 0.000354588
19 *123:18 0.000354588
20 *123:19 0.00180167
21 *123:20 0.00173201
22 *123:21 0.000120606
23 *123:22 0.000120606
24 *123:23 0.000134627
25 *123:24 5.09147e-05
26 *123:19 *95:8 0.00030923
27 *123:20 *95:9 0.000309229997
28 *123:3 *103:3 0.00018656
29 *123:4 *103:4 0.000186559994
30 *123:3 *174:11 0.00012676
31 *123:4 *174:8 0.00012676
32 *123:3 *174:8 0.00015773
33 *123:4 *174:6 0.000157729997

*RES
1 *123:24 *546:A 6.40001
2 *123:22 *504:A1 3.2
3 *123:3 *123:24 6.40001
4 *123:4 *123:22 3.2
5 *123:4 *123:3 1.83859
6 *123:20 *123:4 3.2
7 *123:20 *123:19 10.1400003
8 *123:23 *123:19 3.2
9 *123:23 *123:15 0.46804
10 *123:16 *123:15 1.83859
11 *123:17 *123:16 0.155962
12 *123:18 *123:17 1.65477
13 *123:18 *123:5 0.155962
14 *123:6 *123:5 1.65477
15 *123:9 *123:6 0.155962
16 *123:10 *123:9 3.12558
17 *123:10 *123:13 0.155962
18 *123:14 *123:13 1.65477
19 *123:14 *123:11 0.155962
20 *123:12 *123:11 2.20621
21 *123:7 *123:12 0.155962
22 *123:8 *123:7 1.47081
23 *123:21 *123:8 3.2
24 *562:Q *123:21 3.2
*END

*D_NET *124 0.00541436

*CONN
*I *553:Q O *C 68.31 97.16 *L 0 *D DFFRHQX1
*I *532:A I *C 85.47 93.8 *L 0.00346 *D INVX1
*I *505:A1 I *C 90.09 83.72 *L 0.00443 *D AOI21X1

*CAP
1 *553:Q 6.32926e-05
2 *532:A 3.98559e-05
3 *505:A1 3.98559e-05
4 *124:3 0.000247033
5 *124:4 0.000247033
6 *124:5 9.56621e-05
7 *124:6 8.36994e-05
8 *124:7 0.000355009
9 *124:8 0.000429932
10 *124:9 0.000241384
11 *124:10 0.000241384
12 *124:11 0.000252271
13 *124:12 0.001281
14 *124:13 0.00104214
15 *124:14 0.000124806
16 *124:15 5.5122e-05
17 *124:16 7.51966e-05
18 *124:17 7.51966e-05
19 *124:11 *187:6 7.053e-05
20 *124:12 *187:7 7.053e-05
21 *124:12 *187:6 1.188e-05
22 *124:13 *187:7 1.188e-05
23 *124:3 *187:11 7.048e-05
24 *124:4 *187:10 7.048e-05
25 *124:5 *187:11 2.034e-05
26 *124:6 *187:10 2.034e-05
27 *124:9 *187:9 3.903e-05
28 *124:10 *187:8 3.90300122e-05

*RES
1 *124:17 *505:A1 0.223828
2 *124:8 *124:17 3.2
3 *124:8 *124:7 1.87197
4 *124:7 *124:4 0.0918945
5 *124:4 *124:3 1.24805
6 *124:16 *532:A 0.223828
7 *124:6 *124:3 0.0918945
8 *124:10 *124:16 3.2
9 *124:6 *124:5 0.467969
10 *124:10 *124:9 0.77998
11 *124:11 *124:5 6.4000001
12 *124:12 *124:9 3.2
13 *124:12 *124:11 1.28701
14 *124:13 *124:12 4.59639
15 *124:15 *553:Q 6.4000001
16 *124:14 *124:13 3.2
17 *124:14 *124:15 0.155957
*END

*D_NET *125 0.00811291

*CONN
*I *551:Q O *C 51.81 87.08 *L 0 *D DFFRHQX1
*I *534:A I *C 107.91 77.56 *L 0.00346 *D INVX1
*I *506:A1 I *C 109.23 73.64 *L 0.00443 *D AOI21X1

*CAP
1 *551:Q 4.12095e-05
2 *534:A 0.00013983
3 *506:A1 8.06636e-05
4 *125:3 0.000374943
5 *125:4 0.00021871
6 *125:5 0.000176378
7 *125:6 0.000120521
8 *125:7 0.000180954
9 *125:8 0.000366569
10 *125:9 0.000366569
11 *125:10 0.000149327
12 *125:11 0.000158593
13 *125:12 0.000469017
14 *125:13 0.000469017
15 *125:14 0.000153068
16 *125:15 0.000120607
17 *125:16 0.00188594
18 *125:17 0.000117959
19 *125:18 8.00017e-05
20 *125:19 0.000120607
21 *125:20 0.000120607
22 *125:21 0.00188594
23 *125:8 *193:10 0.00015794
24 *125:9 *193:11 0.000157940002

*RES
1 *125:17 *506:A1 0.447739
2 *125:17 *125:18 0.189897
3 *125:4 *125:18 6.39998
4 *125:3 *534:A 3.19999
5 *125:4 *125:3 0.935936
6 *125:3 *125:5 0.779914
7 *125:19 *125:5 3.19999
8 *125:20 *125:19 3.19999
9 *125:21 *125:20 3.19999
10 *125:16 *125:21 12.6861429
11 *125:13 *125:16 3.19999
12 *125:13 *125:12 1.87207
13 *125:10 *125:12 3.19999
14 *125:11 *125:10 0.551496
15 *125:8 *125:11 0.156022
16 *125:9 *125:8 1.83858
17 *125:9 *125:6 0.156022
18 *125:7 *125:6 0.367793
19 *125:15 *125:7 3.19999
20 *125:14 *125:15 3.19999
21 *551:Q *125:14 0.223773
*END

*D_NET *126 0.0107411

*CONN
*I *549:Q O *C 51.15 84.28 *L 0 *D DFFRHQX1
*I *536:A I *C 116.49 83.72 *L 0.00346 *D INVX1
*I *507:A1 I *C 118.47 83.72 *L 0.00443 *D AOI21X1

*CAP
1 *549:Q 0.000126001
2 *536:A 0.000139838
3 *507:A1 3.98655e-05
4 *126:3 0.000514883
5 *126:4 0.000544949
6 *126:5 7.01376e-05
7 *126:6 0.000113424
8 *126:7 0.000128058
9 *126:8 0.000447908
10 *126:9 0.000447908
11 *126:10 0.00167628
12 *126:11 0.00168554
13 *126:12 0.000161314
14 *126:13 0.000105682
15 *126:14 0.000114941
16 *126:15 0.000721283
17 *126:16 0.000721283
18 *126:17 7.52044e-05
19 *126:10 *56:177 0.00028642
20 *126:11 *56:179 0.00028642
21 *126:10 *56:172 8.396e-05
22 *126:11 *56:173 8.396e-05
23 *126:10 *56:173 0.00022725
24 *126:11 *56:174 0.00022725
25 *126:16 *56:174 5.1e-05
26 *126:15 *56:180 5.1e-05
27 *126:10 *56:174 0.00020313
28 *126:11 *56:180 0.00020313
29 *126:16 *56:180 0.00010722
30 *126:15 *56:181 0.00010722
31 *126:14 *56:180 3.79e-05
32 *126:13 *56:181 3.79e-05
33 *126:3 *56:182 1.513e-05
34 *126:4 *56:183 1.51300136e-05
35 *126:10 *187:4 0.0001537
36 *126:11 *187:5 0.000153699994
37 *126:10 *293:7 0.00028756
38 *126:11 *293:8 0.000287560011

*RES
1 *126:17 *507:A1 0.223874
2 *126:7 *126:17 3.20002
3 *126:5 *536:A 3.20002
4 *126:7 *126:6 0.155926
5 *126:5 *126:4 0.155926
6 *126:4 *126:6 0.367625
7 *126:4 *126:3 1.71597
8 *126:10 *126:3 3.20002
9 *126:11 *126:10 12.8699999
10 *126:11 *126:16 0.155926
11 *126:15 *126:16 4.22866
12 *126:14 *126:15 0.155926
13 *126:13 *126:14 0.551633
14 *126:8 *126:13 3.20002
15 *126:9 *126:8 1.71597
16 *126:12 *126:9 3.20002
17 *549:Q *126:12 0.671425
*END

*D_NET *127 0.00318492

*CONN
*I *563:Q O *C 51.15 77 *L 0 *D DFFRHQX1
*I *547:A I *C 63.69 77.56 *L 0.00346 *D INVX1
*I *509:A1 I *C 69.63 77.56 *L 0.00443 *D AOI21X1

*CAP
1 *563:Q 0.000205993
2 *547:A 0.000139838
3 *509:A1 0.000139838
4 *127:3 0.000128067
5 *127:4 6.50736e-05
6 *127:5 0.000281298
7 *127:6 0.00029056
8 *127:7 0.000241333
9 *127:8 5.09247e-05
10 *127:9 5.94402e-05
11 *127:10 0.000605827
12 *127:11 0.00013814
13 *127:12 0.000120596
14 *127:13 0.000611236523
15 *127:14 0.000106774

*RES
1 *127:3 *509:A1 3.2
2 *127:4 *127:3 0.155957
3 *127:5 *127:4 6.4000001
4 *127:6 *127:5 1.28701
5 *127:12 *547:A 3.2
6 *127:6 *127:14 0.155957
7 *127:13 *127:12 3.2
8 *127:13 *127:14 0.367676
9 *127:10 *127:13 2.39014
10 *127:10 *127:11 0.467969
11 *127:9 *127:11 0.183887
12 *127:8 *127:9 6.4000001
13 *127:7 *127:8 6.4000001
14 *563:Q *127:7 1.11914
*END

*D_NET *128 0.00194213

*CONN
*I *556:Q O *C 51.15 74.2 *L 0 *D DFFRHQX1
*I *543:A I *C 54.45 77.56 *L 0.00346 *D INVX1
*I *510:A1 I *C 57.09 73.64 *L 0.00443 *D AOI21X1

*CAP
1 *556:Q 0.00051194
2 *543:A 6.3306e-05
3 *510:A1 3.98631e-05
4 *128:3 0.000204229
5 *128:4 0.000217665
6 *128:5 0.000232601
7 *128:6 6.58527e-05
8 *128:7 0.00045493
9 *128:8 0.00015175

*RES
1 *128:6 *543:A 6.4000001
2 *128:5 *128:6 0.183887
3 *128:4 *128:5 0.896973
4 *128:3 *128:4 6.4000001
5 *128:8 *510:A1 0.223828
6 *556:Q *128:3 0.895312
7 *128:7 *128:8 0.569727
8 *556:Q *128:7 1.79062
*END

*D_NET *129 0.0113562

*CONN
*I *550:Q O *C 49.83 66.92 *L 0 *D DFFRHQX1
*I *533:A I *C 111.21 83.72 *L 0.00346 *D INVX1
*I *512:A1 I *C 107.91 83.72 *L 0.00443 *D AOI21X1

*CAP
1 *550:Q 0.000139838
2 *533:A 0.000139838
3 *512:A1 0.000139838
4 *129:3 0.000433936
5 *129:4 0.000393688
6 *129:5 0.000881294
7 *129:6 0.000881294
8 *129:7 0.00043838
9 *129:8 0.00043838
10 *129:9 0.000332527
11 *129:10 0.000332527
12 *129:11 0.000220471
13 *129:12 0.000650935
14 *129:13 0.000514145
15 *129:14 0.000514145
16 *129:15 0.000156308
17 *129:16 0.000101243
18 *129:17 0.000174809
19 *129:18 7.24289e-05
20 *129:19 0.000114391
21 *129:20 0.000285045
22 *129:21 0.00099385
23 *129:22 0.000285045
24 *129:23 0.000976486
25 *129:24 0.000435756
26 *129:25 0.000124809
27 *129:26 0.000124809
28 *129:27 5.51254e-05
29 *129:28 0.000124809
30 *129:7 *294:23 0.00017282
31 *129:8 *294:18 0.00017282
32 *129:9 *294:18 3.131e-05
33 *129:10 *294:15 3.131e-05
34 *129:5 *294:14 3.413e-05
35 *129:6 *294:7 3.413e-05
36 *129:5 *294:7 8.809e-05
37 *129:6 *294:8 8.809e-05
38 *129:9 *294:9 0.0001137
39 *129:10 *294:10 0.000113700007

*RES
1 *129:27 *533:A 3.20002
2 *129:25 *512:A1 3.20002
3 *129:27 *129:28 0.155982
4 *129:25 *129:26 0.155982
5 *129:11 *129:28 3.20002
6 *129:12 *129:26 3.20002
7 *129:12 *129:11 0.919272
8 *129:24 *129:12 2.20627
9 *129:24 *129:7 0.0779912
10 *129:8 *129:7 2.20627
11 *129:9 *129:8 0.0779912
12 *129:10 *129:9 1.83854
13 *129:10 *129:5 0.0779912
14 *129:6 *129:5 3.67716
15 *129:23 *129:6 0.0779912
16 *129:21 *129:23 4.59642839
17 *129:21 *129:22 0.155982
18 *129:20 *129:22 1.47089
19 *129:19 *129:20 0.155982
20 *129:17 *129:19 0.367723
21 *129:16 *129:17 3.20002
22 *129:18 *550:Q 3.20002
23 *129:15 *129:16 0.623999
24 *129:4 *129:18 0.183826
25 *129:14 *129:15 0.367723
26 *129:4 *129:3 1.248
27 *129:13 *129:14 2.18403
28 *129:13 *129:3 0.367723
*END

*D_NET *130 0.0107364

*CONN
*I *548:Q O *C 61.71 64.12 *L 0 *D DFFRHQX1
*I *535:A I *C 103.29 103.88 *L 0.00346 *D INVX1
*I *511:A1 I *C 103.95 97.72 *L 0.00443 *D AOI21X1

*CAP
1 *548:Q 0.000139838
2 *535:A 7.97208e-05
3 *511:A1 0.000171171
4 *130:3 0.000731275
5 *130:4 0.000786034
6 *130:5 0.00147849
7 *130:6 0.00142374
8 *130:7 0.00214119
9 *130:8 0.00214119
10 *130:9 0.000187507
11 *130:10 0.00013265
12 *130:11 0.00020515
13 *130:12 0.000325843
14 *130:13 0.000186364
15 *130:14 0.000206523
16 *130:15 0.000115072
17 *130:7 *173:4 0.00014229
18 *130:8 *173:5 0.000142290005

*RES
1 *130:15 *535:A 0.447734
2 *130:9 *130:15 3.20001
3 *130:14 *511:A1 0.895302
4 *130:10 *130:9 0.467927
5 *130:13 *130:14 3.20001
6 *130:11 *130:10 0.183894
7 *130:13 *130:12 0.467927
8 *130:12 *130:11 0.779934
9 *130:7 *130:12 3.20001
10 *130:8 *130:7 10.8475714
11 *130:5 *130:8 3.20001
12 *130:6 *130:5 6.39605
13 *130:3 *130:6 0.183894
14 *130:4 *130:3 3.43207
15 *548:Q *130:4 3.20001
*END

*D_NET *131 0.00805688

*CONN
*I *552:Q O *C 61.71 56.84 *L 0 *D DFFRHQX1
*I *545:A I *C 72.93 97.72 *L 0.00346 *D INVX1
*I *513:A1 I *C 80.19 97.72 *L 0.00443 *D AOI21X1

*CAP
1 *552:Q 0.000139852
2 *545:A 3.98598e-05
3 *513:A1 6.33037e-05
4 *131:3 0.000202293
5 *131:4 0.000571916
6 *131:5 0.00039228
7 *131:6 0.000378275
8 *131:7 0.000317838
9 *131:8 0.00012062
10 *131:9 0.000273538
11 *131:10 0.00166277
12 *131:11 0.00166277
13 *131:12 0.000273538
14 *131:13 0.000179559
15 *131:14 0.000124654
16 *131:15 0.000110039
17 *131:16 0.00016492
18 *131:17 7.52033e-05
19 *131:18 0.00012062
20 *131:19 0.00012062
21 *131:16 *134:5 2.624e-05
22 *131:15 *134:6 2.624e-05
23 *131:14 *134:5 2.204e-05
24 *131:13 *134:6 2.204e-05
25 *131:11 *134:5 0.00029783
26 *131:10 *134:6 0.000297829995
27 *131:6 *111:5 0.00018511
28 *131:7 *111:6 0.000185110005

*RES
1 *131:19 *513:A1 6.39994
2 *131:6 *131:19 3.20004
3 *131:17 *545:A 0.223883
4 *131:7 *131:6 1.47081
5 *131:18 *131:17 3.20004
6 *131:3 *131:7 0.155995
7 *131:4 *131:18 3.20004
8 *131:4 *131:3 0.735406
9 *131:5 *131:4 1.6547
10 *131:16 *131:5 3.20004
11 *131:15 *131:16 0.467986
12 *131:11 *131:15 0.183888
13 *131:10 *131:11 9.67199993
14 *131:10 *131:14 0.183888
15 *131:13 *131:14 0.467986
16 *131:12 *131:13 3.20004
17 *131:9 *131:12 1.28707
18 *131:8 *131:9 3.20004
19 *552:Q *131:8 3.20004
*END

*D_NET *132 0.00661377

*CONN
*I *557:Q O *C 61.71 46.76 *L 0 *D DFFRHQX1
*I *544:A I *C 70.95 83.72 *L 0.00346 *D INVX1
*I *514:A1 I *C 76.89 83.72 *L 0.00443 *D AOI21X1

*CAP
1 *557:Q 0.000139844
2 *544:A 0.000139844
3 *514:A1 3.98684e-05
4 *132:3 0.000115839
5 *132:4 0.000100905
6 *132:5 0.000536685
7 *132:6 0.000536685
8 *132:7 0.000224324
9 *132:8 0.000293997
10 *132:9 0.000206905
11 *132:10 0.000206905
12 *132:11 0.000995267
13 *132:12 0.00105015
14 *132:13 0.000120599
15 *132:14 0.000142231
16 *132:15 0.000851674
17 *132:16 0.000836867
18 *132:17 7.51858e-05

*RES
1 *132:17 *514:A1 0.22381
2 *132:14 *544:A 3.19997
3 *132:9 *132:17 3.19997
4 *132:14 *132:3 0.183888
5 *132:10 *132:9 0.467986
6 *132:4 *132:3 0.467986
7 *132:7 *132:10 3.19997
8 *132:8 *132:4 3.19997
9 *132:8 *132:7 1.287
10 *132:16 *132:8 3.19997
11 *132:15 *132:16 4.21202
12 *132:11 *132:15 0.183888
13 *132:12 *132:11 4.83599997
14 *132:5 *132:12 3.19997
15 *132:6 *132:5 2.574
16 *132:13 *132:6 3.19997
17 *557:Q *132:13 3.19997
*END

*D_NET *133 0.0140777

*CONN
*I *560:Q O *C 51.15 54.04 *L 0 *D DFFRHQX1
*I *539:A I *C 105.93 107.8 *L 0.00346 *D INVX1
*I *515:A1 I *C 102.63 107.8 *L 0.00443 *D AOI21X1

*CAP
1 *560:Q 6.33038e-05
2 *539:A 3.98615e-05
3 *515:A1 7.9723e-05
4 *133:3 0.000311965
5 *133:4 0.000302713
6 *133:5 0.000757896
7 *133:6 0.000767172
8 *133:7 0.000210621
9 *133:8 0.000265943
10 *133:9 0.000559979
11 *133:10 0.000559979
12 *133:11 0.000263546
13 *133:12 0.000351515
14 *133:13 0.000868612
15 *133:14 0.000859887
16 *133:15 0.000340417
17 *133:16 0.000340417
18 *133:17 0.00026556
19 *133:18 0.00026556
20 *133:19 0.000106233
21 *133:20 0.000336462
22 *133:21 0.000281571
23 *133:22 0.000130299
24 *133:23 0.000130299
25 *133:24 0.00155623
26 *133:25 0.00157085
27 *133:26 0.000355542
28 *133:27 0.000355542
29 *133:28 0.000560841
30 *133:29 0.000601086
31 *133:30 0.000110093
32 *133:31 0.000115078
33 *133:32 0.000120591
34 *133:33 0.000151728
35 *133:34 0.000120591

*RES
1 *133:33 *539:A 0.223831
2 *133:31 *515:A1 0.447662
3 *133:34 *133:33 3.20002
4 *133:32 *133:31 3.20002
5 *133:11 *133:34 3.20002
6 *133:12 *133:32 3.20002
7 *133:12 *133:11 1.10316
8 *133:30 *133:12 0.367682
9 *133:30 *133:9 0.155962
10 *133:10 *133:9 2.574
11 *133:13 *133:10 0.155962
12 *133:14 *133:13 4.22868
13 *133:25 *133:14 3.20002
14 *133:24 *133:25 7.48799992
15 *133:24 *133:29 0.367682
16 *133:28 *133:29 2.49596
17 *133:27 *133:28 0.183841
18 *133:26 *133:27 1.55996
19 *133:23 *133:26 0.183841
20 *133:22 *133:23 0.468
21 *133:17 *133:22 0.183841
22 *133:18 *133:17 1.404
23 *133:18 *133:21 0.183841
24 *133:20 *133:21 1.24804
25 *133:5 *133:20 3.20002
26 *133:6 *133:5 3.49332
27 *133:6 *133:15 0.155962
28 *133:16 *133:15 1.47084
29 *133:3 *133:16 0.155962
30 *133:4 *133:3 1.47084
31 *133:7 *133:4 6.40004
32 *133:8 *133:7 0.780038
33 *133:19 *133:8 0.367682
34 *560:Q *133:19 6.40004
*END

*D_NET *134 0.0106817

*CONN
*I *554:Q O *C 68.31 43.96 *L 0 *D DFFRHQX1
*I *537:A I *C 90.75 103.88 *L 0.00346 *D INVX1
*I *508:A1 I *C 94.05 103.88 *L 0.00443 *D AOI21X1

*CAP
1 *554:Q 6.32658e-05
2 *537:A 0.000139838
3 *508:A1 7.97476e-05
4 *134:3 0.0015266
5 *134:4 0.00145693
6 *134:5 0.00305987
7 *134:6 0.00300501
8 *134:7 5.09395e-05
9 *134:8 5.09395e-05
10 *134:9 6.57404e-05
11 *134:10 0.000152912
12 *134:11 0.000115046
13 *134:12 0.000222621
14 *134:5 *131:16 2.624e-05
15 *134:6 *131:15 2.624e-05
16 *134:5 *131:14 2.204e-05
17 *134:6 *131:13 2.204e-05
18 *134:5 *131:11 0.00029783
19 *134:6 *131:10 0.000297829995

*RES
1 *134:11 *508:A1 0.447762
2 *134:12 *134:11 3.20005
3 *134:10 *537:A 3.20005
4 *134:10 *134:12 0.55168
5 *134:3 *134:10 3.20005
6 *134:7 *554:Q 6.40009
7 *134:4 *134:3 6.43499
8 *134:8 *134:7 6.40009
9 *134:5 *134:4 3.20005
10 *134:9 *134:8 6.40009
11 *134:6 *134:5 16.6919994
12 *134:6 *134:9 0.183893
*END

*D_NET *135 0.00150787

*CONN
*I *365:A I *C 35.97 103.88 *L 0.00446 *D BUFX3
*I *564:Q O *C 35.31 107.24 *L 0 *D DFFRHQX1

*CAP
1 *365:A 6.33002e-05
2 *564:Q 0.000124392
3 *135:2 0.000309280488
4 *135:3 0.000309280488
5 *135:4 0.000165912
6 *135:5 0.000165912
7 *135:6 0.000105038
8 *135:7 0.000105038
9 *135:8 0.000159721

*RES
1 *135:5 *365:A 6.4000001
2 *135:5 *135:4 0.467969
3 *135:6 *135:4 6.4000001
4 *135:6 *135:7 0.367676
5 *135:3 *135:7 6.4000001
6 *135:3 *135:2 1.09199
7 *135:8 *135:2 6.4000001
8 *564:Q *135:8 0.671484
*END

*D_NET *136 0.00197502

*CONN
*I *355:A I *C 35.97 97.72 *L 0.00446 *D BUFX3
*I *579:Q O *C 35.31 114.52 *L 0 *D DFFRHQX1

*CAP
1 *355:A 6.33018e-05
2 *579:Q 6.33018e-05
3 *136:2 0.00046492
4 *136:3 0.000450121
5 *136:4 0.000282052
6 *136:5 0.000296851
7 *136:3 *56:78 4.002e-05
8 *136:2 *56:79 4.002e-05
9 *136:3 *56:79 9.405e-05
10 *136:2 *56:80 9.405e-05
11 *136:5 *56:80 3.283e-05
12 *136:4 *56:81 3.283e-05
13 *136:5 *56:81 1.034e-05
14 *136:4 *56:76 1.03399905e-05

*RES
1 *136:4 *355:A 6.4000001
2 *136:4 *136:5 1.404
3 *136:3 *579:Q 6.4000001
4 *136:2 *136:5 0.183887
5 *136:2 *136:3 2.496
*END

*D_NET *137 7.972e-05

*CONN
*I *360:A I *C 52.47 107.8 *L 0.00446 *D BUFX3
*I *571:Q O *C 51.81 107.24 *L 0 *D DFFRHQX1

*CAP
1 *360:A 3.986e-05
2 *571:Q 3.986e-05

*RES
1 *571:Q *360:A 0.223826
*END

*D_NET *138 7.972e-05

*CONN
*I *359:A I *C 52.47 113.96 *L 0.00446 *D BUFX3
*I *576:Q O *C 51.81 114.52 *L 0 *D DFFRHQX1

*CAP
1 *359:A 3.986e-05
2 *576:Q 3.986e-05

*RES
1 *576:Q *359:A 0.223826
*END

*D_NET *139 0.00262721

*CONN
*I *356:A I *C 52.47 103.88 *L 0.00446 *D BUFX3
*I *570:Q O *C 35.31 104.44 *L 0 *D DFFRHQX1

*CAP
1 *356:A 0.000139844
2 *570:Q 0.000209154
3 *139:2 0.000244487
4 *139:3 0.000120595
5 *139:4 0.00085412
6 *139:5 0.000172114
7 *139:6 0.000784445
8 *139:7 0.00010244

*RES
1 *139:7 *356:A 3.19998
2 *139:5 *139:7 0.468014
3 *139:6 *139:5 3.19998
4 *139:4 *139:6 3.86100006
5 *139:3 *139:4 3.19998
6 *139:2 *139:3 3.19998
7 *570:Q *139:2 1.11913
*END

*D_NET *140 0.00259654

*CONN
*I *353:A I *C 52.47 97.72 *L 0.00446 *D BUFX3
*I *565:Q O *C 35.31 97.16 *L 0 *D DFFRHQX1

*CAP
1 *353:A 0.00013984
2 *565:Q 0.00013984
3 *140:2 0.000120606
4 *140:3 0.00102648
5 *140:4 7.16429e-05
6 *140:5 0.000141328
7 *140:6 0.000956795

*RES
1 *140:4 *353:A 3.20001
2 *140:4 *140:5 0.31197
3 *140:6 *140:5 3.20001
4 *140:3 *140:6 4.78028584
5 *140:2 *140:3 3.20001
6 *565:Q *140:2 3.20001
*END

*D_NET *141 0.000867943

*CONN
*I *358:A I *C 35.97 87.64 *L 0.00446 *D BUFX3
*I *577:Q O *C 35.31 94.36 *L 0 *D DFFRHQX1

*CAP
1 *358:A 0.00013984
2 *577:Q 0.00013984
3 *141:2 7.242e-05
4 *141:3 0.000250523
5 *141:4 0.00026532

*RES
1 *141:3 *358:A 3.20000005
2 *141:3 *141:4 1.09199
3 *141:2 *141:4 0.183838
4 *577:Q *141:2 3.20000005
*END

*D_NET *142 0.000893563

*CONN
*I *363:A I *C 32.67 83.72 *L 0.00446 *D BUFX3
*I *578:Q O *C 35.31 87.08 *L 0 *D DFFRHQX1

*CAP
1 *363:A 6.32999e-05
2 *578:Q 6.32999e-05
3 *142:2 6.57194e-05
4 *142:3 0.000237242
5 *142:4 0.00031776
6 *142:5 0.000146242

*RES
1 *142:5 *578:Q 6.4000001
2 *142:4 *142:5 0.551562
3 *142:3 *142:4 0.936035
4 *142:2 *142:3 0.183887
5 *363:A *142:2 6.4000001
*END

*D_NET *143 0.000825402

*CONN
*I *364:A I *C 35.31 83.72 *L 0.00446 *D BUFX3
*I *572:Q O *C 35.31 77 *L 0 *D DFFRHQX1

*CAP
1 *364:A 0.000139842
2 *572:Q 0.000139842
3 *143:2 0.0003077
4 *143:3 0.000238019

*RES
1 *143:3 *364:A 3.20000005
2 *143:2 *143:3 1.09199
3 *572:Q *143:2 3.20000005
*END

*D_NET *144 0.00173703

*CONN
*I *362:A I *C 39.27 63.56 *L 0.00446 *D BUFX3
*I *575:Q O *C 35.31 74.2 *L 0 *D DFFRHQX1

*CAP
1 *362:A 0.000139843
2 *575:Q 0.000164786
3 *144:2 0.000200116
4 *144:3 0.000182361
5 *144:4 0.00053227
6 *144:5 0.000517651

*RES
1 *144:4 *362:A 3.20000005
2 *144:4 *144:5 2.33999
3 *144:3 *144:5 0.367725
4 *144:2 *144:3 3.20000005
5 *575:Q *144:2 0.895312
*END

*D_NET *145 0.00090301

*CONN
*I *361:A I *C 36.63 63.56 *L 0.00446 *D BUFX3
*I *569:Q O *C 35.31 66.92 *L 0 *D DFFRHQX1

*CAP
1 *361:A 7.97302e-05
2 *569:Q 0.000139842
3 *145:2 0.000115059
4 *145:3 0.00028419
5 *145:4 0.00028419

*RES
1 *145:4 *569:Q 3.20000005
2 *145:3 *145:4 0.935986
3 *145:2 *361:A 0.447656
4 *145:2 *145:3 3.20000005
*END

*D_NET *146 0.00194275

*CONN
*I *352:A I *C 45.87 63.56 *L 0.00446 *D BUFX3
*I *574:Q O *C 35.31 56.84 *L 0 *D DFFRHQX1

*CAP
1 *352:A 7.97327e-05
2 *574:Q 0.000543201
3 *146:2 0.000287645
4 *146:3 0.00027285
5 *146:4 0.00057853
6 *146:5 0.000115062
7 *146:6 6.5723e-05

*RES
1 *146:5 *352:A 0.447656
2 *146:6 *146:5 6.4000001
3 *146:2 *146:6 0.183887
4 *146:3 *146:2 1.24805
5 *146:4 *146:3 6.4000001
6 *574:Q *146:4 2.90977
*END

*D_NET *147 0.00180783

*CONN
*I *354:A I *C 45.87 57.4 *L 0.00446 *D BUFX3
*I *573:Q O *C 35.31 54.04 *L 0 *D DFFRHQX1

*CAP
1 *354:A 6.33003e-05
2 *573:Q 8.23992e-05
3 *147:2 0.000117729
4 *147:3 5.09197e-05
5 *147:4 0.00053239
6 *147:5 0.000214345
7 *147:6 0.00053239
8 *147:7 0.000214345

*RES
1 *147:7 *354:A 6.4000001
2 *147:5 *147:7 0.936035
3 *147:6 *147:5 6.4000001
4 *147:4 *147:6 2.57402
5 *147:3 *147:4 6.4000001
6 *147:2 *147:3 6.4000001
7 *573:Q *147:2 0.447656
*END

*D_NET *148 0.00150059

*CONN
*I *357:A I *C 45.87 47.32 *L 0.00446 *D BUFX3
*I *567:Q O *C 35.31 46.76 *L 0 *D DFFRHQX1

*CAP
1 *357:A 6.32988e-05
2 *567:Q 9.96724e-05
3 *148:2 0.000135004
4 *148:3 0.00055039
5 *148:4 0.00055039
6 *148:5 5.09196e-05
7 *148:6 5.09196e-05

*RES
1 *148:6 *357:A 6.4000001
2 *148:3 *148:6 6.4000001
3 *148:4 *148:3 2.20625
4 *148:5 *148:4 6.4000001
5 *148:2 *148:5 6.4000001
6 *567:Q *148:2 0.895312
*END

*D_NET *149 0.0024706

*CONN
*I *350:A I *C 39.27 47.32 *L 0.00446 *D BUFX3
*I *568:Q O *C 51.15 43.96 *L 0 *D DFFRHQX1

*CAP
1 *350:A 0.000139839
2 *568:Q 6.32998e-05
3 *149:2 0.00027428
4 *149:3 0.00027428
5 *149:4 0.00028299
6 *149:5 0.000222009
7 *149:6 0.000120589
8 *149:7 0.000111892
9 *149:8 0.000218179
10 *149:9 0.000218179
11 *149:10 8.996e-05
12 *149:11 8.996e-05
13 *149:2 *150:6 6.024e-05
14 *149:3 *150:4 6.024e-05
15 *149:4 *150:6 8.48e-05
16 *149:5 *150:4 8.48e-05
17 *149:6 *150:6 3.753e-05
18 *149:7 *150:4 3.7530004e-05

*RES
1 *149:10 *568:Q 6.4000001
2 *149:10 *149:11 0.312012
3 *149:4 *149:11 3.2
4 *149:5 *149:4 1.28701
5 *149:5 *149:2 0.155957
6 *149:3 *149:2 1.4709
7 *149:6 *149:3 0.155957
8 *149:9 *350:A 3.2
9 *149:7 *149:6 0.551562
10 *149:8 *149:9 0.624023
11 *149:8 *149:7 3.2
*END

*D_NET *150 0.00279009

*CONN
*I *351:A I *C 52.47 43.4 *L 0.00446 *D BUFX3
*I *566:Q O *C 35.31 43.96 *L 0 *D DFFRHQX1

*CAP
1 *351:A 0.000139838
2 *566:Q 8.24011e-05
3 *150:2 0.000117731
4 *150:3 0.000120596
5 *150:4 0.000533918
6 *150:5 8.54232e-05
7 *150:6 0.00054262
8 *150:7 0.000120596
9 *150:8 7.67211e-05
10 *150:6 *149:2 6.024e-05
11 *150:4 *149:3 6.024e-05
12 *150:6 *149:4 8.48e-05
13 *150:4 *149:5 8.48e-05
14 *150:6 *149:6 3.753e-05
15 *150:4 *149:7 3.7530004e-05
16 *150:8 *55:98 6.364e-05
17 *150:5 *55:99 6.364e-05
18 *150:6 *55:99 0.00020101
19 *150:4 *55:100 0.00020101
20 *150:6 *55:100 3.79e-05
21 *150:4 *55:96 3.78999993e-05

*RES
1 *150:7 *351:A 3.19998
2 *150:8 *150:7 3.19998
3 *150:5 *150:8 0.367725
4 *150:5 *150:6 0.156027
5 *150:4 *150:6 4.04485703
6 *150:3 *150:4 3.19998
7 *150:2 *150:3 3.19998
8 *566:Q *150:2 0.447652
*END

*D_NET *152 0.000720451

*CONN
*I *547:Y O *C 64.35 78.12 *L 0 *D INVX1
*I *519:B0 I *C 67.65 77.56 *L 0.00319 *D AOI21XL

*CAP
1 *547:Y 7.97305e-05
2 *519:B0 6.33004e-05
3 *152:2 0.000115061
4 *152:3 0.00022302
5 *152:4 7.18081e-05
6 *152:5 0.00016753

*RES
1 *152:4 *519:B0 6.4000001
2 *152:4 *152:5 0.312012
3 *152:3 *152:5 0.551562
4 *152:2 *152:3 3.2
5 *547:Y *152:2 0.447656
*END

*D_NET *153 0.000487887

*CONN
*I *546:Y O *C 124.41 63 *L 0 *D INVX1
*I *528:B0 I *C 122.43 63.56 *L 0.00319 *D AOI21XL

*CAP
1 *546:Y 3.98595e-05
2 *528:B0 6.32985e-05
3 *153:2 0.00012931
4 *153:3 7.42494e-05
5 *153:4 7.51886e-05
6 *153:5 0.00010598

*RES
1 *153:4 *546:Y 0.223828
2 *153:3 *528:B0 6.4000001
3 *153:5 *153:4 6.4000001
4 *153:2 *153:3 0.312012
5 *153:2 *153:5 0.367676
*END

*D_NET *154 0.000821391

*CONN
*I *545:Y O *C 73.59 98.28 *L 0 *D INVX1
*I *529:B0 I *C 77.55 97.72 *L 0.00319 *D AOI21XL

*CAP
1 *545:Y 0.000132899
2 *529:B0 6.32991e-05
3 *154:2 0.000168228
4 *154:3 0.000146642
5 *154:4 0.000107302
6 *154:5 0.00020302

*RES
1 *154:4 *529:B0 6.4000001
2 *154:4 *154:5 0.312012
3 *154:3 *154:5 0.551562
4 *154:2 *154:3 6.4000001
5 *545:Y *154:2 0.671484
*END

*D_NET *155 0.00075761

*CONN
*I *544:Y O *C 71.61 83.16 *L 0 *D INVX1
*I *527:B0 I *C 74.91 83.72 *L 0.00319 *D AOI21XL

*CAP
1 *544:Y 7.97305e-05
2 *527:B0 6.33004e-05
3 *155:2 0.000115061
4 *155:3 0.00022302
5 *155:4 0.000182758
6 *155:5 9.37375e-05

*RES
1 *155:5 *527:B0 6.4000001
2 *155:4 *155:5 0.312012
3 *155:3 *155:4 0.551562
4 *155:2 *155:3 3.2
5 *544:Y *155:2 0.447656
*END

*D_NET *156 0.000948609

*CONN
*I *543:Y O *C 55.11 78.12 *L 0 *D INVX1
*I *517:B0 I *C 59.07 77.56 *L 0.00319 *D AOI21XL

*CAP
1 *543:Y 0.000119591
2 *517:B0 6.32998e-05
3 *156:2 0.00011339
4 *156:3 7.29996e-05
5 *156:4 0.000154919
6 *156:5 0.00014223
7 *156:6 0.000113431
8 *156:7 0.000168748906

*RES
1 *156:6 *517:B0 6.4000001
2 *156:6 *156:7 0.467969
3 *156:2 *156:7 0.367676
4 *156:3 *156:2 0.155957
5 *156:5 *156:3 0.183887
6 *156:4 *156:5 3.2
7 *543:Y *156:4 0.671484
*END

*D_NET *157 0.000681707

*CONN
*I *542:Y O *C 111.87 57.96 *L 0 *D INVX1
*I *526:B0 I *C 114.51 57.4 *L 0.00319 *D AOI21XL

*CAP
1 *542:Y 3.986e-05
2 *526:B0 6.3299e-05
3 *157:2 7.51884e-05
4 *157:3 0.00022262
5 *157:4 9.27099e-05
6 *157:5 0.000188032

*RES
1 *157:4 *526:B0 6.4000001
2 *157:4 *157:5 0.312012
3 *157:3 *157:5 0.551562
4 *157:2 *157:3 3.2
5 *542:Y *157:2 0.223828
*END

*D_NET *158 0.000841628

*CONN
*I *541:Y O *C 108.57 47.88 *L 0 *D INVX1
*I *524:B0 I *C 112.53 47.32 *L 0.00319 *D AOI21XL

*CAP
1 *541:Y 0.000119818
2 *524:B0 6.3299e-05
3 *158:2 0.00015515
4 *158:3 0.00022262
5 *158:4 9.27099e-05
6 *158:5 0.000188032

*RES
1 *158:4 *524:B0 6.4000001
2 *158:4 *158:5 0.312012
3 *158:3 *158:5 0.551562
4 *158:2 *158:3 3.2
5 *541:Y *158:2 0.671484
*END

*D_NET *159 0.000759728

*CONN
*I *540:Y O *C 63.03 52.92 *L 0 *D INVX1
*I *516:B0 I *C 66.99 53.48 *L 0.00319 *D AOI21XL

*CAP
1 *540:Y 8.215e-05
2 *516:B0 6.33004e-05
3 *159:2 0.000117481
4 *159:3 0.00022302
5 *159:4 0.000184749
6 *159:5 8.9031e-05

*RES
1 *159:5 *516:B0 6.4000001
2 *159:4 *159:5 0.312012
3 *159:3 *159:4 0.551562
4 *159:2 *159:3 3.2
5 *540:Y *159:2 0.671484
*END

*D_NET *160 0.000684124

*CONN
*I *539:Y O *C 106.59 108.36 *L 0 *D INVX1
*I *525:B0 I *C 109.23 107.8 *L 0.00319 *D AOI21XL

*CAP
1 *539:Y 6.32997e-05
2 *525:B0 6.32997e-05
3 *160:2 6.57211e-05
4 *160:3 0.000153702
5 *160:4 7.31804e-05
6 *160:5 0.00018012
7 *160:6 8.48008e-05

*RES
1 *160:6 *525:B0 6.4000001
2 *160:5 *160:6 0.312012
3 *160:3 *160:5 0.551562
4 *160:3 *160:4 0.155957
5 *160:2 *160:4 0.183887
6 *539:Y *160:2 6.4000001
*END

*D_NET *161 0.000720451

*CONN
*I *538:Y O *C 64.35 63 *L 0 *D INVX1
*I *530:B0 I *C 67.65 63.56 *L 0.00319 *D AOI21XL

*CAP
1 *538:Y 7.97305e-05
2 *530:B0 6.33004e-05
3 *161:2 0.000115061
4 *161:3 0.00022302
5 *161:4 0.00016753
6 *161:5 7.18081e-05

*RES
1 *161:5 *530:B0 6.4000001
2 *161:4 *161:5 0.312012
3 *161:3 *161:4 0.551562
4 *161:2 *161:3 3.2
5 *538:Y *161:2 0.447656
*END

*D_NET *162 0.000923374

*CONN
*I *537:Y O *C 91.41 103.32 *L 0 *D INVX1
*I *518:B0 I *C 92.73 107.8 *L 0.00319 *D AOI21XL

*CAP
1 *537:Y 3.98618e-05
2 *518:B0 6.33032e-05
3 *162:2 0.000114451
4 *162:3 0.000129502
5 *162:4 9.02382e-05
6 *162:5 0.00027785
7 *162:6 0.00020817

*RES
1 *162:6 *518:B0 6.4000001
2 *162:5 *162:6 0.77998
3 *162:4 *162:5 3.2
4 *162:3 *162:4 0.223828
5 *162:2 *162:3 0.379785
6 *537:Y *162:2 0.223828
*END

*D_NET *163 0.00130351

*CONN
*I *536:Y O *C 117.15 83.16 *L 0 *D INVX1
*I *531:B0 I *C 123.75 83.72 *L 0.00319 *D AOI21XL

*CAP
1 *536:Y 0.000139842
2 *531:B0 6.32991e-05
3 *163:2 0.000120599
4 *163:3 0.00029969
5 *163:4 0.000238709
6 *163:5 0.0001299
7 *163:6 0.000120599
8 *163:7 0.000190881

*RES
1 *163:6 *531:B0 6.4000001
2 *163:7 *163:6 3.2
3 *163:5 *163:7 0.551562
4 *163:4 *163:5 0.155957
5 *163:3 *163:4 1.28701
6 *163:2 *163:3 3.2
7 *536:Y *163:2 3.2
*END

*D_NET *164 0.000729911

*CONN
*I *535:Y O *C 103.95 103.32 *L 0 *D INVX1
*I *521:B0 I *C 107.91 103.88 *L 0.00319 *D AOI21XL

*CAP
1 *535:Y 0.000111198
2 *521:B0 6.33005e-05
3 *164:2 0.000146532
4 *164:3 0.00014624
5 *164:4 0.00017898
6 *164:5 8.36606e-05

*RES
1 *164:5 *521:B0 6.4000001
2 *164:4 *164:5 0.312012
3 *164:3 *164:4 0.551562
4 *164:2 *164:3 6.4000001
5 *535:Y *164:2 0.671484
*END

*D_NET *165 0.000750288

*CONN
*I *534:Y O *C 108.57 78.12 *L 0 *D INVX1
*I *523:B0 I *C 111.87 77.56 *L 0.00319 *D AOI21XL

*CAP
1 *534:Y 8.21182e-05
2 *523:B0 6.3299e-05
3 *165:2 0.00011745
4 *165:3 0.00022262
5 *165:4 8.47407e-05
6 *165:5 0.000180059

*RES
1 *165:4 *523:B0 6.4000001
2 *165:4 *165:5 0.312012
3 *165:3 *165:5 0.551562
4 *165:2 *165:3 3.2
5 *534:Y *165:2 0.447656
*END

*D_NET *166 0.000661328

*CONN
*I *533:Y O *C 111.87 83.16 *L 0 *D INVX1
*I *520:B0 I *C 114.51 83.72 *L 0.00319 *D AOI21XL

*CAP
1 *533:Y 3.986e-05
2 *520:B0 6.3299e-05
3 *166:2 7.51884e-05
4 *166:3 0.00022262
5 *166:4 0.000177841
6 *166:5 8.2519e-05

*RES
1 *166:5 *520:B0 6.4000001
2 *166:4 *166:5 0.312012
3 *166:3 *166:4 0.551562
4 *166:2 *166:3 3.2
5 *533:Y *166:2 0.223828
*END

*D_NET *167 0.0027874

*CONN
*I *532:Y O *C 86.13 93.24 *L 0 *D INVX1
*I *522:B0 I *C 97.35 87.64 *L 0.00319 *D AOI21XL

*CAP
1 *532:Y 0.000139838
2 *522:B0 6.33005e-05
3 *167:2 0.00031752
4 *167:3 0.000302592
5 *167:4 7.25497e-05
6 *167:5 0.000157183
7 *167:6 0.000288692
8 *167:7 7.94006e-05
9 *167:8 0.000288692
10 *167:9 7.94006e-05
11 *167:10 0.000120598
12 *167:11 0.000157183
13 *167:8 *104:5 0.00010585
14 *167:6 *104:6 0.000105850002
15 *167:11 *83:3 2.377e-05
16 *167:9 *83:4 2.377e-05
17 *167:8 *83:3 0.00020684
18 *167:6 *83:4 0.00020684
19 *167:7 *83:3 2.377e-05
20 *167:5 *83:4 2.37699858e-05

*RES
1 *167:10 *522:B0 6.4000001
2 *167:11 *167:10 3.2
3 *167:9 *167:11 0.367676
4 *167:8 *167:9 0.0780273
5 *167:6 *167:8 2.20625
6 *167:6 *167:7 0.0780273
7 *167:5 *167:7 0.367676
8 *167:4 *167:5 3.2
9 *167:3 *532:Y 3.2
10 *167:2 *167:4 0.183887
11 *167:2 *167:3 1.404
*END

*D_NET *168 0.00154629

*CONN
*I *595:Y O *C 127.05 83.16 *L 0 *D INVX1
*I *531:A0 I *C 123.09 83.16 *L 0.00314 *D AOI21XL
*I *507:A0 I *C 119.13 84.28 *L 0.00465 *D AOI21X1

*CAP
1 *595:Y 0.000119591
2 *531:A0 0.000139838
3 *507:A0 0.000139838
4 *168:3 0.0003434
5 *168:4 0.000149302
6 *168:5 0.000276779
7 *168:6 0.000154919
8 *168:7 0.000222619

*RES
1 *168:6 *595:Y 0.671484
2 *168:7 *168:6 3.20000005
3 *168:4 *168:7 0.551562
4 *168:5 *531:A0 3.20000005
5 *168:4 *168:5 0.156006
6 *168:3 *168:5 1.10312
7 *507:A0 *168:3 3.20000005
*END

*D_NET *169 0.00136384

*CONN
*I *319:A I *C 119.79 87.64 *L 0.00446 *D BUFX3
*I *531:Y O *C 124.41 84.28 *L 0 *D AOI21XL

*CAP
1 *319:A 3.9859e-05
2 *531:Y 3.72986e-05
3 *169:2 0.000182811
4 *169:3 0.000182811
5 *169:4 0.00019046
6 *169:5 7.51901e-05
7 *169:6 0.00019046
8 *169:7 9.02415e-05
9 *169:8 5.09201e-05
10 *169:9 9.22119e-05
11 *169:2 *106:4 9.545e-05
12 *169:3 *106:5 9.545e-05
13 *169:6 *106:8 2.034e-05
14 *169:4 *106:9 2.0340002e-05

*RES
1 *531:Y *169:9 0.189941
2 *169:7 *169:9 0.223828
3 *169:8 *169:7 6.4000001
4 *169:5 *319:A 0.223828
5 *169:2 *169:8 6.4000001
6 *169:6 *169:5 6.4000001
7 *169:3 *169:2 1.10312
8 *169:4 *169:6 0.77998
9 *169:4 *169:3 6.4000001
*END

*D_NET *170 0.00209026

*CONN
*I *592:Y O *C 70.95 52.92 *L 0 *D INVX1
*I *530:A0 I *C 66.99 63 *L 0.00314 *D AOI21XL
*I *501:A0 I *C 70.95 64.12 *L 0.00465 *D AOI21X1

*CAP
1 *592:Y 0.000139836
2 *530:A0 6.32977e-05
3 *501:A0 0.000139836
4 *170:3 0.00061849
5 *170:4 0.000548813
6 *170:5 0.000264535
7 *170:6 0.000264535
8 *170:7 5.0925e-05

*RES
1 *170:4 *592:Y 3.2
2 *170:3 *501:A0 3.2
3 *170:4 *170:3 2.496
4 *170:5 *170:3 3.2
5 *170:6 *170:5 1.10312
6 *170:7 *170:6 6.4000001
7 *530:A0 *170:7 6.4000001
*END

*D_NET *171 0.00301473

*CONN
*I *320:A I *C 68.97 43.4 *L 0.00446 *D BUFX3
*I *530:Y O *C 68.31 64.12 *L 0 *D AOI21XL

*CAP
1 *320:A 6.33034e-05
2 *530:Y 3.98573e-05
3 *171:2 0.00066719
4 *171:3 0.000612438
5 *171:4 0.000114533
6 *171:5 9.97298e-05
7 *171:6 4.69125e-05
8 *171:7 4.69125e-05
9 *171:8 0.000268525
10 *171:9 0.000268393
11 *171:10 0.000157383
12 *171:11 0.000157383
13 *171:12 5.09135e-05
14 *171:13 5.09135e-05
15 *171:14 7.51842e-05
16 *171:4 *199:11 6.082e-05
17 *171:5 *199:9 6.082e-05
18 *171:6 *199:11 2.089e-05
19 *171:7 *199:9 2.089e-05
20 *171:8 *199:11 6.587e-05
21 *171:9 *199:9 6.5870001e-05

*RES
1 *171:6 *320:A 6.4000001
2 *171:7 *171:6 0.155957
3 *171:12 *171:7 6.4000001
4 *171:11 *171:12 6.4000001
5 *171:11 *171:10 0.624023
6 *530:Y *171:14 0.223828
7 *171:13 *171:10 6.4000001
8 *171:2 *171:14 3.2
9 *171:5 *171:13 6.4000001
10 *171:3 *171:2 2.80801
11 *171:5 *171:4 0.467969
12 *171:8 *171:3 0.183887
13 *171:9 *171:4 0.183887
14 *171:9 *171:8 1.55996
*END

*D_NET *172 0.00299534

*CONN
*I *598:Y O *C 86.13 103.32 *L 0 *D INVX1
*I *529:A0 I *C 76.89 98.28 *L 0.00314 *D AOI21XL
*I *513:A0 I *C 80.85 97.16 *L 0.00465 *D AOI21X1

*CAP
1 *598:Y 0.000139839
2 *529:A0 6.33039e-05
3 *513:A0 0.000139839
4 *172:3 0.000339462
5 *172:4 0.00044628
6 *172:5 0.0001123
7 *172:6 0.000241714
8 *172:7 8.50612e-05
9 *172:8 8.50612e-05
10 *172:9 0.000406913
11 *172:10 0.000406913
12 *172:11 0.000142229
13 *172:12 0.00022806
14 *172:13 0.000158375

*RES
1 *172:13 *598:Y 3.2
2 *172:12 *172:13 0.624023
3 *172:11 *513:A0 3.2
4 *172:9 *172:12 3.2
5 *172:7 *172:11 0.183887
6 *172:10 *172:9 1.83857
7 *172:8 *172:7 0.155957
8 *172:3 *172:10 3.2
9 *172:5 *529:A0 6.4000001
10 *172:4 *172:8 0.183887
11 *172:4 *172:3 1.09199
12 *172:6 *172:5 0.467969
13 *172:6 *172:4 0.735449
*END

*D_NET *173 0.00321705

*CONN
*I *326:A I *C 72.27 107.8 *L 0.00446 *D BUFX3
*I *529:Y O *C 78.21 97.16 *L 0 *D AOI21XL

*CAP
1 *326:A 3.98592e-05
2 *529:Y 0.000139833
3 *173:2 0.000194391
4 *173:3 0.000124709
5 *173:4 0.000414186
6 *173:5 0.000414186
7 *173:6 0.00056997
8 *173:7 0.000118525
9 *173:8 0.00056997
10 *173:9 0.000151748
11 *173:10 0.000195087
12 *173:4 *130:7 0.00014229
13 *173:5 *130:8 0.000142290005

*RES
1 *173:9 *326:A 0.223828
2 *173:3 *529:Y 3.2
3 *173:9 *173:10 0.569727
4 *173:3 *173:2 0.467969
5 *173:7 *173:10 0.447656
6 *173:4 *173:2 3.2
7 *173:8 *173:7 6.4000001
8 *173:5 *173:4 2.20625
9 *173:6 *173:8 2.496
10 *173:6 *173:5 6.4000001
*END

*D_NET *174 0.00280146

*CONN
*I *594:Y O *C 129.03 63 *L 0 *D INVX1
*I *528:A0 I *C 121.77 63 *L 0.00314 *D AOI21XL
*I *504:A0 I *C 117.81 64.12 *L 0.00465 *D AOI21X1

*CAP
1 *594:Y 0.000119589
2 *528:A0 0.000139834
3 *504:A0 0.000139834
4 *174:3 0.000124801
5 *174:4 0.000124801
6 *174:5 0.000120599
7 *174:6 0.000237629
8 *174:7 7.24227e-05
9 *174:8 0.00050524
10 *174:9 0.000142101
11 *174:10 0.000154922
12 *174:11 0.000350688
13 *174:11 *123:3 0.00012676
14 *174:8 *123:4 0.00012676
15 *174:8 *123:3 0.00015773
16 *174:6 *123:4 0.000157729997

*RES
1 *174:10 *594:Y 0.671484
2 *174:4 *174:10 3.20000005
3 *174:9 *528:A0 3.20000005
4 *174:4 *174:3 0.156006
5 *174:7 *174:9 0.183838
6 *174:11 *174:3 3.20000005
7 *174:8 *174:7 3.20000005
8 *174:8 *174:11 1.65474
9 *174:6 *174:8 0.919287
10 *174:5 *174:6 3.20000005
11 *504:A0 *174:5 3.20000005
*END

*D_NET *175 0.000477779

*CONN
*I *322:A I *C 125.07 63.56 *L 0.00446 *D BUFX3
*I *528:Y O *C 123.09 64.12 *L 0 *D AOI21XL

*CAP
1 *322:A 6.32995e-05
2 *528:Y 6.32995e-05
3 *175:2 6.96099e-05
4 *175:3 0.000109869277
5 *175:4 0.00010598
6 *175:5 6.57187e-05

*RES
1 *175:5 *322:A 6.4000001
2 *175:2 *175:5 0.183887
3 *175:3 *175:2 0.155957
4 *175:4 *175:3 0.367676
5 *528:Y *175:4 6.4000001
*END

*D_NET *176 0.00479619

*CONN
*I *589:Y O *C 78.21 108.36 *L 0 *D INVX1
*I *527:A0 I *C 74.25 83.16 *L 0.00314 *D AOI21XL
*I *514:A0 I *C 77.55 84.28 *L 0.00465 *D AOI21X1

*CAP
1 *589:Y 0.000171192
2 *527:A0 6.33001e-05
3 *514:A0 0.000139841
4 *176:3 0.000523057969
5 *176:4 0.000468314
6 *176:5 0.000152244
7 *176:6 0.000152244
8 *176:7 0.000508029
9 *176:8 0.000508029
10 *176:9 0.00013716
11 *176:10 0.00013716
12 *176:11 0.000142922
13 *176:12 0.000127989
14 *176:13 5.0921e-05
15 *176:14 9.11151e-05
16 *176:15 0.00018302
17 *176:16 0.000206525
18 *176:17 5.0921e-05
19 *176:18 0.000105314
20 *176:18 *112:3 9.469e-05
21 *176:15 *112:4 9.469e-05
22 *176:15 *112:3 6.262e-05
23 *176:14 *112:4 6.262e-05
24 *176:7 *112:5 8.65e-06
25 *176:8 *112:6 8.64999628e-06
26 *176:3 *177:2 0.00011331
27 *176:4 *177:3 0.00011331
28 *176:5 *177:6 6.836e-05
29 *176:6 *177:5 6.836e-05
30 *176:7 *177:9 7.537e-05
31 *176:8 *177:8 7.537e-05
32 *176:9 *177:9 8.09e-06
33 *176:10 *177:8 8.09e-06
34 *176:11 *177:9 7.36e-06
35 *176:12 *177:8 7.35999438e-06

*RES
1 *176:16 *589:Y 0.895312
2 *176:3 *176:16 3.2
3 *176:4 *176:3 2.496
4 *176:5 *176:4 0.183887
5 *176:6 *176:5 0.936035
6 *176:6 *176:9 0.183887
7 *176:10 *176:9 0.467969
8 *176:10 *176:7 0.183887
9 *176:8 *176:7 2.65195
10 *176:17 *514:A0 3.2
11 *176:11 *176:8 0.183887
12 *176:18 *176:17 6.4000001
13 *176:12 *176:11 0.624023
14 *176:15 *176:18 0.551562
15 *176:15 *176:12 6.4000001
16 *176:14 *176:15 0.367676
17 *176:13 *176:14 6.4000001
18 *527:A0 *176:13 6.4000001
*END

*D_NET *177 0.00451701

*CONN
*I *317:A I *C 72.27 117.88 *L 0.00446 *D BUFX3
*I *527:Y O *C 75.57 84.28 *L 0 *D AOI21XL

*CAP
1 *317:A 6.32946e-05
2 *527:Y 3.73016e-05
3 *177:2 0.00099211
4 *177:3 0.000891468
5 *177:4 0.000146239
6 *177:5 0.000241461
7 *177:6 0.000241401
8 *177:7 9.02414e-05
9 *177:8 0.000625619
10 *177:9 0.000550683
11 *177:10 9.22094e-05
12 *177:2 *176:3 0.00011331
13 *177:3 *176:4 0.00011331
14 *177:6 *176:5 6.836e-05
15 *177:5 *176:6 6.836e-05
16 *177:9 *176:7 7.537e-05
17 *177:8 *176:8 7.537e-05
18 *177:9 *176:9 8.09e-06
19 *177:8 *176:10 8.09e-06
20 *177:9 *176:11 7.36e-06
21 *177:8 *176:12 7.35999438e-06

*RES
1 *527:Y *177:10 0.189941
2 *177:7 *177:10 0.223828
3 *177:8 *177:7 3.2
4 *177:8 *177:9 2.96396
5 *177:5 *177:9 0.0918945
6 *177:5 *177:6 1.55996
7 *177:6 *177:3 0.0918945
8 *177:3 *177:2 4.67998
9 *177:4 *177:2 0.551562
10 *317:A *177:4 6.4000001
*END

*D_NET *178 0.00170496

*CONN
*I *593:Y O *C 117.81 57.96 *L 0 *D INVX1
*I *526:A0 I *C 113.85 57.96 *L 0.00314 *D AOI21XL
*I *503:A0 I *C 109.23 56.84 *L 0.00465 *D AOI21X1

*CAP
1 *593:Y 0.000139838
2 *526:A0 6.33017e-05
3 *503:A0 6.33017e-05
4 *178:3 0.000329302
5 *178:4 0.0005665
6 *178:5 0.000320278
7 *178:6 5.09232e-05
8 *178:7 5.09232e-05
9 *178:8 0.000120596

*RES
1 *178:8 *593:Y 3.2
2 *178:7 *526:A0 6.4000001
3 *178:3 *178:8 3.2
4 *178:4 *178:7 6.4000001
5 *178:4 *178:3 1.10312
6 *178:5 *178:4 1.28701
7 *178:6 *178:5 6.4000001
8 *503:A0 *178:6 6.4000001
*END

*D_NET *179 0.00156621

*CONN
*I *330:A I *C 113.85 47.32 *L 0.00446 *D BUFX3
*I *526:Y O *C 115.17 56.84 *L 0 *D AOI21XL

*CAP
1 *330:A 6.33022e-05
2 *526:Y 3.73005e-05
3 *179:2 0.00045068
4 *179:3 0.00045068
5 *179:4 9.02392e-05
6 *179:5 9.22128e-05
7 *179:2 *56:98 3.086e-05
8 *179:3 *56:99 3.086e-05
9 *179:2 *56:100 1.773e-05
10 *179:3 *56:101 1.773e-05
11 *179:2 *56:102 0.00014231
12 *179:3 *56:103 0.000142309996

*RES
1 *179:5 *526:Y 0.189941
2 *179:4 *179:5 0.223828
3 *179:2 *179:4 6.4000001
4 *179:3 *179:2 2.496
5 *330:A *179:3 6.4000001
*END

*D_NET *180 0.00209827

*CONN
*I *601:Y O *C 112.53 108.36 *L 0 *D INVX1
*I *525:A0 I *C 108.57 108.36 *L 0.00314 *D AOI21XL
*I *515:A0 I *C 103.29 107.24 *L 0.00465 *D AOI21X1

*CAP
1 *601:Y 0.00013984
2 *525:A0 0.00013984
3 *515:A0 0.00013984
4 *180:3 0.000120601
5 *180:4 0.000415435
6 *180:5 0.000120601
7 *180:6 0.00058209
8 *180:7 0.000120601
9 *180:8 0.00031941

*RES
1 *180:7 *601:Y 3.20000005
2 *180:5 *525:A0 3.20000005
3 *180:8 *180:7 3.20000005
4 *180:6 *180:5 3.20000005
5 *180:6 *180:8 1.10312
6 *180:4 *180:6 1.47085
7 *180:3 *180:4 3.20000005
8 *515:A0 *180:3 3.20000005
*END

*D_NET *181 0.00148635

*CONN
*I *327:A I *C 115.17 113.96 *L 0.00446 *D BUFX3
*I *525:Y O *C 109.89 107.24 *L 0 *D AOI21XL

*CAP
1 *327:A 6.32971e-05
2 *525:Y 6.32971e-05
3 *181:2 0.000308159
4 *181:3 0.000308159
5 *181:4 0.00034625832
6 *181:5 5.0923e-05
7 *181:6 0.00034625832

*RES
1 *181:5 *327:A 6.4000001
2 *181:6 *181:5 6.4000001
3 *181:4 *181:6 1.4709
4 *181:3 *181:4 6.4000001
5 *181:2 *181:3 1.404
6 *525:Y *181:2 6.4000001
*END

*D_NET *182 0.00250488

*CONN
*I *590:Y O *C 117.15 47.88 *L 0 *D INVX1
*I *524:A0 I *C 111.87 47.88 *L 0.00314 *D AOI21XL
*I *502:A0 I *C 105.27 46.76 *L 0.00465 *D AOI21X1

*CAP
1 *590:Y 0.000139843
2 *524:A0 6.32974e-05
3 *502:A0 0.000139843
4 *182:3 0.00059919
5 *182:4 0.000379254
6 *182:5 0.000372689
7 *182:6 0.000120597
8 *182:7 5.09268e-05
9 *182:8 0.000120597
10 *182:3 *101:11 0.00018925
11 *182:4 *101:9 0.00018925
12 *182:5 *101:12 4.791e-05
13 *182:3 *101:10 4.791e-05
14 *182:3 *101:12 2.216e-05
15 *182:4 *101:10 2.21599954e-05

*RES
1 *182:8 *590:Y 3.2
2 *182:7 *524:A0 6.4000001
3 *182:5 *182:8 3.2
4 *182:3 *182:7 6.4000001
5 *182:3 *182:5 1.4709
6 *182:4 *182:3 1.83857
7 *182:6 *182:4 3.2
8 *502:A0 *182:6 3.2
*END

*D_NET *183 0.00178646

*CONN
*I *324:A I *C 116.49 37.24 *L 0.00446 *D BUFX3
*I *524:Y O *C 113.19 46.76 *L 0 *D AOI21XL

*CAP
1 *324:A 6.33004e-05
2 *524:Y 6.33004e-05
3 *183:2 0.0002806
4 *183:3 0.0002806
5 *183:4 9.00695e-05
6 *183:5 0.000132771
7 *183:6 0.000104871
8 *183:7 0.000123826
9 *183:8 0.000109029
10 *183:9 6.7809e-05
11 *183:10 6.7809e-05
12 *183:11 0.000132771
13 *183:11 *56:131 6.338e-05
14 *183:5 *56:132 6.338e-05
15 *183:8 *56:102 2.291e-05
16 *183:7 *56:103 2.291e-05
17 *183:6 *56:133 1.736e-05
18 *183:4 *56:134 1.736e-05
19 *183:3 *56:102 9.92e-06
20 *183:2 *56:103 9.92e-06
21 *183:3 *56:133 2.128e-05
22 *183:2 *56:134 2.12799969e-05

*RES
1 *183:9 *324:A 6.4000001
2 *183:9 *183:10 0.155957
3 *183:11 *183:10 6.4000001
4 *183:5 *183:11 0.919238
5 *183:8 *524:Y 6.4000001
6 *183:4 *183:5 6.4000001
7 *183:7 *183:8 0.467969
8 *183:4 *183:6 0.467969
9 *183:3 *183:7 0.183887
10 *183:2 *183:6 0.183887
11 *183:2 *183:3 1.55996
*END

*D_NET *184 0.00198586

*CONN
*I *596:Y O *C 117.81 73.08 *L 0 *D INVX1
*I *523:A0 I *C 111.21 78.12 *L 0.00314 *D AOI21XL
*I *506:A0 I *C 109.89 74.2 *L 0.00465 *D AOI21X1

*CAP
1 *596:Y 0.000139836
2 *523:A0 6.32931e-05
3 *506:A0 6.32931e-05
4 *184:3 0.000105997
5 *184:4 0.000114094
6 *184:5 0.00012995
7 *184:6 0.000136651
8 *184:7 0.00055804
9 *184:8 0.000488361
10 *184:9 6.57199e-05
11 *184:10 0.0001206

*RES
1 *184:3 *523:A0 6.4000001
2 *184:10 *596:Y 3.2
3 *184:4 *184:3 0.467969
4 *184:7 *184:10 3.2
5 *184:5 *184:4 0.183887
6 *184:8 *184:7 2.02246
7 *184:6 *184:5 0.624023
8 *184:6 *184:8 6.4000001
9 *184:9 *184:6 0.183887
10 *506:A0 *184:9 6.4000001
*END

*D_NET *185 0.00089926

*CONN
*I *325:A I *C 116.49 77.56 *L 0.00446 *D BUFX3
*I *523:Y O *C 112.53 77 *L 0 *D AOI21XL

*CAP
1 *325:A 6.33013e-05
2 *523:Y 6.33013e-05
3 *185:2 0.00021144
4 *185:3 0.00021144
5 *185:4 5.09185e-05
6 *185:5 5.39804e-05
7 *185:6 5.39804e-05
8 *185:2 *297:19 9.545e-05
9 *185:3 *297:16 9.54500008e-05

*RES
1 *185:5 *325:A 6.4000001
2 *185:5 *185:6 0.155957
3 *185:2 *185:6 6.4000001
4 *185:3 *185:2 1.10312
5 *185:4 *185:3 6.4000001
6 *523:Y *185:4 6.4000001
*END

*D_NET *186 0.00266217

*CONN
*I *600:Y O *C 98.01 83.16 *L 0 *D INVX1
*I *522:A0 I *C 96.69 88.2 *L 0.00314 *D AOI21XL
*I *505:A0 I *C 90.75 84.28 *L 0.00465 *D AOI21X1

*CAP
1 *600:Y 7.97318e-05
2 *522:A0 0.000139838
3 *505:A0 0.000139838
4 *186:3 0.000284461
5 *186:4 0.000410021
6 *186:5 0.000246161
7 *186:6 0.000471846
8 *186:7 0.00054153
9 *186:8 0.000116842
10 *186:9 0.000116842
11 *186:10 0.000115065

*RES
1 *186:10 *600:Y 0.447656
2 *186:5 *186:10 3.20000005
3 *186:3 *522:A0 3.20000005
4 *186:5 *186:4 0.77998
5 *186:4 *186:3 0.77998
6 *186:6 *186:4 3.20000005
7 *186:7 *186:6 1.65474
8 *186:9 *186:7 3.20000005
9 *186:8 *186:9 0.312012
10 *505:A0 *186:8 3.20000005
*END

*D_NET *187 0.00384874

*CONN
*I *328:A I *C 84.15 97.72 *L 0.00446 *D BUFX3
*I *522:Y O *C 98.01 87.08 *L 0 *D AOI21XL

*CAP
1 *328:A 6.33025e-05
2 *522:Y 0.000139837
3 *187:2 0.000269157
4 *187:3 0.000214414
5 *187:4 0.000421912
6 *187:5 0.00049159
7 *187:6 0.000177568
8 *187:7 0.000177568
9 *187:8 0.000114558
10 *187:9 0.000114558
11 *187:10 0.000207183
12 *187:11 0.000207183
13 *187:12 7.25514e-05
14 *187:6 *124:11 7.053e-05
15 *187:7 *124:12 7.053e-05
16 *187:6 *124:12 1.188e-05
17 *187:7 *124:13 1.188e-05
18 *187:11 *124:3 7.048e-05
19 *187:10 *124:4 7.048e-05
20 *187:11 *124:5 2.034e-05
21 *187:10 *124:6 2.034e-05
22 *187:9 *124:9 3.903e-05
23 *187:8 *124:10 3.90300122e-05
24 *187:6 *84 0.00022272
25 *187:7 *84:9 0.000222719998
26 *187:4 *126:10 0.0001537
27 *187:5 *126:11 0.000153699994

*RES
1 *187:12 *522:Y 3.2
2 *187:3 *187:12 0.183887
3 *187:3 *187:2 0.77998
4 *187:4 *187:2 3.2
5 *187:5 *187:4 2.39014
6 *187:10 *187:5 3.2
7 *187:10 *187:11 1.09199
8 *187:6 *187:11 6.4000001
9 *187:9 *328:A 6.4000001
10 *187:7 *187:6 1.28701
11 *187:8 *187:9 0.624023
12 *187:8 *187:7 6.4000001
*END

*D_NET *188 0.00235365

*CONN
*I *597:Y O *C 112.53 103.32 *L 0 *D INVX1
*I *521:A0 I *C 107.25 103.32 *L 0.00314 *D AOI21XL
*I *511:A0 I *C 104.61 97.16 *L 0.00465 *D AOI21X1

*CAP
1 *597:Y 3.98627e-05
2 *521:A0 6.32967e-05
3 *511:A0 0.000139838
4 *188:3 0.00015044
5 *188:4 0.000127502
6 *188:5 0.000100576
7 *188:6 0.00024522
8 *188:7 0.0003001
9 *188:8 0.00049207
10 *188:9 0.000146243
11 *188:10 7.51902e-05
12 *188:11 5.09227e-05
13 *188:12 0.000422384

*RES
1 *188:10 *597:Y 0.223828
2 *188:11 *188:10 6.4000001
3 *188:9 *521:A0 6.4000001
4 *188:12 *188:11 6.4000001
5 *188:3 *188:9 0.551562
6 *188:8 *188:12 1.83857
7 *188:4 *188:3 0.155957
8 *188:4 *188:8 3.2
9 *188:5 *188:4 0.312012
10 *188:6 *188:5 0.183887
11 *188:7 *188:6 0.936035
12 *511:A0 *188:7 3.2
*END

*D_NET *189 7.972e-05

*CONN
*I *318:A I *C 109.23 103.88 *L 0.00446 *D BUFX3
*I *521:Y O *C 108.57 104.44 *L 0 *D AOI21XL

*CAP
1 *318:A 3.986e-05
2 *521:Y 3.986e-05

*RES
1 *521:Y *318:A 0.223826
*END

*D_NET *190 0.00271479

*CONN
*I *599:Y O *C 117.81 88.2 *L 0 *D INVX1
*I *520:A0 I *C 113.85 83.16 *L 0.00314 *D AOI21XL
*I *512:A0 I *C 108.57 84.28 *L 0.00465 *D AOI21X1

*CAP
1 *599:Y 0.000139838
2 *520:A0 6.32976e-05
3 *512:A0 0.000139838
4 *190:3 0.0005809
5 *190:4 0.000342318
6 *190:5 0.000136257
7 *190:6 0.000205937
8 *190:7 0.000255335
9 *190:8 8.37379e-05
10 *190:9 0.000153418
11 *190:10 5.09235e-05
12 *190:11 0.000120603
13 *190:12 0.000188031
14 *190:13 6.63202e-05
15 *190:14 0.000188031

*RES
1 *190:10 *520:A0 6.4000001
2 *190:11 *190:10 6.4000001
3 *190:12 *190:11 3.2
4 *190:5 *599:Y 3.2
5 *190:12 *190:14 0.467969
6 *190:6 *190:5 0.467969
7 *190:13 *190:14 3.2
8 *190:7 *190:6 3.2
9 *190:13 *190:3 0.155957
10 *190:3 *190:7 1.10312
11 *190:4 *190:3 1.4709
12 *190:9 *190:4 3.2
13 *190:8 *190:9 0.312012
14 *512:A0 *190:8 3.2
*END

*D_NET *191 0.00230026

*CONN
*I *329:A I *C 110.55 97.72 *L 0.00446 *D BUFX3
*I *520:Y O *C 115.17 84.28 *L 0 *D AOI21XL

*CAP
1 *329:A 6.32988e-05
2 *520:Y 3.7302e-05
3 *191:2 0.000187469
4 *191:3 0.000202086
5 *191:4 0.000450719
6 *191:5 0.00049098
7 *191:6 0.000201052
8 *191:7 0.000201052
9 *191:8 0.000109067
10 *191:9 0.000123871
11 *191:10 5.09148e-05
12 *191:11 9.02396e-05
13 *191:12 9.221e-05

*RES
1 *520:Y *191:12 0.189941
2 *191:11 *191:12 0.223828
3 *191:3 *191:11 3.2
4 *191:3 *191:2 0.467969
5 *191:5 *191:2 0.367676
6 *191:5 *191:4 2.496
7 *191:4 *191:9 0.183887
8 *191:9 *191:8 0.624023
9 *191:6 *191:8 6.4000001
10 *191:7 *191:6 0.735449
11 *191:10 *191:7 6.4000001
12 *329:A *191:10 6.4000001
*END

*D_NET *192 0.0014238

*CONN
*I *588:Y O *C 69.63 83.16 *L 0 *D INVX1
*I *519:A0 I *C 66.99 78.12 *L 0.00314 *D AOI21XL
*I *509:A0 I *C 70.29 77 *L 0.00465 *D AOI21X1

*CAP
1 *588:Y 3.98611e-05
2 *519:A0 6.32986e-05
3 *509:A0 0.000139838
4 *192:3 0.00031036
5 *192:4 0.000240678
6 *192:5 5.09192e-05
7 *192:6 0.00017601
8 *192:7 0.000245688
9 *192:8 7.99875e-05
10 *192:9 7.71602e-05

*RES
1 *588:Y *192:9 0.223828
2 *192:8 *192:9 0.189941
3 *192:3 *192:8 3.2
4 *192:4 *509:A0 3.2
5 *192:4 *192:3 1.09199
6 *192:7 *192:4 3.2
7 *192:6 *192:7 0.919238
8 *192:5 *192:6 6.4000001
9 *519:A0 *192:5 6.4000001
*END

*D_NET *193 0.00454747

*CONN
*I *331:A I *C 59.07 93.8 *L 0.00446 *D BUFX3
*I *519:Y O *C 68.31 77 *L 0 *D AOI21XL

*CAP
1 *331:A 6.32944e-05
2 *519:Y 0.000139843
3 *193:2 0.000325655
4 *193:3 0.000395331
5 *193:4 0.000103331
6 *193:5 0.000147311
7 *193:6 0.000217084
8 *193:7 0.0001474
9 *193:8 0.0005274
10 *193:9 0.0005274
11 *193:10 0.000167165
12 *193:11 0.000167165
13 *193:12 0.000143577
14 *193:13 0.000187558
15 *193:14 0.000486043
16 *193:15 0.000486043
17 *193:10 *125:8 0.00015794
18 *193:11 *125:9 0.000157940002

*RES
1 *193:7 *519:Y 3.2
2 *193:7 *193:6 0.624023
3 *193:4 *193:6 3.2
4 *193:15 *331:A 6.4000001
5 *193:5 *193:4 0.551562
6 *193:14 *193:15 2.18398
7 *193:8 *193:5 0.312012
8 *193:10 *193:14 6.4000001
9 *193:9 *193:8 2.39014
10 *193:11 *193:10 0.919238
11 *193:9 *193:13 0.312012
12 *193:2 *193:11 6.4000001
13 *193:12 *193:13 0.551562
14 *193:3 *193:2 1.404
15 *193:3 *193:12 3.2
*END

*D_NET *194 0.00204393

*CONN
*I *602:Y O *C 96.03 108.36 *L 0 *D INVX1
*I *518:A0 I *C 92.07 108.36 *L 0.00314 *D AOI21XL
*I *508:A0 I *C 94.71 104.44 *L 0.00465 *D AOI21X1

*CAP
1 *602:Y 8.0662e-05
2 *518:A0 0.00013984
3 *508:A0 0.00013984
4 *194:3 0.00045891
5 *194:4 0.000310394
6 *194:5 0.000144343
7 *194:6 0.000279919
8 *194:7 0.000192534
9 *194:8 0.000297502

*RES
1 *194:4 *508:A0 3.20000005
2 *194:7 *602:Y 0.447656
3 *194:4 *194:3 1.248
4 *194:3 *194:7 3.20000005
5 *194:3 *194:8 0.624023
6 *194:6 *194:8 0.735449
7 *194:5 *194:6 0.77998
8 *518:A0 *194:5 3.20000005
*END

*D_NET *195 0.0015857

*CONN
*I *315:A I *C 87.45 107.8 *L 0.00446 *D BUFX3
*I *518:Y O *C 93.39 107.24 *L 0 *D AOI21XL

*CAP
1 *315:A 6.32978e-05
2 *518:Y 0.000139836
3 *195:2 0.000164931
4 *195:3 9.52526e-05
5 *195:4 6.57181e-05
6 *195:5 0.000155318
7 *195:6 0.0002102
8 *195:7 0.00034557
9 *195:8 0.00034557

*RES
1 *195:3 *518:Y 3.2
2 *195:3 *195:2 0.312012
3 *195:8 *195:2 3.2
4 *195:7 *195:8 1.4709
5 *195:6 *195:7 3.2
6 *195:5 *195:6 0.624023
7 *195:4 *195:5 0.183887
8 *315:A *195:4 6.4000001
*END

*D_NET *196 0.00209515

*CONN
*I *587:Y O *C 62.37 78.12 *L 0 *D INVX1
*I *517:A0 I *C 58.41 78.12 *L 0.00314 *D AOI21XL
*I *510:A0 I *C 57.75 74.2 *L 0.00465 *D AOI21X1

*CAP
1 *587:Y 0.000130172
2 *517:A0 6.33013e-05
3 *510:A0 0.000139836
4 *196:3 0.000125811
5 *196:4 0.000140738
6 *196:5 0.00011256
7 *196:6 0.000126925
8 *196:7 0.000343694
9 *196:8 0.00038408
10 *196:9 0.000174092
11 *196:10 0.0001655
12 *196:11 0.00018845

*RES
1 *196:10 *587:Y 0.671484
2 *196:3 *517:A0 6.4000001
3 *196:11 *196:10 3.2
4 *196:4 *196:3 0.467969
5 *196:9 *196:11 0.624023
6 *196:4 *196:8 0.183887
7 *196:8 *196:9 0.367676
8 *196:6 *510:A0 3.2
9 *196:7 *196:8 1.09199
10 *196:5 *196:6 0.155957
11 *196:5 *196:7 0.367676
*END

*D_NET *197 0.00268752

*CONN
*I *332:A I *C 54.45 73.64 *L 0.00446 *D BUFX3
*I *517:Y O *C 59.73 77 *L 0 *D AOI21XL

*CAP
1 *332:A 6.32992e-05
2 *517:Y 0.00013984
3 *197:2 0.00029892
4 *197:3 0.000229243
5 *197:4 6.67218e-05
6 *197:5 6.67218e-05
7 *197:6 0.000292011
8 *197:7 0.000292011
9 *197:8 0.000134814
10 *197:9 0.000142907
11 *197:10 0.00031951875
12 *197:11 0.00031951875
13 *197:12 0.000139592
14 *197:13 0.000131489
15 *197:14 5.09202e-05

*RES
1 *197:3 *517:Y 3.2
2 *197:3 *197:2 0.936035
3 *197:6 *197:2 3.2
4 *197:7 *197:6 1.28701
5 *197:8 *197:7 6.4000001
6 *197:9 *197:8 0.467969
7 *197:9 *197:10 0.183887
8 *197:11 *197:10 1.404
9 *197:12 *197:11 0.183887
10 *197:13 *197:12 0.467969
11 *197:4 *197:13 6.4000001
12 *197:5 *197:4 0.183887
13 *197:14 *197:5 6.4000001
14 *332:A *197:14 6.4000001
*END

*D_NET *198 0.00251458

*CONN
*I *591:Y O *C 73.59 42.84 *L 0 *D INVX1
*I *516:A0 I *C 66.33 52.92 *L 0.00314 *D AOI21XL
*I *500:A0 I *C 73.59 54.04 *L 0.00465 *D AOI21X1

*CAP
1 *591:Y 0.000139842
2 *516:A0 6.33017e-05
3 *500:A0 0.000139842
4 *198:3 5.09213e-05
5 *198:4 0.000107886
6 *198:5 0.000333314
7 *198:6 0.000117151
8 *198:7 0.000333314
9 *198:8 9.10803e-05
10 *198:9 0.00049322
11 *198:10 0.00049322
12 *198:11 0.000151499

*RES
1 *198:9 *591:Y 3.2
2 *198:10 *500:A0 3.2
3 *198:9 *198:10 2.496
4 *198:11 *198:10 3.2
5 *198:8 *198:11 0.367676
6 *198:7 *198:8 0.155957
7 *198:5 *198:7 1.28701
8 *198:5 *198:6 0.155957
9 *198:4 *198:6 0.367676
10 *198:3 *198:4 6.4000001
11 *516:A0 *198:3 6.4000001
*END

*D_NET *199 0.00432764

*CONN
*I *313:A I *C 53.79 37.24 *L 0.00446 *D BUFX3
*I *516:Y O *C 67.65 54.04 *L 0 *D AOI21XL

*CAP
1 *313:A 6.32944e-05
2 *516:Y 0.000132912
3 *199:2 0.00049382
4 *199:3 0.000502517
5 *199:4 0.000252267
6 *199:5 0.00028643
7 *199:6 5.09308e-05
8 *199:7 0.000135114
9 *199:8 0.000177975
10 *199:9 0.00080622
11 *199:10 0.000117276
12 *199:11 0.00080622
13 *199:12 0.0002075
14 *199:11 *171:4 6.082e-05
15 *199:9 *171:5 6.082e-05
16 *199:11 *171:6 2.089e-05
17 *199:9 *171:7 2.089e-05
18 *199:11 *171:8 6.587e-05
19 *199:9 *171:9 6.5870001e-05

*RES
1 *516:Y *199:12 0.671484
2 *199:10 *199:12 0.379785
3 *199:11 *199:10 6.4000001
4 *199:9 *199:11 4.05596
5 *199:2 *199:9 6.4000001
6 *199:3 *199:2 2.39014
7 *199:4 *199:3 0.155957
8 *199:5 *199:4 1.28701
9 *199:5 *199:8 0.312012
10 *199:7 *199:8 0.735449
11 *199:6 *199:7 6.4000001
12 *313:A *199:6 6.4000001
*END

*D_NET *200 0.00671878

*CONN
*I *499:Y O *C 96.03 72.52 *L 0 *D NAND2X1
*I *475:B I *C 77.55 52.92 *L 0.00385 *D NOR2X1
*I *468:A1 I *C 82.83 52.92 *L 0.00472 *D AOI22X1

*CAP
1 *499:Y 0.000139835
2 *475:B 3.73028e-05
3 *468:A1 6.32982e-05
4 *200:3 5.83747e-05
5 *200:4 0.000128069
6 *200:5 0.000258811
7 *200:6 0.000302792
8 *200:7 0.000315054
9 *200:8 0.000204253
10 *200:9 0.00077191
11 *200:10 0.000702228
12 *200:11 0.000373935
13 *200:12 0.000373935
14 *200:13 0.000488152
15 *200:14 0.000543028
16 *200:15 0.000258069
17 *200:16 0.000258069
18 *200:17 9.22853e-05
19 *200:18 7.99884e-05
20 *200:19 0.000120601
21 *200:20 0.000250342
22 *200:21 0.000250342
23 *200:22 0.000140848
24 *200:23 0.000195737
25 *200:24 0.000120601
26 *200:9 *273:5 9.545e-05
27 *200:10 *273:3 9.54500008e-05

*RES
1 *200:24 *499:Y 3.2
2 *200:9 *200:24 3.2
3 *200:10 *200:9 3.12559
4 *200:23 *200:10 3.2
5 *200:22 *200:23 0.467969
6 *200:11 *200:22 0.183887
7 *200:12 *200:11 1.55996
8 *200:12 *200:21 0.183887
9 *200:20 *200:21 0.936035
10 *200:15 *200:20 0.183887
11 *200:16 *200:15 1.24805
12 *200:16 *200:13 0.183887
13 *200:14 *200:13 2.18398
14 *200:3 *468:A1 6.4000001
15 *200:5 *200:14 3.2
16 *200:4 *200:3 0.155957
17 *200:6 *200:5 1.10312
18 *200:17 *200:4 3.2
19 *200:6 *200:7 0.312012
20 *200:7 *200:17 0.367676
21 *200:8 *200:7 1.10312
22 *200:19 *200:8 3.2
23 *200:18 *475:B 0.189941
24 *200:18 *200:19 3.2
*END

*D_NET *201 0.00430313

*CONN
*I *492:Y O *C 78.21 78.68 *L 0 *D NAND2X1
*I *475:A I *C 78.21 53.48 *L 0.0043 *D NOR2X1
*I *468:B1 I *C 80.85 53.48 *L 0.00434 *D AOI22X1

*CAP
1 *492:Y 0.000139838
2 *475:A 6.33001e-05
3 *468:B1 3.98571e-05
4 *201:3 0.00036442
5 *201:4 0.000404808
6 *201:5 0.000120595
7 *201:6 0.000183132
8 *201:7 7.25499e-05
9 *201:8 0.00063276
10 *201:9 0.000592372
11 *201:10 7.51858e-05
12 *201:11 0.000343275
13 *201:12 0.00011345
14 *201:13 0.000328927
15 *201:14 0.000109472
16 *201:15 0.00014986
17 *201:15 *261:11 2.089e-05
18 *201:14 *261:12 2.089e-05
19 *201:9 *261:13 2.026e-05
20 *201:8 *261:14 2.026e-05
21 *201:9 *261:15 0.00024351
22 *201:8 *261:16 0.000243509996

*RES
1 *201:7 *492:Y 3.2
2 *201:7 *201:9 0.183887
3 *201:8 *201:9 3.12002
4 *201:8 *201:15 0.367676
5 *201:14 *201:15 0.624023
6 *201:14 *201:3 0.183887
7 *201:4 *201:3 1.71602
8 *201:10 *468:B1 0.223828
9 *201:13 *201:4 0.367676
10 *201:11 *201:10 3.2
11 *201:11 *201:13 1.09199
12 *201:12 *201:11 3.2
13 *201:6 *201:12 0.551562
14 *201:5 *201:6 3.2
15 *475:A *201:5 6.4000001
*END

*D_NET *202 0.00743943

*CONN
*I *497:Y O *C 105.27 78.68 *L 0 *D NAND2X1
*I *474:B I *C 83.49 47.88 *L 0.00385 *D NOR2X1
*I *470:A1 I *C 88.11 47.88 *L 0.00472 *D AOI22X1

*CAP
1 *497:Y 0.000139844
2 *474:B 0.000139844
3 *470:A1 6.33021e-05
4 *202:3 0.00088266
5 *202:4 0.00088266
6 *202:5 4.95238e-05
7 *202:6 0.000119196
8 *202:7 0.000326315
9 *202:8 0.000396002
10 *202:9 0.000662692
11 *202:10 0.000677319
12 *202:11 0.000120597
13 *202:12 0.000120597
14 *202:13 0.000136019
15 *202:14 0.000190903
16 *202:15 0.000645668
17 *202:16 0.000645668
18 *202:17 0.000378937
19 *202:18 0.00033868
20 *202:3 *291:24 9.281e-05
21 *202:4 *291:17 9.281e-05
22 *202:3 *291:16 0.00013606
23 *202:4 *291:14 0.00013606
24 *202:3 *291:15 2.377e-05
25 *202:4 *291:13 2.377e-05
26 *202:5 *291:23 8.86e-06
27 *202:6 *291:5 8.86000301e-06

*RES
1 *202:5 *497:Y 3.2
2 *202:6 *202:5 0.155957
3 *202:3 *202:6 3.2
4 *202:4 *202:3 4.96416
5 *202:14 *202:4 3.2
6 *202:13 *202:14 0.467969
7 *202:13 *202:16 0.183887
8 *202:15 *202:16 2.96396
9 *202:15 *202:18 0.183887
10 *202:17 *202:18 1.404
11 *202:9 *202:17 0.367676
12 *202:12 *470:A1 6.4000001
13 *202:10 *202:9 3.12002
14 *202:7 *202:12 3.2
15 *202:7 *202:10 3.2
16 *202:8 *202:7 1.28701
17 *202:11 *202:8 3.2
18 *474:B *202:11 3.2
*END

*D_NET *203 0.00448883

*CONN
*I *498:Y O *C 81.51 72.52 *L 0 *D NAND2X1
*I *474:A I *C 84.15 47.32 *L 0.0043 *D NOR2X1
*I *470:B1 I *C 86.13 47.32 *L 0.00434 *D AOI22X1

*CAP
1 *498:Y 6.33057e-05
2 *474:A 6.33057e-05
3 *470:B1 0.000139837
4 *203:3 0.000154452
5 *203:4 0.000171614
6 *203:5 0.000406533
7 *203:6 0.000461581
8 *203:7 0.000861632
9 *203:8 0.0009019
10 *203:9 0.000235401
11 *203:10 0.000184963
12 *203:11 0.000130093
13 *203:12 5.09198e-05
14 *203:13 0.000120597
15 *203:14 6.57141e-05
16 *203:15 7.20447e-05
17 *203:16 0.000235401
18 *203:17 5.72366e-05
19 *203:18 0.000112299

*RES
1 *203:14 *474:A 6.4000001
2 *203:17 *470:B1 3.2
3 *203:14 *203:15 0.183887
4 *203:17 *203:18 0.155957
5 *203:15 *203:4 0.155957
6 *203:4 *203:18 0.367676
7 *203:4 *203:3 0.312012
8 *203:12 *498:Y 6.4000001
9 *203:16 *203:3 3.2
10 *203:13 *203:12 6.4000001
11 *203:9 *203:16 0.919238
12 *203:5 *203:13 3.2
13 *203:10 *203:9 3.2
14 *203:6 *203:5 2.18398
15 *203:10 *203:11 0.467969
16 *203:8 *203:6 0.367676
17 *203:7 *203:11 0.183887
18 *203:7 *203:8 4.36797
*END

*D_NET *204 0.00389429

*CONN
*I *490:Y O *C 108.57 62.44 *L 0 *D NAND2X1
*I *473:B I *C 98.67 52.92 *L 0.00385 *D NOR2X1
*I *469:A1 I *C 96.69 52.92 *L 0.00472 *D AOI22X1

*CAP
1 *490:Y 0.000139844
2 *473:B 3.98417e-05
3 *469:A1 6.33023e-05
4 *204:3 0.00050212
5 *204:4 0.000494458
6 *204:5 9.8769e-05
7 *204:6 0.000168454
8 *204:7 0.000340876
9 *204:8 0.00034116
10 *204:9 0.00010699
11 *204:10 7.51705e-05
12 *204:11 0.00018262
13 *204:12 9.88916e-05
14 *204:13 7.19908e-05
15 *204:14 8.03729e-05
16 *204:7 *285:18 0.00021636
17 *204:8 *285:19 0.00021636
18 *204:14 *285:18 3.79e-05
19 *204:13 *285:19 3.79e-05
20 *204:12 *285:19 3.753e-05
21 *204:9 *285:20 3.75299967e-05
22 *204:7 *283:11 0.00014782
23 *204:8 *283:12 0.00014782
24 *204:14 *283:11 9.515e-05
25 *204:13 *283:12 9.515e-05
26 *204:5 *283:13 9.96e-06
27 *204:6 *283:14 9.96000747e-06

*RES
1 *204:5 *490:Y 3.2
2 *204:6 *204:5 0.467969
3 *204:14 *204:6 3.2
4 *204:13 *204:14 0.551562
5 *204:13 *204:7 0.0780273
6 *204:8 *204:7 2.39014
7 *204:12 *204:8 0.0780273
8 *204:10 *473:B 0.223828
9 *204:9 *204:12 0.551562
10 *204:11 *204:10 3.2
11 *204:3 *204:9 3.2
12 *204:4 *204:11 0.367676
13 *204:4 *204:3 2.18398
14 *469:A1 *204:4 6.4000001
*END

*D_NET *205 0.00360684

*CONN
*I *480:Y O *C 98.67 68.6 *L 0 *D NAND2X1
*I *473:A I *C 99.33 53.48 *L 0.0043 *D NOR2X1
*I *469:B1 I *C 94.71 53.48 *L 0.00434 *D AOI22X1

*CAP
1 *480:Y 0.000139841
2 *473:A 6.32961e-05
3 *469:B1 0.000139841
4 *205:3 0.000372175
5 *205:4 0.000326132
6 *205:5 0.000138633
7 *205:6 6.89497e-05
8 *205:7 0.000125941
9 *205:8 0.000125941
10 *205:9 6.96081e-05
11 *205:10 6.96081e-05
12 *205:11 0.000127882
13 *205:12 0.000182762
14 *205:13 0.00044479
15 *205:14 0.00044479
16 *205:15 0.000120599
17 *205:16 5.94411e-05
18 *205:17 0.00026587
19 *205:18 0.00032075

*RES
1 *205:15 *480:Y 3.2
2 *205:10 *205:15 3.2
3 *205:10 *205:9 0.183887
4 *205:18 *205:9 3.2
5 *205:17 *205:18 1.09199
6 *205:17 *205:13 0.183887
7 *205:14 *205:13 2.02803
8 *205:11 *205:14 0.183887
9 *205:6 *473:A 6.4000001
10 *205:12 *205:11 0.467969
11 *205:6 *205:5 0.155957
12 *205:16 *205:12 3.2
13 *205:3 *205:5 3.2
14 *205:3 *205:16 0.183887
15 *205:4 *205:3 1.28701
16 *205:7 *205:4 3.2
17 *205:8 *205:7 0.155957
18 *469:B1 *205:8 3.2
*END

*D_NET *206 0.00113417

*CONN
*I *478:Y O *C 101.97 48.44 *L 0 *D NAND2X1
*I *472:B I *C 98.67 47.88 *L 0.00385 *D NOR2X1
*I *471:A1 I *C 96.69 47.88 *L 0.00472 *D AOI22X1

*CAP
1 *478:Y 4.17003e-05
2 *472:B 0.000114428
3 *471:A1 6.32985e-05
4 *206:3 0.000112679
5 *206:4 7.51717e-05
6 *206:5 0.000182361
7 *206:6 0.00025141
8 *206:7 7.90003e-05
9 *206:8 0.000214121

*RES
1 *206:7 *478:Y 0.223828
2 *206:7 *206:8 0.189941
3 *206:6 *206:8 0.895312
4 *472:B *206:6 0.379785
5 *206:4 *472:B 0.223828
6 *206:5 *206:4 3.2
7 *206:3 *206:5 0.367676
8 *471:A1 *206:3 6.4000001
*END

*D_NET *207 0.00489782

*CONN
*I *482:Y O *C 83.49 62.44 *L 0 *D NAND2X1
*I *472:A I *C 99.33 47.32 *L 0.0043 *D NOR2X1
*I *471:B1 I *C 94.71 47.32 *L 0.00434 *D AOI22X1

*CAP
1 *482:Y 6.32995e-05
2 *472:A 6.32995e-05
3 *471:B1 0.000139837
4 *207:3 0.000315311
5 *207:4 0.000245633
6 *207:5 0.000181955
7 *207:6 0.000181955
8 *207:7 0.00029366
9 *207:8 0.000363338
10 *207:9 0.000229491
11 *207:10 0.00029917
12 *207:11 0.00066995
13 *207:12 0.000660688
14 *207:13 0.00059651
15 *207:14 0.000526831
16 *207:15 6.68774e-05

*RES
1 *207:4 *472:A 6.4000001
2 *207:6 *471:B1 3.2
3 *207:4 *207:3 0.936035
4 *207:6 *207:5 0.936035
5 *207:7 *207:3 3.2
6 *207:8 *207:5 3.2
7 *207:8 *207:7 1.28701
8 *207:14 *207:8 3.2
9 *207:14 *207:13 2.34004
10 *207:15 *207:13 3.2
11 *207:15 *207:11 0.155957
12 *207:12 *207:11 2.9417
13 *207:9 *482:Y 6.4000001
14 *207:10 *207:12 3.2
15 *207:10 *207:9 0.77998
*END

*D_NET *208 0.0014683

*CONN
*I *471:Y O *C 96.69 48.44 *L 0 *D AOI22X1
*I *455:A1 I *C 92.73 47.88 *L 0.00456 *D OAI22X1

*CAP
1 *471:Y 0.000139842
2 *455:A1 0.000139842
3 *208:2 0.000124802
4 *208:3 0.000124802
5 *208:4 0.000200059
6 *208:5 0.00026945
7 *208:6 0.000200059
8 *208:7 0.00026945

*RES
1 *208:2 *471:Y 3.20000005
2 *208:3 *208:2 0.156006
3 *208:7 *208:3 3.20000005
4 *208:6 *455:A1 3.20000005
5 *208:5 *208:7 1.28701
6 *208:4 *208:6 0.468018
7 *208:4 *208:5 3.20000005
*END

*D_NET *209 0.0001594

*CONN
*I *470:Y O *C 88.11 48.44 *L 0 *D AOI22X1
*I *455:B1 I *C 90.09 47.88 *L 0.00419 *D OAI22X1

*CAP
1 *470:Y 7.97e-05
2 *455:B1 7.97e-05

*RES
1 *470:Y *455:B1 0.447652
*END

*D_NET *210 0.0007958

*CONN
*I *469:Y O *C 96.69 52.36 *L 0 *D AOI22X1
*I *453:A1 I *C 92.73 52.92 *L 0.00456 *D OAI22X1

*CAP
1 *469:Y 6.33011e-05
2 *453:A1 0.00013984
3 *210:2 0.0001206
4 *210:3 0.00021057
5 *210:4 5.09211e-05
6 *210:5 0.00021057

*RES
1 *210:4 *469:Y 6.4000001
2 *210:5 *210:4 6.4000001
3 *210:3 *210:5 1.10312
4 *210:2 *210:3 3.2
5 *453:A1 *210:2 3.2
*END

*D_NET *211 0.00146235

*CONN
*I *468:Y O *C 82.83 52.36 *L 0 *D AOI22X1
*I *453:B1 I *C 90.09 52.92 *L 0.00419 *D OAI22X1

*CAP
1 *468:Y 0.000139837
2 *453:B1 0.000139837
3 *211:2 7.04892e-05
4 *211:3 7.04892e-05
5 *211:4 0.000120599
6 *211:5 0.00042571
7 *211:6 0.00049539

*RES
1 *211:2 *453:B1 3.20000005
2 *211:3 *211:2 0.156006
3 *211:6 *211:3 3.20000005
4 *211:5 *211:6 1.83857
5 *211:4 *211:5 3.20000005
6 *468:Y *211:4 3.20000005
*END

*D_NET *212 0.00331852

*CONN
*I *473:Y O *C 99.99 52.92 *L 0 *D NOR2X1
*I *467:B I *C 96.03 37.24 *L 0.00375 *D NAND2X1
*I *465:A I *C 99.33 43.4 *L 0.00377 *D MXI2X1

*CAP
1 *473:Y 0.000139843
2 *467:B 0.000139843
3 *465:A 0.000139843
4 *212:3 0.000585871
5 *212:4 0.000626
6 *212:5 0.000139843
7 *212:6 0.000278999
8 *212:7 0.000294951
9 *212:8 0.000335214
10 *212:9 0.000164268
11 *212:10 0.00013863
12 *212:11 0.000262684
13 *212:12 7.25486e-05

*RES
1 *212:12 *473:Y 3.20000005
2 *212:12 *212:3 0.183838
3 *212:4 *212:3 2.18398
4 *212:5 *212:4 0.367725
5 *212:6 *465:A 3.20000005
6 *212:6 *212:5 0.312012
7 *212:11 *212:6 0.935986
8 *212:7 *212:11 0.367725
9 *212:10 *467:B 3.20000005
10 *212:8 *212:7 0.935986
11 *212:9 *212:10 0.156006
12 *212:9 *212:8 0.551562
*END

*D_NET *213 0.0020248

*CONN
*I *472:Y O *C 99.99 47.88 *L 0 *D NOR2X1
*I *467:A I *C 96.69 37.8 *L 0.00403 *D NAND2X1
*I *465:B I *C 96.69 43.4 *L 0.00389 *D MXI2X1

*CAP
1 *472:Y 0.000139837
2 *467:A 6.33017e-05
3 *465:B 0.000139837
4 *213:3 0.000280738
5 *213:4 0.000366378
6 *213:5 0.000274884
7 *213:6 0.00043299
8 *213:7 0.000326829

*RES
1 *213:7 *472:Y 3.2
2 *213:6 *213:7 0.77998
3 *213:5 *213:6 0.919238
4 *213:4 *465:B 3.2
5 *213:4 *213:5 0.467969
6 *213:3 *213:4 1.55996
7 *467:A *213:3 6.4000001
*END

*D_NET *214 0.00292374

*CONN
*I *475:Y O *C 78.87 52.92 *L 0 *D NOR2X1
*I *466:B I *C 84.81 37.24 *L 0.00375 *D NAND2X1
*I *464:A I *C 82.17 43.4 *L 0.00377 *D MXI2X1

*CAP
1 *475:Y 8.06655e-05
2 *466:B 3.98558e-05
3 *464:A 7.97271e-05
4 *214:3 0.000453382
5 *214:4 0.000115992
6 *214:5 0.00050826
7 *214:6 0.000115061
8 *214:7 0.000134179
9 *214:8 0.000271933
10 *214:9 0.000271933
11 *214:10 7.51901e-05
12 *214:11 0.000182356
13 *214:12 0.000114449
14 *214:13 0.000114449
15 *214:9 *312:6 0.00014314
16 *214:8 *312:7 0.00014314
17 *214:5 *312:8 8.86e-06
18 *214:3 *312:9 8.86e-06
19 *214:5 *312:9 3.116e-05
20 *214:3 *312:10 3.11599956e-05

*RES
1 *214:12 *466:B 0.223828
2 *214:12 *214:13 0.379834
3 *214:10 *214:13 0.223828
4 *214:11 *214:10 3.20000005
5 *214:8 *214:11 0.367725
6 *214:6 *464:A 0.447656
7 *214:8 *214:9 1.404
8 *214:7 *214:6 3.20000005
9 *214:7 *214:9 0.367725
10 *214:3 *214:7 0.183838
11 *214:3 *214:5 2.496
12 *214:4 *214:5 3.20000005
13 *475:Y *214:4 0.447656
*END

*D_NET *215 0.00176349

*CONN
*I *474:Y O *C 84.81 47.88 *L 0 *D NOR2X1
*I *466:A I *C 85.47 37.8 *L 0.00403 *D NAND2X1
*I *464:B I *C 84.81 43.4 *L 0.00389 *D MXI2X1

*CAP
1 *474:Y 4.12076e-05
2 *466:A 0.000139841
3 *464:B 0.000139841
4 *215:3 0.000123312
5 *215:4 0.000241228
6 *215:5 0.000160921
7 *215:6 0.00031831
8 *215:7 0.00026343
9 *215:8 9.85603e-05
10 *215:9 0.000153081
11 *215:10 8.37607e-05

*RES
1 *474:Y *215:9 0.223828
2 *215:10 *215:9 3.20000005
3 *215:8 *215:10 0.312012
4 *215:6 *466:A 3.20000005
5 *215:5 *215:8 0.183838
6 *215:6 *215:7 1.09199
7 *215:4 *464:B 3.20000005
8 *215:4 *215:5 0.624023
9 *215:3 *215:7 0.183838
10 *215:3 *215:4 0.468018
*END

*D_NET *216 0.00143262

*CONN
*I *465:Y O *C 98.01 43.96 *L 0 *D MXI2X1
*I *456:A1 I *C 91.41 42.84 *L 0.00472 *D AOI22X1

*CAP
1 *465:Y 0.000139838
2 *456:A1 6.32982e-05
3 *216:2 8.91922e-05
4 *216:3 8.91922e-05
5 *216:4 6.05023e-05
6 *216:5 0.00013018
7 *216:6 0.00046505
8 *216:7 0.000395372

*RES
1 *216:4 *465:Y 3.2
2 *216:5 *216:4 0.155957
3 *216:7 *216:5 3.2
4 *216:2 *456:A1 6.4000001
5 *216:6 *216:7 1.83857
6 *216:3 *216:2 0.312012
7 *216:3 *216:6 3.2
*END

*D_NET *217 0.00126827

*CONN
*I *464:Y O *C 83.49 43.96 *L 0 *D MXI2X1
*I *456:B1 I *C 89.43 43.4 *L 0.00434 *D AOI22X1

*CAP
1 *464:Y 0.000139841
2 *456:B1 0.000119589
3 *217:2 0.000120601
4 *217:3 0.000243
5 *217:4 0.00012366
6 *217:5 0.000243
7 *217:6 0.000154922
8 *217:7 0.00012366

*RES
1 *217:6 *456:B1 0.671484
2 *217:7 *217:6 3.20000005
3 *217:4 *217:7 0.156006
4 *217:5 *217:4 3.20000005
5 *217:3 *217:5 1.10312
6 *217:2 *217:3 3.20000005
7 *464:Y *217:2 3.20000005
*END

*D_NET *218 0.00287843

*CONN
*I *466:Y O *C 85.47 38.36 *L 0 *D NAND2X1
*I *463:A1 I *C 96.03 33.32 *L 0.00324 *D OAI21XL
*I *462:A1N I *C 92.73 32.2 *L 0.00148 *D OAI2BB1X1

*CAP
1 *466:Y 0.000139842
2 *463:A1 0.000139842
3 *462:A1N 7.9733e-05
4 *218:3 0.000322958
5 *218:4 0.000253277
6 *218:5 0.000278684
7 *218:6 0.000278684
8 *218:7 0.000300409
9 *218:8 0.00037009
10 *218:9 0.00010209
11 *218:10 0.00010209
12 *218:11 6.80094e-05
13 *218:12 6.80094e-05
14 *218:13 0.000115062
15 *218:7 *116:10 3.678e-05
16 *218:8 *116:11 3.678e-05
17 *218:3 *116:8 8.271e-05
18 *218:4 *116:9 8.271e-05
19 *218:9 *116:4 1.034e-05
20 *218:10 *116:5 1.03400009e-05

*RES
1 *218:11 *463:A1 3.20000005
2 *218:12 *218:11 0.156006
3 *218:3 *218:12 3.20000005
4 *218:13 *462:A1N 0.447656
5 *218:4 *218:3 1.28701
6 *218:6 *218:13 3.20000005
7 *218:6 *218:4 3.20000005
8 *218:6 *218:5 0.935986
9 *218:7 *218:5 3.20000005
10 *218:8 *218:7 1.47085
11 *218:9 *466:Y 3.20000005
12 *218:10 *218:8 3.20000005
13 *218:10 *218:9 0.312012
*END

*D_NET *219 0.00230113

*CONN
*I *467:Y O *C 96.69 38.36 *L 0 *D NAND2X1
*I *463:A0 I *C 96.69 33.32 *L 0.00336 *D OAI21XL
*I *462:B0 I *C 94.05 32.76 *L 0.00343 *D OAI2BB1X1

*CAP
1 *467:Y 0.00016131
2 *463:A0 6.3302e-05
3 *462:B0 0.000139841
4 *219:3 0.00025801
5 *219:4 0.00038953
6 *219:5 0.00018244
7 *219:6 0.000133303
8 *219:7 0.000133303
9 *219:8 0.000171468
10 *219:9 0.000101788
11 *219:10 7.99923e-05
12 *219:11 0.000198608
13 *219:6 *286:17 0.00012676
14 *219:7 *286:18 0.00012676
15 *219:8 *286:26 1.736e-05
16 *219:9 *286:25 1.73599961e-05

*RES
1 *219:9 *463:A0 6.4000001
2 *219:9 *219:8 0.467969
3 *219:11 *467:Y 0.895312
4 *219:6 *219:8 3.2
5 *219:10 *219:11 0.189941
6 *219:7 *219:6 0.735449
7 *219:3 *219:10 3.2
8 *219:4 *219:7 3.2
9 *219:4 *219:3 0.77998
10 *219:5 *219:4 0.624023
11 *462:B0 *219:5 3.2
*END

*D_NET *220 0.000638989

*CONN
*I *459:Y O *C 100.65 36.68 *L 0 *D NAND2XL
*I *454:D I *C 103.95 36.68 *L 0.00184 *D DFFRHQX1

*CAP
1 *459:Y 8.24001e-05
2 *454:D 6.3299e-05
3 *220:2 0.000117729
4 *220:3 0.00022262
5 *220:4 0.000152941

*RES
1 *220:4 *454:D 6.4000001
2 *220:3 *220:4 0.551562
3 *220:2 *220:3 3.2
4 *459:Y *220:2 0.447656
*END

*D_NET *221 0.00265617

*CONN
*I *461:Y O *C 90.09 32.76 *L 0 *D INVX1
*I *458:A I *C 78.87 32.76 *L 0.00319 *D AND2X2
*I *451:A0N I *C 74.91 32.2 *L 0.00247 *D AOI2BB1XL

*CAP
1 *461:Y 0.000119584
2 *458:A 0.00013984
3 *451:A0N 0.00013984
4 *221:3 5.626e-05
5 *221:4 0.000125941
6 *221:5 0.000108302
7 *221:6 0.000116997
8 *221:7 0.00030113
9 *221:8 0.000120602
10 *221:9 0.00068076
11 *221:10 0.000471406
12 *221:11 0.000154923
13 *221:12 0.000120602

*RES
1 *221:11 *461:Y 0.671484
2 *221:12 *221:11 3.20000005
3 *221:5 *221:12 3.20000005
4 *221:6 *221:5 0.367725
5 *221:8 *458:A 3.20000005
6 *221:6 *221:10 0.156006
7 *221:9 *221:8 3.20000005
8 *221:9 *221:10 2.2063
9 *221:7 *221:9 1.10312
10 *221:3 *221:7 3.20000005
11 *221:4 *221:3 0.156006
12 *451:A0N *221:4 3.20000005
*END

*D_NET *222 0.00144783

*CONN
*I *457:Y O *C 125.07 33.32 *L 0 *D OAI2BB2XL
*I *452:D I *C 120.45 26.6 *L 0.00184 *D DFFRHQX1

*CAP
1 *457:Y 6.3297e-05
2 *452:D 6.3297e-05
3 *222:2 0.000267022
4 *222:3 0.00059489
5 *222:4 0.000393598
6 *222:5 6.57207e-05

*RES
1 *222:5 *457:Y 6.4000001
2 *222:4 *222:5 0.183887
3 *222:3 *222:4 1.71602
4 *222:2 *222:3 1.10312
5 *452:D *222:2 6.4000001
*END

*D_NET *223 0.00218263

*CONN
*I *455:Y O *C 91.41 49 *L 0 *D OAI22X1
*I *432:A1 I *C 90.75 57.96 *L 0.00472 *D AOI22X1

*CAP
1 *455:Y 9.00143e-05
2 *432:A1 6.33005e-05
3 *223:2 0.000160326
4 *223:3 0.000230006
5 *223:4 0.000164043
6 *223:5 0.000233723
7 *223:6 8.82987e-05
8 *223:7 8.82987e-05
9 *223:8 0.00040591
10 *223:9 0.00033623
11 *223:10 0.00020188
12 *223:11 0.000120599

*RES
1 *223:2 *432:A1 6.4000001
2 *223:3 *223:2 0.624023
3 *223:6 *223:3 3.2
4 *223:7 *223:6 0.183887
5 *223:8 *223:7 3.2
6 *223:9 *223:8 1.404
7 *223:11 *223:9 3.2
8 *223:4 *223:11 3.2
9 *223:5 *223:4 0.467969
10 *223:10 *223:5 3.2
11 *223:10 *455:Y 0.447656
*END

*D_NET *224 0.00160145

*CONN
*I *453:Y O *C 91.41 51.8 *L 0 *D OAI22X1
*I *432:B1 I *C 88.77 57.4 *L 0.00434 *D AOI22X1

*CAP
1 *453:Y 0.00012676
2 *432:B1 0.000139838
3 *224:2 0.000284679
4 *224:3 0.00033943
5 *224:4 0.000238629
6 *224:5 0.000142231
7 *224:3 *284:8 8.193e-05
8 *224:2 *284:9 8.193e-05
9 *224:3 *284:9 8.301e-05
10 *224:2 *284:10 8.30100032e-05

*RES
1 *224:4 *453:Y 0.671484
2 *224:3 *432:B1 3.20000005
3 *224:5 *224:4 3.20000005
4 *224:2 *224:3 1.56001
5 *224:2 *224:5 0.183838
*END

*D_NET *225 0.00265272

*CONN
*I *451:Y O *C 77.55 31.64 *L 0 *D AOI2BB1XL
*I *447:D I *C 60.39 33.88 *L 0.00184 *D DFFRHQX1

*CAP
1 *451:Y 0.000139845
2 *447:D 6.3288e-05
3 *225:2 0.000222276
4 *225:3 0.000152607
5 *225:4 0.00097705
6 *225:5 0.00097705
7 *225:6 0.000120598

*RES
1 *225:3 *451:Y 3.2
2 *225:3 *225:2 0.624023
3 *225:4 *225:2 3.2
4 *225:5 *225:4 4.78027
5 *225:6 *225:5 3.2
6 *447:D *225:6 6.4000001
*END

*D_NET *226 0.00236361

*CONN
*I *458:Y O *C 80.85 32.2 *L 0 *D AND2X2
*I *451:B0 I *C 76.23 32.2 *L 0.00314 *D AOI2BB1XL
*I *450:A I *C 77.55 27.72 *L 0.00403 *D NAND2X1
*I *446:A0 I *C 73.59 27.16 *L 0.00336 *D OAI21XL

*CAP
1 *458:Y 0.00013984
2 *451:B0 6.32983e-05
3 *450:A 0.00013984
4 *446:A0 0.00013984
5 *226:4 0.000262883
6 *226:5 0.00018956
7 *226:6 0.000274785
8 *226:7 0.00046762
9 *226:8 8.57678e-05
10 *226:9 0.00018236
11 *226:10 0.000273344
12 *226:11 7.20392e-05
13 *226:12 7.24174e-05

*RES
1 *226:12 *458:Y 3.2
2 *226:11 *226:12 0.183887
3 *226:8 *451:B0 6.4000001
4 *226:10 *226:11 0.155957
5 *226:9 *450:A 3.2
6 *226:7 *226:8 0.467969
7 *226:7 *226:10 1.10312
8 *226:6 *226:9 0.367676
9 *226:6 *226:7 0.77998
10 *226:5 *226:6 0.155957
11 *226:4 *226:5 0.735449
12 *446:A0 *226:4 3.2
*END

*D_NET *227 0.0041558

*CONN
*I *582:Y O *C 86.79 33.88 *L 0 *D MXI2X1
*I *465:S0 I *C 96.03 42.84 *L 0.00672 *D MXI2X1
*I *464:S0 I *C 85.47 42.84 *L 0.00672 *D MXI2X1
*I *449:B1 I *C 90.09 37.8 *L 0.00444 *D OAI2BB2X1
*I *449:A0N I *C 88.11 37.24 *L 0.00186 *D OAI2BB2X1

*CAP
1 *582:Y 0.00013984
2 *465:S0 0.00013984
3 *464:S0 0.00013984
4 *449:B1 6.32999e-05
5 *449:A0N 7.97291e-05
6 *227:5 0.000287748
7 *227:6 0.000287748
8 *227:7 0.000124969
9 *227:8 0.000116866
10 *227:9 0.000248894
11 *227:10 0.000354819
12 *227:11 0.000252414
13 *227:12 0.000363066
14 *227:13 0.000432751797
15 *227:14 0.000142098
16 *227:15 0.000115064
17 *227:16 6.99231e-05
18 *227:17 0.000426063
19 *227:18 0.000250221
20 *227:19 0.000120597

*RES
1 *227:19 *465:S0 3.2
2 *227:12 *227:19 3.2
3 *227:8 *449:B1 6.4000001
4 *227:13 *227:12 1.83857
5 *227:15 *449:A0N 0.447656
6 *227:11 *582:Y 3.2
7 *227:8 *227:7 0.312012
8 *227:18 *227:13 3.2
9 *227:10 *227:15 3.2
10 *227:11 *227:10 0.936035
11 *227:17 *227:7 0.183887
12 *227:17 *227:18 1.09199
13 *227:10 *227:9 0.467969
14 *227:9 *227:17 0.735449
15 *227:9 *227:16 0.155957
16 *227:6 *227:16 0.183887
17 *227:6 *227:5 0.936035
18 *227:14 *227:5 0.183887
19 *464:S0 *227:14 3.2
*END

*D_NET *228 0.00166224

*CONN
*I *456:Y O *C 91.41 42.28 *L 0 *D AOI22X1
*I *449:B0 I *C 90.75 37.24 *L 0.00464 *D OAI2BB2X1
*I *449:A1N I *C 88.77 37.8 *L 0.00219 *D OAI2BB2X1

*CAP
1 *456:Y 0.000139839
2 *449:B0 0.000139839
3 *449:A1N 0.000139839
4 *228:3 0.000142099
5 *228:4 0.00011344
6 *228:5 7.31805e-05
7 *228:6 0.00025367
8 *228:7 0.00024697
9 *228:8 0.000199371
10 *228:9 0.000213991

*RES
1 *228:9 *456:Y 3.20000005
2 *228:8 *228:9 0.468018
3 *228:7 *228:8 0.367725
4 *228:6 *449:B0 3.20000005
5 *228:6 *228:7 0.935986
6 *228:4 *228:6 0.367725
7 *228:4 *228:5 0.156006
8 *228:3 *228:5 0.183838
9 *449:A1N *228:3 3.20000005
*END

*D_NET *229 0.00312163

*CONN
*I *604:B I *C 80.85 37.24 *L 0.00389 *D MXI2X1
*I *603:Y O *C 82.83 32.76 *L 0 *D INVX1
*I *582:B I *C 85.47 33.32 *L 0.00389 *D MXI2X1
*I *448:B I *C 80.19 27.72 *L 0.00385 *D NOR2X1
*I *442:A1 I *C 82.83 27.16 *L 0.00314 *D AOI21XL

*CAP
1 *604:B 0.00013984
2 *603:Y 0.000119593
3 *582:B 0.00013984
4 *448:B 7.45896e-05
5 *442:A1 3.98586e-05
6 *229:5 0.00036605
7 *229:6 0.000311172
8 *229:7 0.000212078
9 *229:8 0.000175962
10 *229:9 0.00021863
11 *229:10 0.000155094
12 *229:11 0.000140466
13 *229:12 0.000115063
14 *229:13 0.000151749
15 *229:14 0.000241207
16 *229:15 7.51873e-05
17 *229:16 0.000222624
18 *229:17 0.000222624

*RES
1 *229:17 *582:B 3.20000005
2 *229:16 *229:17 0.551562
3 *229:15 *229:16 3.20000005
4 *603:Y *229:15 0.223828
5 *229:5 *604:B 3.20000005
6 *229:6 *229:5 1.404
7 *229:12 *603:Y 0.447656
8 *229:6 *229:7 0.183838
9 *229:7 *229:12 3.20000005
10 *229:8 *229:7 0.624023
11 *229:13 *442:A1 0.223828
12 *229:11 *229:8 0.367725
13 *229:13 *229:14 0.569727
14 *229:10 *229:11 0.312012
15 *229:9 *229:14 0.671484
16 *229:9 *229:10 3.20000005
17 *448:B *229:9 0.379834
*END

*D_NET *230 0.00217832

*CONN
*I *450:Y O *C 77.55 28.28 *L 0 *D NAND2X1
*I *448:A I *C 80.85 27.16 *L 0.0043 *D NOR2X1
*I *446:B0 I *C 74.25 28.28 *L 0.00302 *D OAI21XL
*I *442:A0 I *C 83.49 27.72 *L 0.00314 *D AOI21XL

*CAP
1 *450:Y 0.000204762
2 *448:A 6.33002e-05
3 *446:B0 6.33002e-05
4 *442:A0 0.000139839
5 *230:4 0.000262738457
6 *230:5 0.000148659
7 *230:6 0.000105981
8 *230:7 0.00023423
9 *230:8 0.000182359
10 *230:9 0.000194271
11 *230:10 7.2421e-05
12 *230:11 7.31827e-05
13 *230:12 7.31827e-05
14 *230:13 0.00011226
15 *230:14 0.000247841

*RES
1 *230:13 *442:A0 3.2
2 *230:13 *230:14 0.467969
3 *230:4 *230:14 0.735449
4 *230:5 *448:A 6.4000001
5 *230:5 *230:4 0.624023
6 *230:12 *230:5 0.183887
7 *230:11 *230:12 0.155957
8 *230:10 *230:11 0.183887
9 *230:9 *230:10 3.2
10 *450:Y *230:9 0.447656
11 *230:7 *450:Y 0.671484
12 *230:8 *230:7 3.2
13 *230:6 *230:8 0.367676
14 *446:B0 *230:6 6.4000001
*END

*D_NET *231 0.00108573

*CONN
*I *446:Y O *C 74.25 28.84 *L 0 *D OAI21XL
*I *444:A I *C 69.63 27.16 *L 0.0026 *D INVXL

*CAP
1 *446:Y 6.32983e-05
2 *444:A 3.72995e-05
3 *231:2 7.9989e-05
4 *231:3 0.000120596
5 *231:4 0.00036681
6 *231:5 5.0923e-05
7 *231:6 0.00036681

*RES
1 *231:5 *446:Y 6.4000001
2 *231:6 *231:5 6.4000001
3 *231:4 *231:6 1.4709
4 *231:3 *231:4 3.2
5 *231:2 *444:A 0.189941
6 *231:2 *231:3 3.2
*END

*D_NET *232 0.00145261

*CONN
*I *444:Y O *C 70.29 26.6 *L 0 *D INVXL
*I *439:D I *C 64.35 23.8 *L 0.00184 *D DFFRHQX1

*CAP
1 *444:Y 0.000358788
2 *439:D 6.33022e-05
3 *232:2 0.000283362
4 *232:3 0.00039412
5 *232:4 0.000353039

*RES
1 *232:3 *444:Y 2.01445
2 *232:4 *232:3 3.2
3 *232:2 *232:4 1.24805
4 *439:D *232:2 6.4000001
*END

*D_NET *233 0.000721389

*CONN
*I *442:Y O *C 84.81 26.6 *L 0 *D AOI21XL
*I *430:D I *C 88.77 26.6 *L 0.00184 *D DFFRHQX1

*CAP
1 *442:Y 0.000123599
2 *430:D 6.3299e-05
3 *233:2 0.00015893
4 *233:3 0.00022262
5 *233:4 0.000152941

*RES
1 *233:4 *430:D 6.4000001
2 *233:3 *233:4 0.551562
3 *233:2 *233:3 3.2
4 *442:Y *233:2 0.671484
*END

*D_NET *234 0.00120523

*CONN
*I *581:Y O *C 79.53 57.96 *L 0 *D INVX1
*I *441:B I *C 80.19 63.56 *L 0.00375 *D NAND2X1
*I *438:B I *C 81.51 57.4 *L 0.00375 *D NAND2X1

*CAP
1 *581:Y 0.000126
2 *441:B 0.000139841
3 *438:B 8.37327e-05
4 *234:3 7.76012e-05
5 *234:4 0.00042387
6 *234:5 0.000354192

*RES
1 *234:5 *441:B 3.20000005
2 *234:4 *234:5 1.404
3 *234:3 *234:4 3.20000005
4 *581:Y *234:3 0.223828
5 *581:Y *438:B 0.671484
*END

*D_NET *235 0.00699084

*CONN
*I *585:Y O *C 101.31 33.88 *L 0 *D NAND2BX1
*I *463:B0 I *C 97.35 32.2 *L 0.00302 *D OAI21XL
*I *459:A I *C 99.99 37.24 *L 0.0031 *D NAND2XL
*I *440:B I *C 97.35 57.4 *L 0.00375 *D NAND2X1
*I *436:B I *C 92.73 57.4 *L 0.00375 *D NAND2X1

*CAP
1 *585:Y 4.12031e-05
2 *463:B0 0.00013984
3 *459:A 0.00013984
4 *440:B 0.00013984
5 *436:B 0.00013984
6 *235:5 0.000220415
7 *235:6 0.000235228
8 *235:7 0.000166763
9 *235:8 0.000166763
10 *235:9 0.00022254
11 *235:10 0.000489543
12 *235:11 0.000350084
13 *235:12 0.000182907
14 *235:13 0.000182907
15 *235:14 0.000362925
16 *235:15 0.00029325
17 *235:16 0.000707646
18 *235:17 0.00071435
19 *235:18 0.000323793
20 *235:19 0.000323793
21 *235:20 0.000193883
22 *235:21 0.000139
23 *235:22 0.000329287
24 *235:23 0.000329287
25 *235:24 0.000120601
26 *235:25 0.000120601
27 *235:26 7.24215e-05
28 *235:27 7.65418e-05
29 *235:28 6.57178e-05

*RES
1 *235:27 *585:Y 0.223828
2 *235:24 *463:B0 3.2
3 *235:28 *235:27 6.4000001
4 *235:25 *235:24 3.2
5 *235:6 *235:28 0.183887
6 *235:26 *235:25 3.2
7 *235:5 *459:A 3.2
8 *235:6 *235:5 0.936035
9 *235:22 *235:26 0.183887
10 *235:14 *235:5 3.2
11 *235:22 *235:23 1.404
12 *235:15 *235:14 1.10312
13 *235:17 *235:23 0.183887
14 *235:17 *235:15 3.2
15 *235:17 *235:16 3.43203
16 *235:16 *235:19 0.183887
17 *235:12 *440:B 3.2
18 *235:19 *235:18 1.404
19 *235:13 *235:12 0.312012
20 *235:21 *235:18 0.183887
21 *235:9 *235:13 3.2
22 *235:21 *235:20 0.467969
23 *235:10 *235:9 0.367676
24 *235:10 *235:20 3.2
25 *235:7 *436:B 3.2
26 *235:11 *235:10 0.919238
27 *235:8 *235:7 0.312012
28 *235:8 *235:11 3.2
*END

*D_NET *236 0.00312081

*CONN
*I *445:Y O *C 85.47 57.96 *L 0 *D INVX1
*I *438:A I *C 82.17 57.96 *L 0.00403 *D NAND2X1
*I *437:A I *C 86.79 57.96 *L 0.00403 *D NAND2X1
*I *436:A I *C 93.39 57.96 *L 0.00403 *D NAND2X1
*I *432:A0 I *C 90.09 57.4 *L 0.00465 *D AOI22X1

*CAP
1 *445:Y 0.000122357
2 *438:A 0.000139842
3 *437:A 6.33016e-05
4 *436:A 0.000139842
5 *432:A0 6.33016e-05
6 *236:5 7.33089e-05
7 *236:6 7.33089e-05
8 *236:7 0.000142225
9 *236:8 0.000157687
10 *236:9 0.000142225
11 *236:10 0.000287441
12 *236:11 5.09177e-05
13 *236:12 8.83031e-05
14 *236:13 0.000266825
15 *236:14 0.0002967
16 *236:15 8.06992e-05
17 *236:16 8.06992e-05
18 *236:17 0.00043751
19 *236:18 0.000120601
20 *236:19 0.000293703

*RES
1 *236:15 *432:A0 6.4000001
2 *236:18 *436:A 3.2
3 *236:11 *437:A 6.4000001
4 *236:15 *236:16 0.155957
5 *236:19 *236:18 3.2
6 *236:12 *236:11 6.4000001
7 *236:17 *236:16 3.2
8 *236:17 *236:19 0.919238
9 *236:12 *236:13 0.183887
10 *236:13 *236:17 0.735449
11 *236:13 *236:14 0.155957
12 *236:10 *236:14 1.10312
13 *236:8 *445:Y 0.671484
14 *236:9 *236:10 3.2
15 *236:9 *236:8 3.2
16 *236:5 *236:9 0.183887
17 *236:6 *236:5 0.155957
18 *236:7 *236:6 0.183887
19 *438:A *236:7 3.2
*END

*D_NET *237 0.0101927

*CONN
*I *449:Y O *C 92.07 37.24 *L 0 *D OAI2BB2X1
*I *445:A I *C 84.81 57.4 *L 0.00346 *D INVX1
*I *443:A I *C 85.47 63 *L 0.00403 *D NAND2X1
*I *441:A I *C 80.85 63 *L 0.00403 *D NAND2X1
*I *440:A I *C 98.01 57.96 *L 0.00403 *D NAND2X1
*I *435:B0 I *C 106.59 33.32 *L 0.00464 *D OAI2BB2X1
*I *432:B0 I *C 89.43 57.96 *L 0.00433 *D AOI22X1

*CAP
1 *449:Y 0.000139837
2 *445:A 0.000139837
3 *443:A 6.33024e-05
4 *441:A 6.33024e-05
5 *440:A 0.000139837
6 *435:B0 0.000139837
7 *432:B0 0.000139837
8 *237:7 8.89004e-05
9 *237:8 8.21996e-05
10 *237:9 9.94752e-05
11 *237:10 9.94752e-05
12 *237:11 0.000661021
13 *237:12 0.00073804
14 *237:13 0.000113485
15 *237:14 0.000183173
16 *237:15 5.51151e-05
17 *237:16 0.000333303
18 *237:17 0.000274348
19 *237:18 0.000100849
20 *237:19 0.000129758
21 *237:20 0.00064004
22 *237:21 0.000663003
23 *237:22 0.00031971
24 *237:23 0.000194907
25 *237:24 0.000440538
26 *237:25 0.000440538
27 *237:26 0.00012692
28 *237:27 0.00056899
29 *237:28 0.000514111
30 *237:29 0.000350478
31 *237:30 0.000350478
32 *237:31 6.14893e-05
33 *237:32 0.000373384
34 *237:33 0.000318494
35 *237:34 0.000120591
36 *237:35 0.000181427
37 *237:36 0.000210347
38 *237:37 0.000266161
39 *237:38 0.000266161

*RES
1 *237:37 *435:B0 3.2
2 *237:37 *237:38 0.77998
3 *237:11 *237:38 3.2
4 *237:12 *237:11 3.30947
5 *237:12 *237:36 0.467969
6 *237:34 *449:Y 3.2
7 *237:35 *237:36 0.735449
8 *237:35 *237:34 3.2
9 *237:31 *237:35 0.183887
10 *237:32 *237:31 3.2
11 *237:32 *237:33 1.404
12 *237:30 *237:33 0.183887
13 *237:13 *440:A 3.2
14 *237:30 *237:29 1.71602
15 *237:14 *237:13 0.312012
16 *237:29 *237:28 0.183887
17 *237:9 *432:B0 3.2
18 *237:20 *237:14 3.2
19 *237:28 *237:27 2.18398
20 *237:10 *237:9 0.312012
21 *237:21 *237:20 1.83857
22 *237:21 *237:27 3.2
23 *237:22 *237:10 3.2
24 *237:22 *237:21 0.551562
25 *237:23 *237:22 1.28701
26 *237:26 *237:23 3.2
27 *237:19 *445:A 3.2
28 *237:26 *237:19 0.155957
29 *237:19 *237:18 0.312012
30 *237:18 *237:17 0.183887
31 *237:15 *443:A 6.4000001
32 *237:17 *237:16 1.09199
33 *237:16 *237:15 0.155957
34 *237:24 *237:16 3.2
35 *237:7 *441:A 6.4000001
36 *237:25 *237:24 1.28701
37 *237:8 *237:7 0.155957
38 *237:8 *237:25 6.4000001
*END

*D_NET *238 0.000960979

*CONN
*I *435:Y O *C 105.27 33.32 *L 0 *D OAI2BB2X1
*I *428:D I *C 104.61 26.6 *L 0.00184 *D DFFRHQX1

*CAP
1 *435:Y 0.000139841
2 *428:D 6.32976e-05
3 *238:2 6.57192e-05
4 *238:3 0.00035346
5 *238:4 0.00033866

*RES
1 *238:4 *435:Y 3.2
2 *238:3 *238:4 1.55996
3 *238:2 *238:3 0.183887
4 *428:D *238:2 6.4000001
*END

*D_NET *239 0.0041918

*CONN
*I *440:Y O *C 98.01 58.52 *L 0 *D NAND2X1
*I *434:A I *C 101.97 67.48 *L 0.0043 *D NOR2X1
*I *431:A I *C 94.71 77.56 *L 0.0043 *D NOR2X1

*CAP
1 *440:Y 3.73023e-05
2 *434:A 6.33015e-05
3 *431:A 6.33015e-05
4 *239:3 0.000141761
5 *239:4 0.000141761
6 *239:5 0.000478005
7 *239:6 0.000382525
8 *239:7 6.31784e-05
9 *239:8 6.31784e-05
10 *239:9 0.000396544
11 *239:10 0.000466224
12 *239:11 0.000156703
13 *239:12 0.000182503
14 *239:13 0.000119701
15 *239:14 0.000119701
16 *239:15 7.99906e-05
17 *239:16 0.000449374
18 *239:17 0.00050425
19 *239:18 7.02034e-05
20 *239:19 7.02034e-05
21 *239:20 0.000142099

*RES
1 *440:Y *239:13 0.189941
2 *239:13 *239:14 0.447656
3 *239:14 *239:15 0.189941
4 *239:6 *239:15 6.4000001
5 *239:6 *239:5 1.71602
6 *239:5 *239:12 0.551562
7 *239:11 *434:A 6.4000001
8 *239:12 *239:11 0.467969
9 *239:7 *239:11 3.2
10 *239:8 *239:7 0.183887
11 *239:20 *239:8 3.2
12 *239:18 *239:20 0.183887
13 *239:18 *239:19 0.155957
14 *239:16 *239:19 0.183887
15 *239:16 *239:17 2.02803
16 *239:9 *239:17 3.2
17 *239:3 *431:A 6.4000001
18 *239:10 *239:9 1.4709
19 *239:4 *239:3 0.624023
20 *239:4 *239:10 3.2
*END

*D_NET *240 0.00195986

*CONN
*I *448:Y O *C 81.51 27.72 *L 0 *D NOR2X1
*I *442:B0 I *C 84.15 27.16 *L 0.00319 *D AOI21XL
*I *433:K I *C 81.51 23.24 *L 0.00249 *D JKFFRXL
*I *433:J I *C 83.49 23.8 *L 0.00273 *D JKFFRXL

*CAP
1 *448:Y 0.000139839
2 *442:B0 6.33017e-05
3 *433:K 0.000139839
4 *433:J 0.000139839
5 *240:4 0.00028712
6 *240:5 0.00031855
7 *240:6 0.000141191
8 *240:7 7.52981e-05
9 *240:8 0.00011556
10 *240:9 9.39196e-05
11 *240:10 0.000230104
12 *240:11 0.000215298

*RES
1 *240:11 *442:B0 6.4000001
2 *240:10 *240:11 0.936035
3 *240:9 *433:J 3.2
4 *240:9 *240:10 0.183887
5 *240:7 *240:9 0.183887
6 *240:7 *240:8 0.155957
7 *240:4 *448:Y 3.2
8 *240:5 *240:8 0.367676
9 *240:5 *240:4 0.936035
10 *240:6 *240:5 0.312012
11 *433:K *240:6 3.2
*END

*D_NET *241 0.0073754

*CONN
*I *460:Y O *C 94.05 42.84 *L 0 *D INVX1
*I *456:A0 I *C 90.75 43.4 *L 0.00465 *D AOI22X1
*I *455:B0 I *C 90.75 47.32 *L 0.00457 *D OAI22X1
*I *453:B0 I *C 90.75 53.48 *L 0.00457 *D OAI22X1
*I *431:B I *C 94.05 78.12 *L 0.00385 *D NOR2X1
*I *427:B I *C 93.39 73.08 *L 0.00385 *D NOR2X1

*CAP
1 *460:Y 0.000139844
2 *456:A0 6.32963e-05
3 *455:B0 0.000139844
4 *453:B0 6.32963e-05
5 *431:B 4.22491e-05
6 *427:B 0.000139844
7 *241:6 0.000428462
8 *241:7 0.00067581
9 *241:8 0.000294764
10 *241:9 0.000106752
11 *241:10 0.000180948
12 *241:11 0.00021569
13 *241:12 0.000117817
14 *241:13 0.000271097
15 *241:14 7.75787e-05
16 *241:15 0.000302467
17 *241:16 0.00053148
18 *241:17 0.00053148
19 *241:18 0.000386233
20 *241:19 0.000386233
21 *241:20 0.000540999
22 *241:21 0.00059588
23 *241:22 5.51187e-05
24 *241:23 0.000396061
25 *241:24 0.000120601
26 *241:25 0.000450942
27 *241:26 0.000120601

*RES
1 *241:14 *431:B 0.223828
2 *241:9 *427:B 3.2
3 *241:13 *241:14 3.2
4 *241:9 *241:8 0.467969
5 *241:8 *241:13 0.936035
6 *241:24 *241:8 3.2
7 *241:25 *241:24 3.2
8 *241:23 *241:25 1.71602
9 *241:16 *241:23 0.183887
10 *241:17 *241:16 2.80801
11 *241:17 *241:18 0.183887
12 *241:19 *241:18 1.55996
13 *241:20 *241:19 0.183887
14 *241:26 *460:Y 3.2
15 *241:21 *241:20 2.496
16 *241:10 *241:26 3.2
17 *241:6 *453:B0 6.4000001
18 *241:11 *241:21 3.2
19 *241:11 *241:10 0.367676
20 *241:7 *455:B0 3.2
21 *241:7 *241:6 1.71602
22 *241:12 *241:11 0.551562
23 *241:15 *241:7 0.936035
24 *241:15 *241:12 3.2
25 *241:22 *241:15 0.155957
26 *456:A0 *241:22 6.4000001
*END

*D_NET *242 0.00351554

*CONN
*I *436:Y O *C 93.39 58.52 *L 0 *D NAND2X1
*I *429:A I *C 95.37 57.4 *L 0.0043 *D NOR2X1
*I *427:A I *C 94.05 73.64 *L 0.0043 *D NOR2X1

*CAP
1 *436:Y 6.33025e-05
2 *429:A 6.33025e-05
3 *427:A 6.33025e-05
4 *242:3 0.000261794
5 *242:4 0.000397899
6 *242:5 0.000156503
7 *242:6 0.000357999
8 *242:7 0.00058786
9 *242:8 0.000507066
10 *242:9 0.000187145
11 *242:10 0.000242464
12 *242:11 0.000226963
13 *242:6 *279:13 0.00010025
14 *242:11 *279:14 0.00010025
15 *242:6 *279:14 2.089e-05
16 *242:11 *279:15 2.089e-05
17 *242:10 *279:13 7.883e-05
18 *242:9 *279:14 7.88299989e-05

*RES
1 *242:3 *427:A 6.4000001
2 *242:4 *242:3 0.936035
3 *242:4 *242:7 0.735449
4 *242:8 *242:7 1.55996
5 *242:11 *429:A 6.4000001
6 *242:5 *242:8 0.367676
7 *242:11 *242:6 1.404
8 *242:6 *242:5 0.624023
9 *242:10 *242:6 0.367676
10 *242:9 *242:10 1.09199
11 *436:Y *242:9 6.4000001
*END

*D_NET *243 0.00211355

*CONN
*I *514:Y O *C 78.21 84.28 *L 0 *D AOI21X1
*I *492:B I *C 77.55 77.56 *L 0.00375 *D NAND2X1
*I *426:B1 I *C 80.19 78.12 *L 0.00419 *D OAI22X1
*I *394:B0 I *C 81.51 83.72 *L 0.00319 *D AOI21XL

*CAP
1 *514:Y 0.00013984
2 *492:B 0.000111891
3 *426:B1 7.45871e-05
4 *394:B0 6.3302e-05
5 *243:4 0.000194288
6 *243:5 0.000202099
7 *243:6 7.99922e-05
8 *243:7 0.000166151
9 *243:8 0.0002919
10 *243:9 8.47817e-05
11 *243:10 0.00015699
12 *243:11 0.000341918203
13 *243:12 0.000205814

*RES
1 *243:12 *394:B0 6.4000001
2 *243:11 *243:12 0.77998
3 *243:9 *514:Y 3.2
4 *243:8 *243:11 0.735449
5 *243:8 *243:9 0.312012
6 *243:7 *243:8 0.312012
7 *426:B1 *243:10 0.379785
8 *243:6 *243:7 3.2
9 *243:5 *243:10 0.447656
10 *243:5 *243:6 0.189941
11 *243:4 *243:5 0.447656
12 *492:B *243:4 0.569727
*END

*D_NET *244 0.00367332

*CONN
*I *509:Y O *C 70.95 77 *L 0 *D AOI21X1
*I *498:A I *C 81.51 73.08 *L 0.00403 *D NAND2X1
*I *426:A1 I *C 82.83 78.12 *L 0.00456 *D OAI22X1
*I *386:B0 I *C 74.91 77.56 *L 0.00319 *D AOI21XL

*CAP
1 *509:Y 8.23996e-05
2 *498:A 0.000139842
3 *426:A1 6.32935e-05
4 *386:B0 6.32935e-05
5 *244:4 5.51166e-05
6 *244:5 5.51166e-05
7 *244:6 0.000152592
8 *244:7 8.29057e-05
9 *244:8 0.000286539
10 *244:9 0.000114441
11 *244:10 0.000117735
12 *244:11 0.000223023
13 *244:12 0.000448275
14 *244:13 0.000434833
15 *244:14 0.000581840195
16 *244:15 0.000434833
17 *244:16 0.000120603
18 *244:17 0.00021664

*RES
1 *244:16 *498:A 3.2
2 *244:6 *244:16 3.2
3 *244:7 *244:6 0.183887
4 *244:5 *426:A1 6.4000001
5 *244:13 *244:7 3.2
6 *244:5 *244:4 0.155957
7 *244:13 *244:15 1.71602
8 *244:17 *244:4 3.2
9 *244:14 *244:15 3.2
10 *244:14 *244:17 0.551562
11 *244:9 *386:B0 6.4000001
12 *244:12 *244:14 1.65469
13 *244:9 *244:8 0.467969
14 *244:8 *244:12 3.2
15 *244:11 *244:8 0.551562
16 *244:10 *244:11 3.2
17 *509:Y *244:10 0.447656
*END

*D_NET *245 0.00119383

*CONN
*I *426:Y O *C 81.51 79.24 *L 0 *D OAI22X1
*I *414:A1 I *C 87.45 73.64 *L 0.00324 *D OAI21XL

*CAP
1 *426:Y 0.0001252
2 *414:A1 0.000139839
3 *245:2 0.00016053
4 *245:3 0.00011969
5 *245:4 0.00017444
6 *245:5 0.000165949
7 *245:6 0.000165949
8 *245:7 0.00014223

*RES
1 *245:7 *414:A1 3.20000005
2 *245:5 *245:7 0.183838
3 *245:5 *245:6 0.624023
4 *245:3 *245:6 0.183838
5 *245:3 *245:4 0.468018
6 *245:2 *245:4 3.20000005
7 *426:Y *245:2 0.895312
*END

*D_NET *246 0.00427857

*CONN
*I *508:Y O *C 95.37 104.44 *L 0 *D AOI21X1
*I *499:B I *C 95.37 73.64 *L 0.00375 *D NAND2X1
*I *425:B1 I *C 96.69 78.12 *L 0.00419 *D OAI22X1
*I *395:B0 I *C 95.37 83.72 *L 0.00319 *D AOI21XL

*CAP
1 *508:Y 0.000139833
2 *499:B 0.000139833
3 *425:B1 0.000139833
4 *395:B0 6.32961e-05
5 *246:4 0.000287649
6 *246:5 0.000418366
7 *246:6 0.000191343
8 *246:7 0.00013659
9 *246:8 0.000214369
10 *246:9 9.72801e-05
11 *246:10 9.72801e-05
12 *246:11 0.00087476
13 *246:12 0.000859837
14 *246:13 0.00014616
15 *246:14 0.000267307
16 *246:15 0.000204798

*RES
1 *246:12 *508:Y 3.2
2 *246:11 *246:12 4.05596
3 *246:4 *246:11 0.183887
4 *246:5 *395:B0 6.4000001
5 *246:5 *246:4 1.09199
6 *246:8 *246:5 0.624023
7 *246:8 *246:15 0.367676
8 *246:14 *425:B1 3.2
9 *246:14 *246:15 0.936035
10 *246:13 *246:14 0.467969
11 *246:10 *246:13 0.183887
12 *246:9 *246:10 0.312012
13 *246:7 *246:9 0.183887
14 *246:6 *246:7 0.467969
15 *499:B *246:6 3.2
*END

*D_NET *247 0.00267534

*CONN
*I *512:Y O *C 109.23 84.28 *L 0 *D AOI21X1
*I *497:A I *C 105.27 78.12 *L 0.00403 *D NAND2X1
*I *425:A1 I *C 99.33 78.12 *L 0.00456 *D OAI22X1
*I *392:B0 I *C 105.93 83.72 *L 0.00319 *D AOI21XL

*CAP
1 *512:Y 0.000139843
2 *497:A 0.000139843
3 *425:A1 6.3297e-05
4 *392:B0 6.3297e-05
5 *247:4 0.000161902
6 *247:5 9.2219e-05
7 *247:6 0.000271177
8 *247:7 0.000190561
9 *247:8 0.000351390781
10 *247:9 0.000351390781
11 *247:10 0.000146336
12 *247:11 0.000340008
13 *247:12 9.03477e-05
14 *247:13 0.000273724

*RES
1 *247:12 *392:B0 6.4000001
2 *247:13 *512:Y 3.2
3 *247:11 *247:12 0.467969
4 *247:11 *247:13 1.10312
5 *247:7 *497:A 3.2
6 *247:10 *247:11 0.183887
7 *247:7 *247:6 0.467969
8 *247:6 *247:10 0.624023
9 *247:9 *247:6 3.2
10 *247:8 *247:9 1.65469
11 *247:4 *247:8 3.2
12 *247:5 *247:4 0.312012
13 *425:A1 *247:5 6.4000001
*END

*D_NET *248 0.000996441

*CONN
*I *425:Y O *C 98.01 79.24 *L 0 *D OAI22X1
*I *416:A I *C 98.67 73.64 *L 0.0043 *D NOR2X1

*CAP
1 *425:Y 0.000139842
2 *416:A 6.32995e-05
3 *248:2 6.5849e-05
4 *248:3 0.00029261
5 *248:4 0.00029261
6 *248:5 0.000142231

*RES
1 *248:5 *425:Y 3.2
2 *248:4 *248:5 0.183887
3 *248:3 *248:4 1.09199
4 *248:2 *248:3 0.183887
5 *416:A *248:2 6.4000001
*END

*D_NET *249 0.00752709

*CONN
*I *515:Y O *C 103.95 107.24 *L 0 *D AOI21X1
*I *499:A I *C 96.03 73.08 *L 0.00403 *D NAND2X1
*I *424:B1 I *C 100.65 73.08 *L 0.00419 *D OAI22X1
*I *398:B0 I *C 102.63 83.72 *L 0.00319 *D AOI21XL

*CAP
1 *515:Y 0.000139842
2 *499:A 0.000139842
3 *424:B1 0.000139842
4 *398:B0 6.32998e-05
5 *249:4 0.000524947
6 *249:5 0.000492568
7 *249:6 9.8157e-05
8 *249:7 0.000193509
9 *249:8 0.000178788
10 *249:9 0.000178788
11 *249:10 0.000131166
12 *249:11 6.14949e-05
13 *249:12 0.000299538
14 *249:13 0.000299538
15 *249:14 0.000126926
16 *249:15 5.72329e-05
17 *249:16 0.000120598
18 *249:17 0.00142506
19 *249:18 0.00142506
20 *249:18 *290:6 0.00021016
21 *249:17 *290:7 0.000210160003
22 *249:8 *303:25 6.084e-05
23 *249:9 *303:24 6.084e-05
24 *249:8 *303:17 6.364e-05
25 *249:9 *303:18 6.364e-05
26 *249:4 *303:11 0.00012141
27 *249:5 *303:12 0.00012141
28 *249:4 *303:12 0.00010081
29 *249:5 *303:27 0.000100810003
30 *249:8 *273:9 0.00015858
31 *249:9 *273:6 0.000158579994

*RES
1 *249:15 *515:Y 3.20005
2 *249:15 *249:14 0.156033
3 *249:12 *249:14 3.20005
4 *249:13 *249:12 1.28695
5 *249:18 *249:13 3.20005
6 *249:17 *249:18 7.80000019
7 *249:6 *398:B0 6.39998
8 *249:11 *249:17 3.20005
9 *249:7 *249:6 0.467981
10 *249:11 *249:10 0.183884
11 *249:4 *249:7 0.551532
12 *249:4 *249:10 3.20005
13 *249:5 *424:B1 3.20005
14 *249:5 *249:4 2.49606
15 *249:8 *249:5 3.20005
16 *249:9 *249:8 1.28695
17 *249:16 *249:9 3.20005
18 *499:A *249:16 3.20005
*END

*D_NET *250 0.00498012

*CONN
*I *511:Y O *C 105.27 97.16 *L 0 *D AOI21X1
*I *497:B I *C 104.61 77.56 *L 0.00375 *D NAND2X1
*I *424:A1 I *C 103.29 73.08 *L 0.00456 *D OAI22X1
*I *393:B0 I *C 102.63 77.56 *L 0.00319 *D AOI21XL

*CAP
1 *511:Y 3.98564e-05
2 *497:B 3.98564e-05
3 *424:A1 0.000139837
4 *393:B0 6.32973e-05
5 *250:4 0.00076733
6 *250:5 0.00076733
7 *250:6 0.000216213
8 *250:7 0.000282039
9 *250:8 0.000171802
10 *250:9 0.000239642
11 *250:10 0.000169964
12 *250:11 0.000109031
13 *250:12 0.000109031
14 *250:13 0.00067345
15 *250:14 0.00067345
16 *250:15 7.24183e-05
17 *250:16 0.000151733
18 *250:17 0.000142097
19 *250:18 0.000151733

*RES
1 *511:Y *250:18 0.223828
2 *250:4 *250:18 3.2
3 *250:5 *250:4 3.43203
4 *250:9 *250:5 3.2
5 *250:10 *250:9 0.551562
6 *250:13 *250:10 3.2
7 *250:14 *250:13 2.80801
8 *250:11 *250:14 3.2
9 *250:8 *424:A1 3.2
10 *250:12 *250:11 0.367676
11 *250:16 *497:B 0.223828
12 *250:8 *250:7 0.624023
13 *250:7 *250:12 3.2
14 *250:17 *250:16 3.2
15 *250:7 *250:6 0.624023
16 *250:6 *250:17 0.183887
17 *250:15 *250:6 0.183887
18 *393:B0 *250:15 6.4000001
*END

*D_NET *251 0.00067384

*CONN
*I *424:Y O *C 101.97 71.96 *L 0 *D OAI22X1
*I *416:B I *C 98.01 73.08 *L 0.00385 *D NOR2X1

*CAP
1 *424:Y 0.000262328
2 *416:B 7.45918e-05
3 *251:2 0.00033692

*RES
1 *251:2 *416:B 0.379817
2 *251:2 *424:Y 1.34295654
*END

*D_NET *252 0.00547889

*CONN
*I *513:Y O *C 81.51 97.16 *L 0 *D AOI21X1
*I *492:A I *C 78.21 78.12 *L 0.00403 *D NAND2X1
*I *423:B1 I *C 83.49 73.08 *L 0.00419 *D OAI22X1
*I *396:B0 I *C 86.13 83.72 *L 0.00319 *D AOI21XL

*CAP
1 *513:Y 7.97329e-05
2 *492:A 0.000139849
3 *423:B1 0.000139849
4 *396:B0 6.33013e-05
5 *252:4 0.000177924
6 *252:5 0.000108253
7 *252:6 0.000410735
8 *252:7 0.000341064
9 *252:8 0.000219528
10 *252:9 0.000219528
11 *252:10 0.00118595
12 *252:11 0.000533121
13 *252:12 0.000211149
14 *252:13 0.000201902
15 *252:14 0.000128557
16 *252:15 0.000137822
17 *252:16 0.000120613
18 *252:17 0.000115057
19 *252:18 0.000120613
20 *252:19 0.000120613
21 *252:20 0.000703752

*RES
1 *252:5 *396:B0 6.4000001
2 *513:Y *252:17 0.447656
3 *252:5 *252:4 0.467969
4 *252:18 *252:17 3.2
5 *252:8 *252:4 3.2
6 *252:19 *252:18 3.2
7 *252:9 *252:8 0.735449
8 *252:20 *252:19 3.2
9 *252:7 *423:B1 3.2
10 *252:10 *252:9 3.2
11 *252:10 *252:20 3.43203
12 *252:7 *252:6 1.24805
13 *252:11 *252:10 2.18398
14 *252:14 *252:6 3.2
15 *252:14 *252:11 3.2
16 *252:15 *252:14 0.551562
17 *252:15 *252:12 0.155957
18 *252:13 *252:12 0.919238
19 *252:16 *252:13 3.2
20 *492:A *252:16 3.2
*END

*D_NET *253 0.00533991

*CONN
*I *510:Y O *C 58.41 74.2 *L 0 *D AOI21X1
*I *498:B I *C 80.85 73.64 *L 0.00375 *D NAND2X1
*I *423:A1 I *C 86.13 73.08 *L 0.00456 *D OAI22X1
*I *389:B0 I *C 78.21 73.64 *L 0.00319 *D AOI21XL

*CAP
1 *510:Y 8.23932e-05
2 *498:B 0.000139835
3 *423:A1 0.000139835
4 *389:B0 6.33015e-05
5 *253:4 0.000184152
6 *253:5 0.000253825
7 *253:6 0.000182723
8 *253:7 0.000113038
9 *253:8 0.000158772
10 *253:9 0.000228457
11 *253:10 0.000126925
12 *253:11 0.00012066
13 *253:12 0.00011773
14 *253:13 0.000126925
15 *253:14 0.00078052
16 *253:15 0.000129926
17 *253:16 0.00078052
18 *253:17 8.95034e-05
19 *253:18 0.00017728
20 *253:19 0.000471385
21 *253:20 0.000444028
22 *253:19 *304:2 1.263e-05
23 *253:18 *304:3 1.263e-05
24 *253:18 *304:2 2.489e-05
25 *253:17 *304:3 2.489e-05
26 *253:15 *304:2 3.343e-05
27 *253:11 *304:3 3.343e-05
28 *253:16 *304:2 0.00014313
29 *253:14 *304:3 0.000143129999

*RES
1 *253:6 *423:A1 3.2
2 *253:8 *498:B 3.2
3 *253:7 *253:6 0.312012
4 *253:4 *389:B0 6.4000001
5 *253:9 *253:8 0.624023
6 *253:20 *253:7 3.2
7 *253:5 *253:4 0.624023
8 *253:19 *253:9 3.2
9 *253:19 *253:20 1.4709
10 *253:18 *253:5 3.2
11 *253:18 *253:19 0.735449
12 *253:17 *253:18 0.367676
13 *253:16 *253:17 0.155957
14 *253:14 *253:16 4.04482
15 *253:14 *253:15 0.155957
16 *253:11 *253:15 0.551562
17 *253:10 *253:11 3.2
18 *253:10 *253:13 0.155957
19 *253:12 *253:13 3.2
20 *510:Y *253:12 0.447656
*END

*D_NET *254 0.00030864

*CONN
*I *423:Y O *C 84.81 71.96 *L 0 *D OAI22X1
*I *414:A0 I *C 88.11 73.64 *L 0.00336 *D OAI21XL

*CAP
1 *423:Y 7.97302e-05
2 *414:A0 7.45898e-05
3 *254:2 0.00015432

*RES
1 *254:2 *414:A0 0.379824
2 *423:Y *254:2 0.447652161
*END

*D_NET *255 0.00711126

*CONN
*I *504:Y O *C 118.47 64.12 *L 0 *D AOI21X1
*I *480:A I *C 98.67 68.04 *L 0.00403 *D NAND2X1
*I *422:B1 I *C 84.15 68.04 *L 0.00419 *D OAI22X1
*I *397:B0 I *C 114.51 73.64 *L 0.00319 *D AOI21XL

*CAP
1 *504:Y 6.33014e-05
2 *480:A 0.000139839
3 *422:B1 0.000139839
4 *397:B0 6.33014e-05
5 *255:4 0.000159638
6 *255:5 0.000159638
7 *255:6 0.000209981
8 *255:7 0.000469927
9 *255:8 0.000386282
10 *255:9 0.000323303
11 *255:10 0.000269968
12 *255:11 0.000324849
13 *255:12 0.000292692
14 *255:13 0.000370476
15 *255:14 0.000303604
16 *255:15 0.000303604
17 *255:16 7.1677e-05
18 *255:17 7.1677e-05
19 *255:18 7.92185e-05
20 *255:19 0.00072895
21 *255:20 0.000663735
22 *255:21 0.000282048
23 *255:22 6.57151e-05
24 *255:14 *256:13 0.00020579
25 *255:15 *256:14 0.00020579
26 *255:20 *256:15 6.965e-05
27 *255:19 *256:13 6.965e-05
28 *255:20 *256:13 4.973e-05
29 *255:19 *256:14 4.973e-05
30 *255:19 *256:13 2.489e-05
31 *255:18 *256:14 2.489e-05
32 *255:12 *256:13 7.676e-05
33 *255:13 *256:14 7.676e-05
34 *255:17 *256:16 4.151e-05
35 *255:16 *256:8 4.15100087e-05
36 *255:14 *274:7 0.00011567
37 *255:15 *274:6 0.000115669998

*RES
1 *255:22 *397:B0 6.4000001
2 *255:9 *504:Y 6.4000001
3 *255:22 *255:10 0.183887
4 *255:9 *255:8 1.55996
5 *255:11 *255:10 1.09199
6 *255:6 *255:8 3.2
7 *255:7 *255:11 3.2
8 *255:7 *255:6 1.10312
9 *255:5 *480:A 3.2
10 *255:21 *255:7 1.10312
11 *255:5 *255:4 0.312012
12 *255:20 *255:21 0.155957
13 *255:19 *255:4 3.2
14 *255:19 *255:20 3.49326
15 *255:18 *255:19 0.367676
16 *255:18 *255:14 0.0780273
17 *255:15 *255:14 2.20625
18 *255:12 *255:15 0.0780273
19 *255:13 *255:12 1.4709
20 *255:17 *255:13 3.2
21 *255:16 *255:17 0.312012
22 *422:B1 *255:16 3.2
*END

*D_NET *256 0.00719152

*CONN
*I *443:Y O *C 85.47 62.44 *L 0 *D NAND2X1
*I *424:B0 I *C 101.31 73.64 *L 0.00457 *D OAI22X1
*I *423:B0 I *C 84.15 73.64 *L 0.00457 *D OAI22X1
*I *422:B0 I *C 84.81 67.48 *L 0.00457 *D OAI22X1
*I *420:B0 I *C 104.61 63.56 *L 0.00457 *D OAI22X1

*CAP
1 *443:Y 4.22913e-05
2 *424:B0 0.000139841
3 *423:B0 3.98593e-05
4 *422:B0 0.000139841
5 *420:B0 3.98593e-05
6 *256:5 7.51937e-05
7 *256:6 0.000106459
8 *256:7 0.000161203
9 *256:8 0.000262494
10 *256:9 0.000115965
11 *256:10 7.76257e-05
12 *256:11 0.000263803
13 *256:12 0.000263803
14 *256:13 0.00076626
15 *256:14 0.000652563
16 *256:15 0.000196759
17 *256:16 0.000294952
18 *256:17 6.83887e-05
19 *256:18 0.000138075
20 *256:19 0.000235333
21 *256:20 0.000482965
22 *256:21 0.000413279
23 *256:22 7.51937e-05
24 *256:23 0.000120595
25 *256:15 *258:18 2.527e-05
26 *256:13 *258:19 2.527e-05
27 *256:13 *258:18 0.0002482
28 *256:14 *258:19 0.0002482
29 *256:17 *258:5 4.178e-05
30 *256:18 *258:6 4.178e-05
31 *256:11 *258:20 2.543e-05
32 *256:12 *258:21 2.543e-05
33 *256:11 *258:21 1.392e-05
34 *256:12 *258:22 1.392e-05
35 *256:6 *258:12 2.036e-05
36 *256:7 *258:13 2.036e-05
37 *256:19 *258:16 0.0001
38 *256:16 *258:17 0.0001
39 *256:16 *258:11 3.182e-05
40 *256:8 *258:12 3.182e-05
41 *256:16 *258:12 8.86e-06
42 *256:8 *258:13 8.86e-06
43 *256:8 *258:12 2.548e-05
44 *256:9 *258:13 2.54800125e-05
45 *256:13 *255:14 0.00020579
46 *256:14 *255:15 0.00020579
47 *256:15 *255:20 6.965e-05
48 *256:13 *255:19 6.965e-05
49 *256:13 *255:20 4.973e-05
50 *256:14 *255:19 4.973e-05
51 *256:13 *255:19 2.489e-05
52 *256:14 *255:18 2.489e-05
53 *256:13 *255:12 7.676e-05
54 *256:14 *255:13 7.676e-05
55 *256:16 *255:17 4.151e-05
56 *256:8 *255:16 4.15100087e-05

*RES
1 *420:B0 *256:5 0.223804
2 *256:18 *256:5 3.20002
3 *256:18 *256:17 0.312035
4 *256:23 *256:17 3.20002
5 *256:21 *256:23 3.20002
6 *256:10 *443:Y 0.223804
7 *256:11 *424:B0 3.20002
8 *256:21 *256:20 1.56003
9 *256:7 *256:10 3.20002
10 *256:12 *256:11 0.936034
11 *256:15 *256:20 3.20002
12 *256:7 *256:6 0.468017
13 *256:13 *256:12 3.20002
14 *256:13 *256:15 1.10317
15 *256:9 *256:6 0.183826
16 *256:14 *256:13 4.59642839
17 *256:8 *422:B0 3.20002
18 *256:9 *256:8 0.468017
19 *256:16 *256:14 3.20002
20 *256:8 *256:16 0.779982
21 *256:16 *256:19 0.936034
22 *256:22 *256:19 3.20002
23 *423:B0 *256:22 0.223804
*END

*D_NET *257 0.00401568

*CONN
*I *501:Y O *C 71.61 64.12 *L 0 *D AOI21X1
*I *482:B I *C 82.83 63.56 *L 0.00375 *D NAND2X1
*I *422:A1 I *C 86.79 68.04 *L 0.00456 *D OAI22X1
*I *388:B0 I *C 78.21 63.56 *L 0.00319 *D AOI21XL

*CAP
1 *501:Y 3.98464e-05
2 *482:B 0.000139841
3 *422:A1 0.000139841
4 *388:B0 6.32978e-05
5 *257:4 5.51152e-05
6 *257:5 0.000124802
7 *257:6 0.000427417
8 *257:7 0.000357741
9 *257:8 0.00065316
10 *257:9 0.000481974
11 *257:10 0.000263526
12 *257:11 0.000151711
13 *257:12 0.000120596
14 *257:13 0.000123905
15 *257:14 0.000120596
16 *257:15 0.000391936
17 *257:16 0.000360372

*RES
1 *257:6 *422:A1 3.2
2 *257:7 *257:6 1.24805
3 *257:14 *482:B 3.2
4 *257:16 *257:7 3.2
5 *257:15 *257:14 3.2
6 *257:15 *257:16 1.10312
7 *257:4 *388:B0 6.4000001
8 *257:13 *257:15 0.367676
9 *257:5 *257:4 0.155957
10 *257:10 *257:13 0.155957
11 *257:8 *257:5 3.2
12 *257:8 *257:10 0.919238
13 *257:9 *257:8 1.4709
14 *257:12 *257:9 3.2
15 *257:11 *257:12 3.2
16 *501:Y *257:11 0.223828
*END

*D_NET *258 0.00811904

*CONN
*I *438:Y O *C 82.17 58.52 *L 0 *D NAND2X1
*I *424:A0 I *C 102.63 73.08 *L 0.00456 *D OAI22X1
*I *423:A0 I *C 85.47 73.08 *L 0.00456 *D OAI22X1
*I *422:A0 I *C 86.13 68.04 *L 0.00456 *D OAI22X1
*I *420:A0 I *C 105.93 63 *L 0.00456 *D OAI22X1

*CAP
1 *438:Y 0.00013984
2 *424:A0 0.00013984
3 *423:A0 0.00013984
4 *422:A0 0.00013984
5 *420:A0 0.00013984
6 *258:5 0.000267962
7 *258:6 0.000242324
8 *258:7 0.000131926
9 *258:8 0.000131926
10 *258:9 0.000168148
11 *258:10 0.000153792
12 *258:11 0.000173794
13 *258:12 0.000287637
14 *258:13 0.000222943
15 *258:14 0.000419737
16 *258:15 0.000350052
17 *258:16 0.000127206
18 *258:17 0.00014214
19 *258:18 0.00071435
20 *258:19 0.00071435
21 *258:20 9.78518e-05
22 *258:21 0.000290863
23 *258:22 0.000189044
24 *258:23 0.000532446
25 *258:24 0.000462761
26 *258:25 0.000120601
27 *258:26 0.000120601
28 *258:27 0.000177838
29 *258:28 9.73177e-05
30 *258:18 *256:15 2.527e-05
31 *258:19 *256:13 2.527e-05
32 *258:18 *256:13 0.0002482
33 *258:19 *256:14 0.0002482
34 *258:5 *256:17 4.178e-05
35 *258:6 *256:18 4.178e-05
36 *258:20 *256:11 2.543e-05
37 *258:21 *256:12 2.543e-05
38 *258:21 *256:11 1.392e-05
39 *258:22 *256:12 1.392e-05
40 *258:12 *256:6 2.036e-05
41 *258:13 *256:7 2.036e-05
42 *258:16 *256:19 0.0001
43 *258:17 *256:16 0.0001
44 *258:11 *256:16 3.182e-05
45 *258:12 *256:8 3.182e-05
46 *258:12 *256:16 8.86e-06
47 *258:13 *256:8 8.86e-06
48 *258:12 *256:8 2.548e-05
49 *258:13 *256:9 2.54800125e-05

*RES
1 *258:6 *420:A0 3.19999
2 *258:6 *258:5 0.779979
3 *258:27 *258:5 0.55156
4 *258:27 *258:28 0.311979
5 *258:8 *258:28 0.183832
6 *258:8 *258:7 0.468
7 *258:22 *258:7 0.183832
8 *258:20 *424:A0 3.19999
9 *258:22 *258:21 0.779979
10 *258:21 *258:20 0.468
11 *258:18 *258:21 3.19999
12 *258:19 *258:18 4.22871447
13 *258:16 *423:A0 3.19999
14 *258:9 *258:19 3.19999
15 *258:17 *258:16 0.779979
16 *258:10 *258:9 0.311979
17 *258:17 *258:11 0.183832
18 *258:11 *258:10 0.367728
19 *258:12 *422:A0 3.19999
20 *258:12 *258:11 0.624022
21 *258:13 *258:12 0.779979
22 *258:14 *258:13 3.19999
23 *258:15 *258:14 0.919289
24 *258:23 *258:15 3.19999
25 *258:24 *258:23 2.34
26 *258:26 *258:24 3.19999
27 *258:25 *258:26 3.19999
28 *438:Y *258:25 3.19999
*END

*D_NET *259 0.00030864

*CONN
*I *422:Y O *C 85.47 69.16 *L 0 *D OAI22X1
*I *415:A0 I *C 88.77 67.48 *L 0.00336 *D OAI21XL

*CAP
1 *422:Y 7.97302e-05
2 *415:A0 7.45898e-05
3 *259:2 0.00015432

*RES
1 *415:A0 *259:2 0.379824
2 *422:Y *259:2 0.447652161
*END

*D_NET *260 0.00781305

*CONN
*I *507:Y O *C 119.79 84.28 *L 0 *D AOI21X1
*I *490:B I *C 107.91 63.56 *L 0.00375 *D NAND2X1
*I *421:B1 I *C 96.03 63 *L 0.00419 *D OAI22X1
*I *400:B0 I *C 115.17 77.56 *L 0.00319 *D AOI21XL

*CAP
1 *507:Y 6.07427e-05
2 *490:B 0.000139835
3 *421:B1 0.000139835
4 *400:B0 6.33082e-05
5 *260:4 5.83806e-05
6 *260:5 7.33042e-05
7 *260:6 0.000854012
8 *260:7 0.000770258
9 *260:8 0.000907793
10 *260:9 0.00098482
11 *260:10 0.000462508
12 *260:11 0.000462508
13 *260:12 5.83806e-05
14 *260:13 0.000128056
15 *260:14 7.25534e-05
16 *260:15 0.000120594
17 *260:16 0.000101869
18 *260:17 9.60808e-05
19 *260:18 0.000142103
20 *260:19 0.00078357
21 *260:20 0.00102518
22 *260:21 0.000307312

*RES
1 *260:12 *400:B0 6.4000001
2 *260:13 *260:12 0.155957
3 *507:Y *260:17 0.408691
4 *260:11 *260:13 3.2
5 *260:18 *260:17 3.2
6 *260:11 *260:10 2.02246
7 *260:18 *260:21 0.183887
8 *260:20 *260:10 3.2
9 *260:20 *260:21 1.404
10 *260:19 *260:20 3.27598
11 *260:15 *490:B 3.2
12 *260:8 *260:19 3.2
13 *260:16 *260:15 3.2
14 *260:9 *260:8 4.4126
15 *260:6 *260:16 0.367676
16 *260:6 *260:9 0.467969
17 *260:7 *260:6 2.75781
18 *260:4 *260:7 3.2
19 *260:5 *260:4 0.155957
20 *260:14 *260:5 0.183887
21 *421:B1 *260:14 3.2
*END

*D_NET *261 0.00721667

*CONN
*I *441:Y O *C 80.85 62.44 *L 0 *D NAND2X1
*I *426:B0 I *C 80.85 77.56 *L 0.00457 *D OAI22X1
*I *425:B0 I *C 97.35 77.56 *L 0.00457 *D OAI22X1
*I *421:B0 I *C 96.69 63.56 *L 0.00457 *D OAI22X1
*I *419:B0 I *C 80.85 67.48 *L 0.00457 *D OAI22X1

*CAP
1 *441:Y 6.3295e-05
2 *426:B0 3.98531e-05
3 *425:B0 6.3295e-05
4 *421:B0 4.1711e-05
5 *419:B0 3.98531e-05
6 *261:5 0.000372794
7 *261:6 0.000450496
8 *261:7 0.0001475
9 *261:8 0.000142236
10 *261:9 0.000392957
11 *261:10 0.000392957
12 *261:11 0.000237734
13 *261:12 5.47525e-05
14 *261:13 0.000248572
15 *261:14 0.000415106
16 *261:15 0.000355855
17 *261:16 0.000341483
18 *261:17 0.00119368
19 *261:18 0.00119368
20 *261:19 7.5189e-05
21 *261:20 7.5189e-05
22 *261:21 0.000153566
23 *261:22 0.000155533
24 *261:11 *201:15 2.089e-05
25 *261:12 *201:14 2.089e-05
26 *261:13 *201:9 2.026e-05
27 *261:14 *201:8 2.026e-05
28 *261:15 *201:9 0.00024351
29 *261:16 *201:8 0.000243509996

*RES
1 *261:7 *425:B0 6.4000001
2 *261:8 *261:7 0.467969
3 *261:8 *261:9 0.0918945
4 *421:B0 *261:21 0.223828
5 *261:10 *261:9 1.71602
6 *261:22 *261:21 3.2
7 *261:5 *261:10 0.0918945
8 *261:22 *261:6 0.312012
9 *261:6 *261:5 1.404
10 *261:17 *261:6 3.2
11 *261:18 *261:17 4.4126
12 *261:12 *441:Y 6.4000001
13 *419:B0 *261:20 0.223828
14 *261:11 *261:18 3.2
15 *261:12 *261:11 0.155957
16 *261:19 *426:B0 0.223828
17 *261:14 *261:20 3.2
18 *261:11 *261:14 0.77998
19 *261:15 *261:19 3.2
20 *261:14 *261:13 0.77998
21 *261:16 *261:15 2.02803
22 *261:16 *261:13 0.367676
*END

*D_NET *262 0.00455558

*CONN
*I *502:Y O *C 105.93 46.76 *L 0 *D AOI21X1
*I *478:A I *C 101.97 47.88 *L 0.00403 *D NAND2X1
*I *421:A1 I *C 98.67 63 *L 0.00456 *D OAI22X1
*I *391:B0 I *C 103.29 57.4 *L 0.00319 *D AOI21XL

*CAP
1 *502:Y 0.000139842
2 *478:A 0.000139842
3 *421:A1 0.000139842
4 *391:B0 6.33032e-05
5 *262:4 0.000421681
6 *262:5 0.000363005
7 *262:6 0.000368069
8 *262:7 0.00044666
9 *262:8 0.000184573
10 *262:9 0.000302544
11 *262:10 0.000302544
12 *262:11 0.000281668
13 *262:12 0.000401459
14 *262:13 0.000281668
15 *262:14 0.000196821
16 *262:15 0.000401459
17 *262:16 0.000120602

*RES
1 *262:16 *502:Y 3.2
2 *262:9 *262:16 3.2
3 *262:8 *478:A 3.2
4 *262:10 *262:9 1.28701
5 *262:8 *262:7 0.312012
6 *262:7 *262:10 3.2
7 *262:7 *262:6 1.24805
8 *262:6 *262:5 0.367676
9 *262:4 *391:B0 6.4000001
10 *262:5 *262:4 1.09199
11 *262:4 *262:14 0.624023
12 *262:15 *262:14 3.2
13 *262:13 *421:A1 3.2
14 *262:12 *262:15 1.28701
15 *262:11 *262:13 0.77998
16 *262:11 *262:12 3.2
*END

*D_NET *263 0.00856532

*CONN
*I *437:Y O *C 86.79 58.52 *L 0 *D NAND2X1
*I *426:A0 I *C 82.17 78.12 *L 0.00456 *D OAI22X1
*I *425:A0 I *C 98.67 78.12 *L 0.00456 *D OAI22X1
*I *421:A0 I *C 98.01 63 *L 0.00456 *D OAI22X1
*I *419:A0 I *C 82.17 68.04 *L 0.00456 *D OAI22X1

*CAP
1 *437:Y 6.33043e-05
2 *426:A0 0.00013985
3 *425:A0 0.00013985
4 *421:A0 0.00013985
5 *419:A0 0.00013985
6 *263:5 0.000207858
7 *263:6 0.000144874
8 *263:7 0.000266764
9 *263:8 0.000251843
10 *263:9 0.000223069
11 *263:10 0.000114131
12 *263:11 0.000211294
13 *263:12 0.000220549
14 *263:13 0.000292956
15 *263:14 0.000292956
16 *263:15 0.000375718
17 *263:16 0.000290329
18 *263:17 0.000240159
19 *263:18 0.000240159
20 *263:19 0.000174793
21 *263:20 0.0008588
22 *263:21 0.00100088
23 *263:22 0.000262671
24 *263:23 0.000298011
25 *263:24 0.000367455
26 *263:25 0.000120607
27 *263:26 0.000502158
28 *263:27 0.000120607
29 *263:28 0.000120607
30 *263:29 0.000120607
31 *263:30 0.000502158
32 *263:31 0.000120607

*RES
1 *263:31 *425:A0 3.2
2 *263:27 *421:A0 3.2
3 *263:11 *263:31 3.2
4 *263:28 *263:27 3.2
5 *263:6 *437:Y 6.4000001
6 *263:12 *263:11 0.735449
7 *263:29 *263:28 3.2
8 *263:6 *263:5 0.467969
9 *263:12 *263:13 0.155957
10 *263:30 *263:29 3.2
11 *263:25 *263:5 3.2
12 *263:14 *263:13 1.28701
13 *263:26 *263:30 3.12559
14 *263:22 *263:25 3.2
15 *263:23 *263:14 0.155957
16 *263:21 *263:26 3.2
17 *263:22 *263:21 0.77998
18 *263:24 *263:23 1.28701
19 *263:21 *263:20 3.74404
20 *263:15 *263:24 0.467969
21 *263:15 *263:20 3.2
22 *263:19 *426:A0 3.2
23 *263:16 *263:15 1.28701
24 *263:9 *263:19 0.467969
25 *263:9 *263:16 3.2
26 *263:10 *263:9 0.312012
27 *263:10 *263:17 0.183887
28 *263:18 *263:17 0.936035
29 *263:7 *263:18 0.183887
30 *263:8 *263:7 1.09199
31 *419:A0 *263:8 3.2
*END

*D_NET *264 0.00016686

*CONN
*I *421:Y O *C 97.35 61.88 *L 0 *D OAI22X1
*I *413:A1 I *C 100.65 63.56 *L 0.00324 *D OAI21XL

*CAP
1 *421:Y 8.343e-05
2 *413:A1 8.343e-05

*RES
1 *421:Y *413:A1 0.447652
*END

*D_NET *265 0.00349795

*CONN
*I *506:Y O *C 110.55 74.2 *L 0 *D AOI21X1
*I *490:A I *C 108.57 63 *L 0.00403 *D NAND2X1
*I *420:B1 I *C 103.95 63 *L 0.00419 *D OAI22X1
*I *399:B0 I *C 106.59 73.64 *L 0.00319 *D AOI21XL

*CAP
1 *506:Y 0.000139834
2 *490:A 0.000139834
3 *420:B1 0.000139834
4 *399:B0 6.33033e-05
5 *265:4 0.00060919
6 *265:5 0.00040991
7 *265:6 0.000239688
8 *265:7 0.000199429
9 *265:8 5.09215e-05
10 *265:9 0.00034947
11 *265:10 0.00010598
12 *265:11 0.00041915
13 *265:12 0.000103962
14 *265:13 0.000331511
15 *265:14 0.000195924

*RES
1 *265:10 *399:B0 6.4000001
2 *265:10 *265:6 0.367676
3 *265:7 *265:6 0.77998
4 *265:14 *506:Y 3.2
5 *265:7 *265:12 0.183887
6 *265:13 *265:14 0.624023
7 *265:4 *265:12 0.312012
8 *265:4 *265:13 0.735449
9 *265:5 *490:A 3.2
10 *265:5 *265:4 1.87197
11 *265:11 *265:5 3.2
12 *265:9 *265:11 1.28701
13 *265:8 *265:9 6.4000001
14 *420:B1 *265:8 3.2
*END

*D_NET *266 0.00385474

*CONN
*I *503:Y O *C 109.89 56.84 *L 0 *D AOI21X1
*I *478:B I *C 101.31 47.32 *L 0.00375 *D NAND2X1
*I *420:A1 I *C 106.59 63 *L 0.00456 *D OAI22X1
*I *390:B0 I *C 106.59 57.4 *L 0.00319 *D AOI21XL

*CAP
1 *503:Y 0.000139843
2 *478:B 0.000139843
3 *420:A1 0.000139843
4 *390:B0 6.33014e-05
5 *266:4 0.000255763
6 *266:5 0.000255763
7 *266:6 0.000551289844
8 *266:7 0.000519803
9 *266:8 0.000416376
10 *266:9 0.00034669
11 *266:10 0.000506091
12 *266:11 0.000246442
13 *266:12 0.000273714

*RES
1 *266:11 *420:A1 3.2
2 *266:12 *503:Y 3.2
3 *266:10 *266:11 0.936035
4 *266:10 *266:12 1.10312
5 *266:6 *390:B0 6.4000001
6 *266:6 *266:10 0.467969
7 *266:7 *266:6 1.87197
8 *266:9 *266:7 3.2
9 *266:8 *266:9 1.4709
10 *266:4 *266:8 3.2
11 *266:5 *266:4 0.936035
12 *478:B *266:5 3.2
*END

*D_NET *267 0.00080233

*CONN
*I *420:Y O *C 105.27 61.88 *L 0 *D OAI22X1
*I *413:A0 I *C 101.31 63.56 *L 0.00336 *D OAI21XL

*CAP
1 *420:Y 6.46514e-05
2 *413:A0 6.33006e-05
3 *267:2 0.000146238
4 *267:3 0.000102769
5 *267:4 0.00018329
6 *267:5 9.99809e-05
7 *267:6 0.000142101

*RES
1 *267:5 *420:Y 0.447656
2 *267:6 *267:5 3.2
3 *267:3 *267:6 0.183887
4 *267:3 *267:4 0.467969
5 *267:2 *267:4 0.551562
6 *413:A0 *267:2 6.4000001
*END

*D_NET *268 0.00596615

*CONN
*I *505:Y O *C 91.41 84.28 *L 0 *D AOI21X1
*I *480:B I *C 98.01 67.48 *L 0.00375 *D NAND2X1
*I *419:B1 I *C 80.19 68.04 *L 0.00419 *D OAI22X1
*I *385:B0 I *C 88.11 77.56 *L 0.00319 *D AOI21XL

*CAP
1 *505:Y 0.000139839
2 *480:B 0.000139839
3 *419:B1 0.000139839
4 *385:B0 6.32913e-05
5 *268:4 8.68973e-05
6 *268:5 0.000223001
7 *268:6 0.0009203
8 *268:7 0.000527493
9 *268:8 0.000150343
10 *268:9 0.000157042
11 *268:10 0.000434051
12 *268:11 0.000885319
13 *268:12 0.000502187
14 *268:13 0.000180605
15 *268:14 0.000110939
16 *268:15 0.000337478
17 *268:16 0.000112933
18 *268:11 *306:16 0.0002014
19 *268:12 *306:17 0.0002014
20 *268:11 *306:18 6.142e-05
21 *268:12 *306:19 6.142e-05
22 *268:6 *306:11 8.13e-06
23 *268:7 *306:12 8.13e-06
24 *268:15 *306:20 3.245e-05
25 *268:6 *306:21 3.24499813e-05
26 *268:10 *276:4 0.00012398
27 *268:11 *276:5 0.000123979996

*RES
1 *268:4 *385:B0 6.4000001
2 *268:16 *505:Y 3.2
3 *268:13 *480:B 3.2
4 *268:5 *268:4 0.312012
5 *268:15 *268:16 0.367676
6 *268:14 *268:13 0.312012
7 *268:5 *268:6 0.735449
8 *268:6 *268:15 1.55996
9 *268:10 *268:14 3.2
10 *268:7 *268:6 2.80801
11 *268:11 *268:10 2.02246
12 *268:11 *268:7 3.2
13 *268:8 *419:B1 3.2
14 *268:12 *268:11 2.9417
15 *268:9 *268:8 0.467969
16 *268:9 *268:12 6.4000001
*END

*D_NET *269 0.00420204

*CONN
*I *500:Y O *C 74.25 54.04 *L 0 *D AOI21X1
*I *482:A I *C 83.49 63 *L 0.00403 *D NAND2X1
*I *419:A1 I *C 82.83 68.04 *L 0.00456 *D OAI22X1
*I *387:B0 I *C 74.91 63.56 *L 0.00319 *D AOI21XL

*CAP
1 *500:Y 0.000139845
2 *482:A 0.000139845
3 *419:A1 0.000139845
4 *387:B0 6.3301e-05
5 *269:4 0.000163242
6 *269:5 0.0001588
7 *269:6 0.000644294
8 *269:7 0.000616316
9 *269:8 0.000694294
10 *269:9 0.000763983359
11 *269:10 0.000111051
12 *269:11 0.000205023
13 *269:12 0.000259767
14 *269:13 0.000102447

*RES
1 *269:12 *419:A1 3.2
2 *269:11 *269:12 0.936035
3 *269:11 *269:13 0.183887
4 *269:4 *482:A 3.2
5 *269:4 *269:13 0.467969
6 *269:5 *269:4 0.312012
7 *269:8 *269:5 3.2
8 *269:9 *269:8 2.39014
9 *269:10 *387:B0 6.4000001
10 *269:6 *269:9 3.2
11 *269:6 *269:10 0.467969
12 *269:7 *269:6 2.18398
13 *500:Y *269:7 3.2
*END

*D_NET *270 0.00132863

*CONN
*I *419:Y O *C 81.51 69.16 *L 0 *D OAI22X1
*I *415:A1 I *C 88.11 67.48 *L 0.00324 *D OAI21XL

*CAP
1 *419:Y 0.000139844
2 *415:A1 0.000139844
3 *270:2 0.000120604
4 *270:3 0.00043871
5 *270:4 0.000120604
6 *270:5 0.000369029

*RES
1 *270:4 *415:A1 3.20000005
2 *270:5 *270:4 3.20000005
3 *270:3 *270:5 1.28701
4 *270:2 *270:3 3.20000005
5 *419:Y *270:2 3.20000005
*END

*D_NET *271 0.00502837

*CONN
*I *580:Y O *C 82.17 47.88 *L 0 *D INVX1
*I *471:B0 I *C 95.37 47.88 *L 0.00433 *D AOI22X1
*I *470:B0 I *C 86.79 47.88 *L 0.00433 *D AOI22X1
*I *469:B0 I *C 95.37 52.92 *L 0.00433 *D AOI22X1
*I *468:B0 I *C 81.51 52.92 *L 0.00433 *D AOI22X1
*I *418:B1 I *C 86.79 52.36 *L 0.0045 *D AOI2BB2X1
*I *418:A1N I *C 84.81 53.48 *L 0.00205 *D AOI2BB2X1

*CAP
1 *580:Y 3.9863e-05
2 *471:B0 0.000139837
3 *470:B0 0.000139837
4 *469:B0 0.000139837
5 *468:B0 0.000139837
6 *418:B1 6.33037e-05
7 *418:A1N 0.000139837
8 *271:7 0.000403073
9 *271:8 0.000234118
10 *271:9 7.8204e-05
11 *271:10 0.000278317
12 *271:11 7.7159e-05
13 *271:12 7.99894e-05
14 *271:13 8.75917e-05
15 *271:14 0.000404966
16 *271:15 0.000107289
17 *271:16 8.47779e-05
18 *271:17 0.000250936
19 *271:18 0.000182358
20 *271:19 0.00046952
21 *271:20 0.000137361
22 *271:21 0.000467562
23 *271:22 0.0005392
24 *271:23 0.000343604

*RES
1 *271:20 *471:B0 3.2
2 *271:23 *469:B0 3.2
3 *271:20 *271:21 0.312012
4 *271:21 *271:23 1.09199
5 *271:22 *271:21 3.2
6 *271:19 *271:22 2.02246
7 *271:16 *470:B0 3.2
8 *271:18 *271:19 3.2
9 *271:16 *271:17 0.312012
10 *271:17 *271:18 0.367676
11 *271:9 *418:B1 6.4000001
12 *271:17 *271:10 0.624023
13 *271:10 *271:9 0.312012
14 *271:15 *418:A1N 3.2
15 *271:14 *271:10 0.551562
16 *271:14 *271:15 0.467969
17 *271:13 *468:B0 3.2
18 *271:7 *271:14 0.919238
19 *271:7 *271:13 0.467969
20 *271:8 *271:7 0.624023
21 *271:12 *271:8 3.2
22 *271:11 *271:12 0.189941
23 *271:11 *580:Y 0.223828
*END

*D_NET *272 0.00185934

*CONN
*I *432:Y O *C 90.75 58.52 *L 0 *D AOI22X1
*I *418:B0 I *C 87.45 52.92 *L 0.00451 *D AOI2BB2X1
*I *418:A0N I *C 85.47 52.92 *L 0.00239 *D AOI2BB2X1

*CAP
1 *432:Y 6.32997e-05
2 *418:B0 0.00013984
3 *418:A0N 6.32997e-05
4 *272:3 0.000186567
5 *272:4 0.000186567
6 *272:5 0.00033699
7 *272:6 0.00033699
8 *272:7 0.000153339
9 *272:8 0.000282267
10 *272:9 0.00011017

*RES
1 *272:3 *432:Y 6.4000001
2 *272:4 *272:3 0.77998
3 *272:5 *272:4 3.2
4 *272:6 *272:5 1.10312
5 *272:9 *272:6 3.2
6 *272:8 *418:B0 3.2
7 *272:8 *272:9 0.312012
8 *272:7 *272:8 0.551562
9 *418:A0N *272:7 6.4000001
*END

*D_NET *273 0.00205212

*CONN
*I *416:Y O *C 99.33 73.08 *L 0 *D NOR2X1
*I *411:A0 I *C 91.41 73.64 *L 0.00336 *D OAI21XL

*CAP
1 *416:Y 0.000139841
2 *411:A0 0.000139841
3 *273:2 0.0001206
4 *273:3 8.06705e-05
5 *273:4 8.53993e-05
6 *273:5 8.99294e-05
7 *273:6 0.000213579844
8 *273:7 8.53993e-05
9 *273:8 0.0001206
10 *273:9 0.000204318
11 *273:5 *200:9 9.545e-05
12 *273:3 *200:10 9.54500008e-05
13 *273:7 *303:17 3.182e-05
14 *273:4 *303:18 3.182e-05
15 *273:5 *303:13 3.75e-05
16 *273:3 *303:14 3.75e-05
17 *273:7 *303:13 6.262e-05
18 *273:4 *303:14 6.26199984e-05
19 *273:9 *249:8 0.00015858
20 *273:6 *249:9 0.000158579994

*RES
1 *273:8 *416:Y 3.20000005
2 *273:9 *273:8 3.20000005
3 *273:6 *273:9 1.10312
4 *273:6 *273:7 0.156006
5 *273:4 *273:7 0.551562
6 *273:4 *273:5 0.156006
7 *273:3 *273:5 0.551562
8 *273:2 *273:3 3.20000005
9 *411:A0 *273:2 3.20000005
*END

*D_NET *274 0.00133892

*CONN
*I *415:Y O *C 89.43 69.16 *L 0 *D OAI21XL
*I *409:A1 I *C 94.71 67.48 *L 0.00443 *D AOI21X1

*CAP
1 *415:Y 6.3304e-05
2 *409:A1 6.3304e-05
3 *274:2 0.00012563
4 *274:3 5.59526e-05
5 *274:4 7.10715e-05
6 *274:5 0.000140749
7 *274:6 0.00032863
8 *274:7 0.000258947
9 *274:7 *255:14 0.00011567
10 *274:6 *255:15 0.000115669998

*RES
1 *274:3 *409:A1 6.4000001
2 *274:3 *274:2 0.155957
3 *274:7 *274:2 3.2
4 *274:6 *274:7 1.28701
5 *274:4 *415:Y 6.4000001
6 *274:5 *274:6 3.2
7 *274:5 *274:4 0.155957
*END

*D_NET *275 0.00020626

*CONN
*I *414:Y O *C 88.77 71.96 *L 0 *D OAI21XL
*I *411:B0 I *C 92.07 72.52 *L 0.00302 *D OAI21XL

*CAP
1 *414:Y 0.00010313
2 *411:B0 0.00010313

*RES
1 *414:Y *411:B0 0.895304
*END

*D_NET *276 0.00163557

*CONN
*I *413:Y O *C 101.97 61.88 *L 0 *D OAI21XL
*I *409:A0 I *C 95.37 66.92 *L 0.00465 *D AOI21X1

*CAP
1 *413:Y 0.000139838
2 *409:A0 3.72974e-05
3 *276:2 6.58034e-05
4 *276:3 5.90998e-05
5 *276:4 0.00041212
6 *276:5 0.000342437
7 *276:6 7.99903e-05
8 *276:7 0.000160352
9 *276:8 9.06683e-05
10 *276:4 *268:10 0.00012398
11 *276:5 *268:11 0.000123979996

*RES
1 *276:7 *413:Y 3.2
2 *276:7 *276:8 0.312012
3 *276:6 *409:A0 0.189941
4 *276:4 *276:8 3.2
5 *276:2 *276:6 6.4000001
6 *276:5 *276:4 2.02246
7 *276:3 *276:2 0.155957
8 *276:3 *276:5 6.4000001
*END

*D_NET *277 0.00138125

*CONN
*I *412:Y O *C 113.19 33.32 *L 0 *D OAI2BB2X1
*I *410:D I *C 111.21 23.8 *L 0.00184 *D DFFRHQX1

*CAP
1 *412:Y 7.97306e-05
2 *410:D 6.33005e-05
3 *277:2 0.00043208
4 *277:3 9.024e-05
5 *277:4 0.00043208
6 *277:5 0.000129502
7 *277:6 0.000154319

*RES
1 *277:6 *412:Y 0.447656
2 *277:5 *277:6 0.379785
3 *277:3 *277:5 0.223828
4 *277:4 *277:3 6.4000001
5 *277:2 *277:4 2.02803
6 *410:D *277:2 6.4000001
*END

*D_NET *278 0.000768058

*CONN
*I *411:Y O *C 92.07 71.96 *L 0 *D OAI21XL
*I *408:A0 I *C 92.07 66.92 *L 0.00465 *D AOI21X1

*CAP
1 *411:Y 0.000139841
2 *408:A0 0.000139841
3 *278:2 0.00024419
4 *278:3 0.00024419

*RES
1 *278:3 *411:Y 3.20000005
2 *278:2 *278:3 1.248
3 *408:A0 *278:2 3.20000005
*END

*D_NET *279 0.0130294

*CONN
*I *462:Y O *C 95.37 31.64 *L 0 *D OAI2BB1X1
*I *460:A I *C 93.39 43.4 *L 0.00346 *D INVX1
*I *457:B1 I *C 123.09 32.76 *L 0.00335 *D OAI2BB2XL
*I *456:B0 I *C 90.09 42.84 *L 0.00433 *D AOI22X1
*I *455:A0 I *C 92.07 47.88 *L 0.00456 *D OAI22X1
*I *453:A0 I *C 92.07 52.92 *L 0.00456 *D OAI22X1
*I *434:B I *C 101.31 68.04 *L 0.00385 *D NOR2X1
*I *429:B I *C 94.71 57.96 *L 0.00385 *D NOR2X1
*I *409:B0 I *C 96.03 67.48 *L 0.00441 *D AOI21X1
*I *408:A1 I *C 91.41 67.48 *L 0.00443 *D AOI21X1

*CAP
1 *462:Y 0.000139832
2 *460:A 3.72986e-05
3 *457:B1 6.329e-05
4 *456:B0 0.000139832
5 *455:A0 0.000139832
6 *453:A0 0.000139832
7 *434:B 7.97137e-05
8 *429:B 0.000139832
9 *409:B0 6.329e-05
10 *408:A1 0.000139832
11 *279:10 0.000210438
12 *279:11 0.000262907
13 *279:12 0.000186135
14 *279:13 0.000117319
15 *279:14 0.000290408
16 *279:15 0.000241802
17 *279:16 0.000534665
18 *279:17 0.000479945
19 *279:18 0.000125582
20 *279:19 0.000130775
21 *279:20 0.000193733
22 *279:21 0.00167652
23 *279:22 0.00167652
24 *279:23 0.000195114
25 *279:24 0.0002648
26 *279:25 0.000173804
27 *279:26 0.000173804
28 *279:27 0.000620083
29 *279:28 0.000362907
30 *279:29 0.000381608
31 *279:30 0.000142211
32 *279:31 0.000142211
33 *279:32 0.000198747
34 *279:33 0.00035866
35 *279:34 0.000334664
36 *279:35 0.000106038
37 *279:36 0.000115298
38 *279:37 0.000114326
39 *279:38 0.000474701
40 *279:39 0.000405015
41 *279:40 0.000120594
42 *279:41 0.000124713
43 *279:42 7.99951e-05
44 *279:43 0.000120594
45 *279:44 0.000123664
46 *279:45 5.09083e-05
47 *279:46 0.000115017
48 *279:47 0.000120594
49 *279:13 *242:6 0.00010025
50 *279:14 *242:11 0.00010025
51 *279:14 *242:6 2.089e-05
52 *279:15 *242:11 2.089e-05
53 *279:13 *242:10 7.883e-05
54 *279:14 *242:9 7.88299989e-05

*RES
1 *279:46 *434:B 0.44763
2 *279:47 *279:46 3.19998
3 *279:35 *279:47 3.19998
4 *279:36 *279:35 0.551555
5 *279:40 *408:A1 3.19998
6 *279:45 *409:B0 6.39997
7 *279:37 *279:36 0.156005
8 *279:34 *279:40 3.19998
9 *279:32 *279:45 6.39997
10 *279:32 *279:37 0.551555
11 *279:34 *279:33 0.919297
12 *279:33 *279:32 0.367742
13 *279:38 *279:33 3.19998
14 *279:39 *279:38 1.87206
15 *279:43 *279:39 3.19998
16 *279:13 *279:43 3.19998
17 *279:14 *429:B 3.19998
18 *279:14 *279:13 0.780024
19 *279:15 *279:14 0.780024
20 *279:19 *457:B1 6.39997
21 *279:30 *279:15 0.367742
22 *279:20 *279:19 0.468014
23 *279:31 *279:30 0.31201
24 *279:21 *279:20 3.19998
25 *279:41 *279:31 0.367742
26 *279:22 *279:21 7.72200012
27 *279:29 *453:A0 3.19998
28 *279:29 *279:41 0.31201
29 *279:44 *279:22 3.19998
30 *279:27 *455:A0 3.19998
31 *279:27 *279:29 1.40404
32 *279:44 *279:17 0.156005
33 *279:17 *462:Y 3.19998
34 *279:28 *279:27 1.09203
35 *279:17 *279:16 2.18395
36 *279:42 *460:A 0.189939
37 *279:28 *279:18 0.367742
38 *279:12 *279:16 0.551555
39 *279:10 *279:42 3.19998
40 *279:10 *279:18 0.31201
41 *279:12 *279:11 0.31201
42 *279:11 *279:10 0.624019
43 *279:23 *279:11 3.19998
44 *279:25 *456:B0 3.19998
45 *279:24 *279:23 0.919297
46 *279:26 *279:25 0.624019
47 *279:26 *279:24 3.19998
*END

*D_NET *280 0.000640757

*CONN
*I *409:Y O *C 96.03 66.92 *L 0 *D AOI21X1
*I *408:B0 I *C 92.73 67.48 *L 0.00441 *D AOI21X1

*CAP
1 *409:Y 6.33001e-05
2 *408:B0 6.33001e-05
3 *280:2 0.00010624
4 *280:3 0.000150838887
5 *280:4 0.00011044
6 *280:5 0.000146641

*RES
1 *280:5 *409:Y 6.4000001
2 *280:3 *280:5 0.551562
3 *280:3 *280:4 0.155957
4 *280:2 *280:4 0.367676
5 *408:B0 *280:2 6.4000001
*END

*D_NET *281 0.0071556

*CONN
*I *584:Y O *C 80.19 43.96 *L 0 *D XOR2X1
*I *581:A I *C 78.87 57.4 *L 0.00346 *D INVX1
*I *443:B I *C 84.81 63.56 *L 0.00375 *D NAND2X1
*I *437:B I *C 86.13 57.4 *L 0.00375 *D NAND2X1
*I *407:B1 I *C 92.73 63 *L 0.00444 *D OAI2BB2X1
*I *407:A0N I *C 90.75 63.56 *L 0.00186 *D OAI2BB2X1

*CAP
1 *584:Y 0.000139832
2 *581:A 0.000139832
3 *443:B 0.000111898
4 *437:B 0.000139832
5 *407:B1 6.32978e-05
6 *407:A0N 0.000139832
7 *281:6 0.000272084
8 *281:7 0.000367823
9 *281:8 0.00088694
10 *281:9 0.00082846
11 *281:10 0.000100624
12 *281:11 0.000203048
13 *281:12 7.15128e-05
14 *281:13 0.000167224
15 *281:14 0.000403403
16 *281:15 0.000473089
17 *281:16 0.000199611
18 *281:17 0.000199611
19 *281:18 7.25414e-05
20 *281:19 0.000458662
21 *281:20 0.000142227
22 *281:21 0.000112683
23 *281:22 0.000547268
24 *281:23 0.000123916
25 *281:24 0.0001206
26 *281:25 0.000334868
27 *281:26 0.000334868

*RES
1 *281:12 *407:B1 6.4000001
2 *281:10 *407:A0N 3.2
3 *281:13 *281:12 0.312012
4 *281:11 *281:10 0.467969
5 *281:11 *281:13 0.551562
6 *281:26 *281:11 3.2
7 *281:25 *281:26 1.10312
8 *281:24 *281:25 3.2
9 *281:23 *281:24 3.2
10 *281:16 *437:B 3.2
11 *281:22 *281:23 0.671484
12 *281:22 *443:B 0.569727
13 *281:17 *281:16 0.467969
14 *281:19 *281:22 1.79062
15 *281:14 *281:17 3.2
16 *281:20 *281:19 3.2
17 *281:15 *281:14 1.83857
18 *281:6 *281:20 0.183887
19 *281:18 *281:15 3.2
20 *281:7 *581:A 3.2
21 *281:7 *281:6 1.24805
22 *281:8 *281:18 0.183887
23 *281:8 *281:7 0.467969
24 *281:21 *584:Y 3.2
25 *281:9 *281:8 3.74404
26 *281:9 *281:21 0.367676
*END

*D_NET *282 0.00140975

*CONN
*I *408:Y O *C 92.73 66.92 *L 0 *D AOI21X1
*I *407:B0 I *C 93.39 63.56 *L 0.00464 *D OAI2BB2X1
*I *407:A1N I *C 91.41 63 *L 0.00219 *D OAI2BB2X1

*CAP
1 *408:Y 3.73025e-05
2 *407:B0 0.000139837
3 *407:A1N 6.33003e-05
4 *282:3 8.46994e-05
5 *282:4 0.00031102
6 *282:5 0.000170989
7 *282:6 9.02378e-05
8 *282:7 0.000142229
9 *282:8 9.22121e-05
10 *282:9 0.000125936
11 *282:10 0.000151981

*RES
1 *282:8 *408:Y 0.189941
2 *282:6 *282:8 0.223828
3 *282:9 *407:B0 3.2
4 *282:7 *282:6 3.2
5 *282:9 *282:10 0.155957
6 *282:5 *282:7 0.183887
7 *282:4 *282:10 0.551562
8 *282:4 *282:5 0.624023
9 *282:3 *282:4 0.312012
10 *407:A1N *282:3 6.4000001
*END

*D_NET *283 0.00835255

*CONN
*I *417:Y O *C 102.63 52.92 *L 0 *D INVX1
*I *413:B0 I *C 101.97 62.44 *L 0.00302 *D OAI21XL
*I *412:B0 I *C 114.51 33.32 *L 0.00464 *D OAI2BB2X1
*I *406:B I *C 111.21 63 *L 0.00385 *D NOR2X1
*I *403:B I *C 114.51 61.88 *L 0.00323 *D AND2X2

*CAP
1 *417:Y 6.7519e-05
2 *413:B0 3.98561e-05
3 *412:B0 0.00013983
4 *406:B 7.45937e-05
5 *403:B 0.000138852
6 *283:5 0.000186126
7 *283:6 0.000583448
8 *283:7 0.000130376
9 *283:8 0.000139081
10 *283:9 0.00044823
11 *283:10 0.000179393
12 *283:11 0.000534561
13 *283:12 0.000534561
14 *283:13 0.000181806
15 *283:14 0.000181806
16 *283:15 0.000444872
17 *283:16 0.000436168
18 *283:17 0.000228166
19 *283:18 0.000998619
20 *283:19 0.00106829
21 *283:20 0.000120595
22 *283:21 7.51968e-05
23 *283:22 0.000286361
24 *283:23 0.000286361
25 *283:24 0.000170998
26 *283:25 0.000170998
27 *283:11 *204:7 0.00014782
28 *283:12 *204:8 0.00014782
29 *283:11 *204:14 9.515e-05
30 *283:12 *204:13 9.515e-05
31 *283:13 *204:5 9.96e-06
32 *283:14 *204:6 9.96000747e-06

*RES
1 *283:17 *406:B 0.379805
2 *283:17 *403:B 1.11912
3 *283:13 *283:17 3.19997
4 *283:14 *283:13 0.467986
5 *283:24 *412:B0 3.19997
6 *283:11 *283:14 3.19997
7 *283:21 *413:B0 0.22381
8 *283:24 *283:25 0.467986
9 *283:12 *283:11 2.75788
10 *283:5 *283:21 3.19997
11 *283:7 *283:25 3.19997
12 *283:6 *283:12 3.19997
13 *283:6 *283:5 0.623981
14 *283:10 *417:Y 0.447619
15 *283:8 *283:7 0.551592
16 *283:9 *283:6 2.18401
17 *283:9 *283:10 3.19997
18 *283:8 *283:23 0.155995
19 *283:20 *283:9 3.19997
20 *283:22 *283:23 1.287
21 *283:18 *283:20 3.19997
22 *283:15 *283:22 0.155995
23 *283:19 *283:18 4.83599997
24 *283:16 *283:15 1.83859
25 *283:16 *283:19 3.19997
*END

*D_NET *284 0.00637825

*CONN
*I *418:Y O *C 88.11 52.92 *L 0 *D AOI2BB2X1
*I *417:A I *C 101.97 53.48 *L 0.00346 *D INVX1
*I *415:B0 I *C 89.43 68.6 *L 0.00302 *D OAI21XL
*I *414:B0 I *C 88.77 72.52 *L 0.00302 *D OAI21XL
*I *411:A1 I *C 90.75 73.64 *L 0.00324 *D OAI21XL
*I *405:B I *C 88.11 61.88 *L 0.00323 *D AND2X2
*I *404:B I *C 99.33 57.96 *L 0.00385 *D NOR2X1

*CAP
1 *418:Y 6.33006e-05
2 *417:A 8.53102e-05
3 *415:B0 6.33006e-05
4 *414:B0 6.33006e-05
5 *411:A1 4.22719e-05
6 *405:B 0.000139844
7 *404:B 0.000139844
8 *284:7 0.000154139
9 *284:8 0.000615707
10 *284:9 0.000515581
11 *284:10 0.000141009
12 *284:11 0.000599961
13 *284:12 0.000669637656
14 *284:13 0.000256063
15 *284:14 0.000179847
16 *284:15 0.000420512
17 *284:16 0.000337511
18 *284:17 0.000140099
19 *284:18 6.58449e-05
20 *284:19 0.000182627
21 *284:20 0.000139854
22 *284:21 0.000176721
23 *284:22 0.000117068
24 *284:23 0.000199803
25 *284:24 0.000199803
26 *284:25 0.000197177
27 *284:26 0.000142235
28 *284:8 *224:3 8.193e-05
29 *284:9 *224:2 8.193e-05
30 *284:9 *224:3 8.301e-05
31 *284:10 *224:2 8.30100032e-05

*RES
1 *284:25 *417:A 0.447656
2 *284:7 *411:A1 0.223828
3 *284:26 *284:25 3.2
4 *284:19 *284:7 3.2
5 *284:23 *284:26 0.183887
6 *284:17 *284:19 0.367676
7 *284:23 *284:24 0.624023
8 *284:22 *404:B 3.2
9 *284:18 *415:B0 6.4000001
10 *284:16 *414:B0 6.4000001
11 *284:16 *284:17 0.312012
12 *284:21 *284:24 0.183887
13 *284:21 *284:22 0.624023
14 *284:15 *284:18 0.183887
15 *284:15 *284:16 1.09199
16 *284:20 *284:21 0.155957
17 *284:14 *284:15 0.77998
18 *284:11 *284:20 3.2
19 *284:13 *284:14 0.183887
20 *284:12 *284:11 3.12559
21 *284:8 *405:B 3.2
22 *284:8 *284:13 1.09199
23 *284:9 *284:12 3.2
24 *284:9 *284:8 1.87197
25 *284:10 *284:9 0.624023
26 *418:Y *284:10 6.4000001
*END

*D_NET *285 0.0112974

*CONN
*I *407:Y O *C 94.71 63.56 *L 0 *D OAI2BB2X1
*I *406:A I *C 111.87 63.56 *L 0.0043 *D NOR2X1
*I *405:A I *C 87.45 63 *L 0.00319 *D AND2X2
*I *404:A I *C 99.99 57.4 *L 0.0043 *D NOR2X1
*I *403:A I *C 113.85 63 *L 0.00319 *D AND2X2
*I *402:B0 I *C 122.43 37.24 *L 0.00464 *D OAI2BB2X1

*CAP
1 *407:Y 0.000139831
2 *406:A 6.3296e-05
3 *405:A 0.000139831
4 *404:A 6.3296e-05
5 *403:A 4.22448e-05
6 *402:B0 7.98985e-06
7 *285:6 0.00116618
8 *285:7 0.0010965
9 *285:8 0.00039209
10 *285:9 0.00039209
11 *285:10 0.000103797
12 *285:11 0.000103797
13 *285:12 6.78159e-05
14 *285:13 0.0001375
15 *285:14 0.000290891
16 *285:15 0.000290891
17 *285:16 0.000183464
18 *285:17 0.00011378
19 *285:18 0.000998429
20 *285:19 0.00105393
21 *285:20 0.000413248
22 *285:21 0.000576871
23 *285:22 0.000399795
24 *285:23 0.000143586
25 *285:24 0.00015227
26 *285:25 0.0001935
27 *285:26 0.000120595
28 *285:27 0.000289717
29 *285:28 0.000289717
30 *285:29 6.57161e-05
31 *285:30 0.000139066
32 *285:31 0.000113851
33 *285:32 6.99334e-05
34 *285:33 7.75852e-05
35 *285:34 0.000142091
36 *285:35 0.000287759
37 *285:36 5.06795e-05
38 *285:37 0.0001701
39 *285:38 0.0001701
40 *285:18 *204:7 0.00021636
41 *285:19 *204:8 0.00021636
42 *285:18 *204:14 3.79e-05
43 *285:19 *204:13 3.79e-05
44 *285:19 *204:12 3.753e-05
45 *285:20 *204:9 3.75299967e-05

*RES
1 *402:B0 *285:36 0.0407227
2 *285:9 *285:36 6.4000001
3 *285:9 *285:8 1.404
4 *285:37 *285:8 6.4000001
5 *285:37 *285:38 0.735449
6 *285:7 *285:38 6.4000001
7 *285:7 *285:6 5.304
8 *285:11 *404:A 6.4000001
9 *285:23 *285:6 3.2
10 *285:11 *285:10 0.312012
11 *285:33 *403:A 0.223828
12 *285:29 *406:A 6.4000001
13 *285:24 *285:23 0.551562
14 *285:16 *285:10 3.2
15 *285:34 *285:33 3.2
16 *285:29 *285:32 0.183887
17 *285:14 *285:24 0.155957
18 *285:17 *285:16 0.367676
19 *285:31 *285:34 0.183887
20 *285:31 *285:32 0.155957
21 *285:15 *285:14 1.65469
22 *285:27 *285:17 3.2
23 *285:30 *285:31 0.312012
24 *285:15 *285:35 0.155957
25 *285:27 *285:28 0.936035
26 *285:18 *285:30 3.2
27 *285:18 *285:35 1.28701
28 *285:19 *285:28 3.2
29 *285:19 *285:18 3.86104
30 *285:26 *407:Y 3.2
31 *285:20 *285:19 1.83857
32 *285:25 *285:26 3.2
33 *285:20 *285:21 0.467969
34 *285:21 *285:25 0.735449
35 *285:22 *285:21 1.28701
36 *285:12 *285:22 3.2
37 *285:13 *285:12 0.155957
38 *405:A *285:13 3.2
*END

*D_NET *286 0.00888509

*CONN
*I *463:Y O *C 97.35 31.64 *L 0 *D OAI21XL
*I *461:A I *C 89.43 33.32 *L 0.00346 *D INVX1
*I *459:B I *C 99.33 37.8 *L 0.00277 *D NAND2XL
*I *457:B0 I *C 123.75 33.32 *L 0.00348 *D OAI2BB2XL
*I *457:A1N I *C 121.77 32.76 *L 0.00224 *D OAI2BB2XL
*I *435:B1 I *C 107.25 32.76 *L 0.00444 *D OAI2BB2X1
*I *435:A1N I *C 108.57 32.76 *L 0.00219 *D OAI2BB2X1
*I *412:B1 I *C 115.17 32.76 *L 0.00444 *D OAI2BB2X1
*I *412:A1N I *C 116.49 32.76 *L 0.00219 *D OAI2BB2X1
*I *402:B1 I *C 121.77 37.8 *L 0.00444 *D OAI2BB2X1
*I *402:A1N I *C 120.45 37.8 *L 0.00219 *D OAI2BB2X1

*CAP
1 *463:Y 0.000139841
2 *461:A 0.000139841
3 *459:B 3.98365e-05
4 *457:B0 0.000139841
5 *457:A1N 6.32971e-05
6 *435:B1 0.000139841
7 *435:A1N 6.32971e-05
8 *412:B1 0.000139841
9 *412:A1N 6.32971e-05
10 *402:B1 0.000139841
11 *402:A1N 6.32971e-05
12 *286:11 0.000241293
13 *286:12 0.000186409
14 *286:13 0.000395461
15 *286:14 0.000395408
16 *286:15 0.00040605
17 *286:16 0.000277144
18 *286:17 0.000491839844
19 *286:18 0.000491839844
20 *286:19 0.000254322
21 *286:20 0.000245623
22 *286:21 0.000105903
23 *286:22 0.00016078
24 *286:23 0.000161748
25 *286:24 9.20713e-05
26 *286:25 7.45696e-05
27 *286:26 0.000167692
28 *286:27 0.000103959
29 *286:28 7.517e-05
30 *286:29 0.000208804
31 *286:30 0.000120605
32 *286:31 0.00026973
33 *286:32 5.09214e-05
34 *286:33 0.00039426
35 *286:34 0.000120605
36 *286:35 0.00039426
37 *286:36 5.09214e-05
38 *286:37 0.000181621
39 *286:38 0.000126564
40 *286:39 0.000120808
41 *286:40 8.16694e-05
42 *286:41 0.000121934
43 *286:42 0.000182364
44 *286:17 *219:6 0.00012676
45 *286:18 *219:7 0.00012676
46 *286:26 *219:8 1.736e-05
47 *286:25 *219:9 1.73599961e-05
48 *286:13 *95:3 6.242e-05
49 *286:14 *95:4 6.242e-05
50 *286:13 *95:4 1.263e-05
51 *286:14 *95:5 1.263e-05
52 *286:14 *95:4 2.527e-05
53 *286:35 *95:5 2.527e-05
54 *286:35 *95:4 0.0001227
55 *286:33 *95:5 0.0001227
56 *286:33 *95:4 2.527e-05
57 *286:31 *95:5 2.527e-05
58 *286:31 *95:4 7.5e-05
59 *286:29 *95:5 7.5e-05
60 *286:19 *95:4 2.259e-05
61 *286:20 *95:5 2.259e-05
62 *286:38 *95:6 1.034e-05
63 *286:37 *95:7 1.03399962e-05

*RES
1 *286:38 *402:A1N 6.4000001
2 *286:42 *457:B0 3.2
3 *286:37 *286:38 0.467969
4 *286:39 *402:B1 3.2
5 *286:41 *286:42 0.367676
6 *286:37 *286:15 0.367676
7 *286:15 *286:39 0.467969
8 *286:40 *286:41 0.155957
9 *286:16 *457:A1N 6.4000001
10 *286:16 *286:15 0.936035
11 *286:16 *286:40 0.183887
12 *286:36 *412:A1N 6.4000001
13 *286:13 *286:16 3.2
14 *286:34 *412:B1 3.2
15 *286:14 *286:36 6.4000001
16 *286:14 *286:13 1.4709
17 *286:32 *435:A1N 6.4000001
18 *286:35 *286:34 3.2
19 *286:35 *286:14 0.367676
20 *286:30 *435:B1 3.2
21 *286:33 *286:32 6.4000001
22 *286:33 *286:35 1.83857
23 *286:31 *286:30 3.2
24 *286:31 *286:33 0.367676
25 *286:29 *286:31 1.10312
26 *286:19 *286:29 0.155957
27 *286:20 *286:19 1.28701
28 *286:28 *459:B 0.223828
29 *286:22 *286:20 3.2
30 *286:11 *286:28 3.2
31 *286:22 *286:21 0.312012
32 *286:12 *286:11 0.624023
33 *286:25 *286:21 0.183887
34 *286:27 *286:12 0.183887
35 *286:25 *286:26 0.312012
36 *286:26 *286:27 0.312012
37 *286:26 *463:Y 3.2
38 *286:17 *286:26 3.2
39 *286:18 *286:17 2.39014
40 *286:23 *286:18 3.2
41 *286:24 *286:23 0.312012
42 *461:A *286:24 3.2
*END

*D_NET *287 0.00140717

*CONN
*I *402:Y O *C 123.75 37.24 *L 0 *D OAI2BB2X1
*I *401:D I *C 120.45 43.96 *L 0.00184 *D DFFRHQX1

*CAP
1 *402:Y 6.32994e-05
2 *401:D 6.32994e-05
3 *287:2 0.000186505
4 *287:3 0.000453783
5 *287:4 0.00057456
6 *287:5 6.57191e-05

*RES
1 *287:5 *402:Y 6.4000001
2 *287:3 *287:5 0.183887
3 *287:3 *287:4 1.55996
4 *287:2 *287:4 0.735449
5 *401:D *287:2 6.4000001
*END

*D_NET *288 0.00108336

*CONN
*I *400:Y O *C 115.83 77 *L 0 *D AOI21XL
*I *377:D I *C 120.45 77 *L 0.00184 *D DFFRHQX1

*CAP
1 *400:Y 6.32983e-05
2 *377:D 6.32983e-05
3 *288:2 5.83914e-05
4 *288:3 0.000113448
5 *288:4 0.000139851
6 *288:5 0.000182710234
7 *288:6 5.09197e-05
8 *288:7 0.0001313
9 *288:8 0.00017416
10 *288:9 0.000105979

*RES
1 *288:9 *377:D 6.4000001
2 *288:3 *288:9 0.367676
3 *288:3 *288:2 0.155957
4 *288:4 *288:2 6.4000001
5 *288:5 *288:4 0.367676
6 *288:5 *288:8 0.312012
7 *288:7 *288:8 0.551562
8 *288:6 *288:7 6.4000001
9 *400:Y *288:6 6.4000001
*END

*D_NET *289 0.00107988

*CONN
*I *399:Y O *C 107.25 74.2 *L 0 *D AOI21XL
*I *378:D I *C 105.27 66.92 *L 0.00184 *D DFFRHQX1

*CAP
1 *399:Y 0.000139836
2 *378:D 6.32997e-05
3 *289:2 0.00010598
4 *289:3 0.0003693
5 *289:4 0.000329042
6 *289:5 7.2423e-05

*RES
1 *289:5 *399:Y 3.2
2 *289:4 *289:5 0.183887
3 *289:3 *289:4 1.55996
4 *289:2 *289:3 0.367676
5 *378:D *289:2 6.4000001
*END

*D_NET *290 0.0040435

*CONN
*I *398:Y O *C 103.29 84.28 *L 0 *D AOI21XL
*I *370:D I *C 102.63 114.52 *L 0.00184 *D DFFRHQX1

*CAP
1 *398:Y 6.33039e-05
2 *370:D 6.33039e-05
3 *290:2 0.000159637
4 *290:3 8.99511e-05
5 *290:4 7.02232e-05
6 *290:5 7.02232e-05
7 *290:6 0.00139781
8 *290:7 0.0014675
9 *290:8 0.000120607
10 *290:9 0.000120607
11 *290:6 *249:18 0.00021016
12 *290:7 *249:17 0.000210160003

*RES
1 *290:8 *370:D 6.40001
2 *290:9 *290:8 3.19994
3 *290:3 *398:Y 6.40001
4 *290:6 *290:9 3.19994
5 *290:3 *290:2 0.312048
6 *290:7 *290:6 8.11200047
7 *290:4 *290:2 3.19994
8 *290:5 *290:7 3.19994
9 *290:5 *290:4 0.183812
*END

*D_NET *291 0.00612189

*CONN
*I *434:Y O *C 102.63 68.04 *L 0 *D NOR2X1
*I *400:A1 I *C 113.85 77.56 *L 0.00314 *D AOI21XL
*I *399:A1 I *C 105.27 73.64 *L 0.00314 *D AOI21XL
*I *397:A1 I *C 113.19 73.64 *L 0.00314 *D AOI21XL
*I *385:A1 I *C 89.43 77.56 *L 0.00314 *D AOI21XL

*CAP
1 *434:Y 4.17054e-05
2 *400:A1 0.00013984
3 *399:A1 3.98633e-05
4 *397:A1 0.00013984
5 *385:A1 0.000201159
6 *291:5 0.000510042
7 *291:6 0.000280411
8 *291:7 0.000103295
9 *291:8 0.00015818
10 *291:9 0.000257886
11 *291:10 0.000203014
12 *291:11 0.000236484
13 *291:12 0.000120592
14 *291:13 0.000163368
15 *291:14 0.000207782
16 *291:15 8.55917e-05
17 *291:16 0.000207782
18 *291:17 0.000294837
19 *291:18 7.90087e-05
20 *291:19 7.85076e-05
21 *291:20 0.000153073
22 *291:21 0.000142102
23 *291:22 7.5189e-05
24 *291:23 0.000225675
25 *291:24 0.00088768
26 *291:25 0.000565983
27 *291:24 *202:3 9.281e-05
28 *291:17 *202:4 9.281e-05
29 *291:16 *202:3 0.00013606
30 *291:14 *202:4 0.00013606
31 *291:15 *202:3 2.377e-05
32 *291:13 *202:4 2.377e-05
33 *291:23 *202:5 8.86e-06
34 *291:5 *202:6 8.86000301e-06

*RES
1 *434:Y *291:18 0.223828
2 *291:18 *291:19 0.189893
3 *291:8 *397:A1 3.20000005
4 *291:19 *291:20 0.223828
5 *291:8 *291:7 0.312012
6 *291:21 *291:20 3.20000005
7 *291:7 *291:10 0.183838
8 *291:22 *399:A1 0.223828
9 *291:21 *291:6 0.183838
10 *291:9 *400:A1 3.20000005
11 *291:10 *291:9 0.77998
12 *291:5 *291:22 3.20000005
13 *291:6 *291:5 1.248
14 *291:25 *291:9 3.20000005
15 *291:5 *291:23 1.09199
16 *291:24 *291:25 2.57402
17 *291:24 *291:23 3.20000005
18 *291:17 *291:24 1.47085
19 *291:16 *291:17 0.0779785
20 *291:14 *291:16 1.47085
21 *291:14 *291:15 0.0779785
22 *291:13 *291:15 0.367725
23 *291:12 *291:13 3.20000005
24 *291:11 *291:12 3.20000005
25 *385:A1 *291:11 1.11914
*END

*D_NET *292 0.00176345

*CONN
*I *397:Y O *C 115.17 74.2 *L 0 *D AOI21XL
*I *380:D I *C 121.11 66.92 *L 0.00184 *D DFFRHQX1

*CAP
1 *397:Y 8.06623e-05
2 *380:D 6.32992e-05
3 *292:2 0.0004061
4 *292:3 0.000250507
5 *292:4 0.00011599
6 *292:5 0.0004061
7 *292:6 0.0001206
8 *292:7 0.000320189

*RES
1 *292:6 *380:D 6.4000001
2 *292:7 *292:6 3.2
3 *292:3 *292:7 1.28701
4 *292:2 *292:3 3.2
5 *292:2 *292:5 1.55996
6 *292:4 *292:5 3.2
7 *397:Y *292:4 0.447656
*END

*D_NET *293 0.00368409

*CONN
*I *396:Y O *C 86.79 84.28 *L 0 *D AOI21XL
*I *372:D I *C 71.61 94.36 *L 0.00184 *D DFFRHQX1

*CAP
1 *396:Y 4.12132e-05
2 *372:D 6.33038e-05
3 *293:2 0.000173766
4 *293:3 0.000243444
5 *293:4 0.000169108
6 *293:5 0.000309707
7 *293:6 0.000343527
8 *293:7 0.00058588
9 *293:8 0.00058588
10 *293:9 7.65439e-05
11 *293:10 0.000202928
12 *293:7 *55:137 0.00015684
13 *293:8 *55:138 0.000156839996
14 *293:7 *126:10 0.00028756
15 *293:8 *126:11 0.000287560011

*RES
1 *396:Y *293:9 0.223828
2 *293:10 *293:9 3.2
3 *293:10 *293:6 0.467969
4 *293:6 *293:5 1.09199
5 *293:5 *293:4 0.467969
6 *293:7 *293:4 3.2
7 *293:2 *372:D 6.4000001
8 *293:8 *293:7 4.4126
9 *293:3 *293:2 0.77998
10 *293:3 *293:8 3.2
*END

*D_NET *294 0.00519915

*CONN
*I *431:Y O *C 95.37 78.12 *L 0 *D NOR2X1
*I *398:A1 I *C 101.31 83.72 *L 0.00314 *D AOI21XL
*I *396:A1 I *C 84.81 83.72 *L 0.00314 *D AOI21XL
*I *395:A1 I *C 94.05 83.72 *L 0.00314 *D AOI21XL
*I *394:A1 I *C 80.19 83.72 *L 0.00314 *D AOI21XL

*CAP
1 *431:Y 3.9858e-05
2 *398:A1 0.00011959
3 *396:A1 8.34294e-05
4 *395:A1 7.97323e-05
5 *394:A1 0.000139842
6 *294:5 0.000318519
7 *294:6 0.000318519
8 *294:7 0.000268751
9 *294:8 0.000237321
10 *294:9 0.000325667
11 *294:10 0.000325667
12 *294:11 0.000120602
13 *294:12 0.000195298
14 *294:13 0.000120602
15 *294:14 9.1611e-05
16 *294:15 7.87096e-05
17 *294:16 0.000162423
18 *294:17 0.000115062
19 *294:18 0.00035841
20 *294:19 7.71619e-05
21 *294:20 0.000164392
22 *294:21 0.00015492
23 *294:22 0.000120602
24 *294:23 0.000302358
25 *294:23 *129:7 0.00017282
26 *294:18 *129:8 0.00017282
27 *294:18 *129:9 3.131e-05
28 *294:15 *129:10 3.131e-05
29 *294:14 *129:5 3.413e-05
30 *294:7 *129:6 3.413e-05
31 *294:7 *129:5 8.809e-05
32 *294:8 *129:6 8.809e-05
33 *294:9 *129:9 0.0001137
34 *294:10 *129:10 0.000113700007

*RES
1 *294:19 *431:Y 0.223828
2 *294:19 *294:20 0.189893
3 *294:21 *398:A1 0.671484
4 *294:16 *294:20 0.671484
5 *294:22 *294:21 3.20000005
6 *294:17 *395:A1 0.447656
7 *294:6 *294:16 3.20000005
8 *294:23 *294:22 3.20000005
9 *294:5 *294:17 3.20000005
10 *294:6 *294:5 1.248
11 *294:18 *294:23 1.83857
12 *294:18 *294:5 3.20000005
13 *294:15 *294:18 0.367725
14 *294:9 *294:15 0.156006
15 *294:12 *396:A1 0.447656
16 *294:10 *294:9 1.83857
17 *294:13 *294:12 3.20000005
18 *294:10 *294:14 0.156006
19 *294:7 *294:13 3.20000005
20 *294:7 *294:14 0.367725
21 *294:8 *294:7 0.919287
22 *294:11 *294:8 3.20000005
23 *394:A1 *294:11 3.20000005
*END

*D_NET *295 0.00272704

*CONN
*I *395:Y O *C 96.03 84.28 *L 0 *D AOI21XL
*I *369:D I *C 88.11 97.16 *L 0.00184 *D DFFRHQX1

*CAP
1 *395:Y 3.72992e-05
2 *369:D 6.33009e-05
3 *295:2 0.000187026
4 *295:3 0.000100131
5 *295:4 0.000221303
6 *295:5 0.000504
7 *295:6 0.000423211
8 *295:7 0.00035438
9 *295:8 0.000394779
10 *295:9 0.000166777
11 *295:10 0.00018262
12 *295:11 9.22097e-05

*RES
1 *395:Y *295:11 0.189941
2 *295:9 *295:11 0.223828
3 *295:10 *295:9 3.2
4 *295:7 *295:10 0.367676
5 *295:7 *295:8 1.404
6 *295:5 *295:8 0.551562
7 *295:5 *295:6 1.71602
8 *295:3 *295:6 0.183887
9 *295:3 *295:4 0.312012
10 *295:2 *295:4 0.735449
11 *369:D *295:2 6.4000001
*END

*D_NET *296 0.00278701

*CONN
*I *394:Y O *C 82.17 84.28 *L 0 *D AOI21XL
*I *371:D I *C 69.63 87.08 *L 0.00184 *D DFFRHQX1

*CAP
1 *394:Y 0.000139834
2 *371:D 6.33018e-05
3 *296:2 0.000158708
4 *296:3 0.000158708
5 *296:4 0.00095808
6 *296:5 0.00095808
7 *296:6 0.000209978
8 *296:7 0.000140302

*RES
1 *296:3 *394:Y 3.2
2 *296:3 *296:2 0.312012
3 *296:4 *296:2 3.2
4 *296:7 *371:D 6.4000001
5 *296:5 *296:4 3.49326
6 *296:6 *296:7 0.467969
7 *296:6 *296:5 3.2
*END

*D_NET *297 0.00908652

*CONN
*I *403:Y O *C 115.83 62.44 *L 0 *D AND2X2
*I *400:A0 I *C 114.51 78.12 *L 0.00314 *D AOI21XL
*I *395:A0 I *C 94.71 83.16 *L 0.00314 *D AOI21XL
*I *393:A0 I *C 101.97 78.12 *L 0.00314 *D AOI21XL
*I *390:A0 I *C 105.93 57.96 *L 0.00314 *D AOI21XL

*CAP
1 *403:Y 4.17218e-05
2 *400:A0 0.000139831
3 *395:A0 0.000139831
4 *393:A0 0.000139831
5 *390:A0 0.000139831
6 *297:5 0.000207996
7 *297:6 0.000277686
8 *297:7 0.000126924
9 *297:8 5.72465e-05
10 *297:9 0.000112435
11 *297:10 0.000112435
12 *297:11 0.00010089
13 *297:12 0.0001096
14 *297:13 0.000206537
15 *297:14 0.000519539
16 *297:15 0.000404773
17 *297:16 0.000788216
18 *297:17 0.000893249531
19 *297:18 0.00035576
20 *297:19 0.000206742
21 *297:20 0.000138632
22 *297:21 6.89547e-05
23 *297:22 0.000263593
24 *297:23 0.000326564
25 *297:24 0.000590947
26 *297:25 0.000590947
27 *297:26 0.000520575
28 *297:27 0.000465686
29 *297:28 0.000148214
30 *297:29 0.000203102
31 *297:30 0.00018815
32 *297:31 0.000232121
33 *297:32 7.7051e-05
34 *297:19 *185:2 9.545e-05
35 *297:16 *185:3 9.54500008e-05

*RES
1 *297:32 *403:Y 0.223828
2 *297:22 *297:32 6.4000001
3 *297:23 *297:22 0.77998
4 *297:10 *390:A0 3.2
5 *297:11 *297:23 3.2
6 *297:10 *297:9 0.312012
7 *297:12 *297:11 0.367676
8 *297:15 *297:9 3.2
9 *297:13 *297:12 0.155957
10 *297:15 *297:14 1.28701
11 *297:14 *297:13 0.919238
12 *297:29 *297:14 3.2
13 *297:29 *297:28 0.467969
14 *297:28 *297:25 0.183887
15 *297:8 *400:A0 3.2
16 *297:25 *297:24 2.80801
17 *297:8 *297:7 0.155957
18 *297:27 *297:24 0.183887
19 *297:21 *393:A0 3.2
20 *297:19 *297:7 3.2
21 *297:27 *297:26 2.18398
22 *297:21 *297:20 0.155957
23 *297:16 *297:19 1.10312
24 *297:16 *297:26 3.2
25 *297:17 *297:20 3.2
26 *297:17 *297:16 2.39014
27 *297:18 *297:17 1.28701
28 *297:18 *297:31 0.312012
29 *297:5 *395:A0 3.2
30 *297:30 *297:31 0.735449
31 *297:6 *297:5 0.936035
32 *297:6 *297:30 3.2
*END

*D_NET *298 0.00237026

*CONN
*I *393:Y O *C 103.29 77 *L 0 *D AOI21XL
*I *373:D I *C 103.95 94.36 *L 0.00184 *D DFFRHQX1

*CAP
1 *393:Y 0.000139839
2 *373:D 6.32964e-05
3 *298:2 0.000238533
4 *298:3 0.000253337
5 *298:4 0.0001416
6 *298:5 0.0001416
7 *298:6 6.57149e-05
8 *298:7 0.00066317
9 *298:8 0.00066317

*RES
1 *298:6 *373:D 6.4000001
2 *298:6 *298:8 0.183887
3 *298:7 *298:8 2.80801
4 *298:5 *298:7 0.183887
5 *298:4 *298:5 0.467969
6 *298:3 *298:4 0.183887
7 *298:2 *298:3 1.09199
8 *393:Y *298:2 3.2
*END

*D_NET *299 0.00564913

*CONN
*I *404:Y O *C 100.65 57.96 *L 0 *D NOR2X1
*I *399:A0 I *C 105.93 73.08 *L 0.00314 *D AOI21XL
*I *398:A0 I *C 101.97 83.16 *L 0.00314 *D AOI21XL
*I *392:A0 I *C 105.27 83.16 *L 0.00314 *D AOI21XL
*I *391:A0 I *C 102.63 57.96 *L 0.00314 *D AOI21XL

*CAP
1 *404:Y 0.000139846
2 *399:A0 0.000139846
3 *398:A0 6.33099e-05
4 *392:A0 6.33099e-05
5 *391:A0 0.000139846
6 *299:5 0.000152691
7 *299:6 0.000222379
8 *299:7 7.04935e-05
9 *299:8 7.04935e-05
10 *299:9 0.000250442
11 *299:10 0.000136556
12 *299:11 0.000266644
13 *299:12 0.000656731
14 *299:13 0.0014666
15 *299:14 0.000930469
16 *299:15 0.0001206
17 *299:16 0.0001206
18 *299:17 0.000163724
19 *299:18 0.0001206
20 *299:19 0.0001206
21 *299:20 0.000233412

*RES
1 *299:16 *398:A0 6.4000001
2 *299:18 *392:A0 6.4000001
3 *299:19 *399:A0 3.2
4 *299:10 *299:16 3.2
5 *299:11 *299:18 3.2
6 *299:20 *299:19 3.2
7 *299:10 *299:9 0.183887
8 *299:9 *299:11 0.735449
9 *299:17 *299:20 0.919238
10 *299:12 *299:9 3.2
11 *299:8 *391:A0 3.2
12 *299:13 *299:17 3.2
13 *299:13 *299:12 2.80801
14 *299:8 *299:7 0.155957
15 *299:14 *299:13 4.05596
16 *299:5 *299:7 3.2
17 *299:5 *299:14 3.2
18 *299:6 *299:5 0.551562
19 *299:15 *299:6 3.2
20 *404:Y *299:15 3.2
*END

*D_NET *300 0.00129256

*CONN
*I *392:Y O *C 106.59 84.28 *L 0 *D AOI21XL
*I *374:D I *C 103.95 87.08 *L 0.00184 *D DFFRHQX1

*CAP
1 *392:Y 6.33028e-05
2 *374:D 6.33028e-05
3 *300:2 0.00027681
4 *300:3 0.00022193
5 *300:4 0.000120599
6 *300:5 0.000275289
7 *300:6 0.000205613
8 *300:7 6.57189e-05

*RES
1 *300:7 *392:Y 6.4000001
2 *300:3 *300:7 0.183887
3 *300:3 *300:2 0.77998
4 *300:6 *300:2 3.2
5 *300:5 *300:6 0.551562
6 *300:4 *300:5 3.2
7 *374:D *300:4 6.4000001
*END

*D_NET *301 0.00188291

*CONN
*I *391:Y O *C 103.95 56.84 *L 0 *D AOI21XL
*I *382:D I *C 104.61 43.96 *L 0.00184 *D DFFRHQX1

*CAP
1 *391:Y 6.32996e-05
2 *382:D 6.32996e-05
3 *301:2 0.000837896
4 *301:3 0.00085269
5 *301:4 6.57197e-05

*RES
1 *301:4 *382:D 6.4000001
2 *301:2 *391:Y 6.4000001
3 *301:3 *301:4 0.183887
4 *301:3 *301:2 3.58799
*END

*D_NET *302 0.000928228

*CONN
*I *390:Y O *C 107.25 56.84 *L 0 *D AOI21XL
*I *381:D I *C 105.27 54.04 *L 0.00184 *D DFFRHQX1

*CAP
1 *390:Y 3.72995e-05
2 *381:D 6.33006e-05
3 *302:2 0.0002768
4 *302:3 0.000221917
5 *302:4 6.57207e-05
6 *302:5 0.00016888
7 *302:6 9.43109e-05

*RES
1 *302:6 *390:Y 0.189941
2 *302:5 *302:6 0.223828
3 *302:2 *302:5 3.2
4 *302:3 *302:2 0.624023
5 *302:4 *302:3 0.183887
6 *381:D *302:4 6.4000001
*END

*D_NET *303 0.00785287

*CONN
*I *427:Y O *C 94.71 73.08 *L 0 *D NOR2X1
*I *393:A1 I *C 101.31 77.56 *L 0.00314 *D AOI21XL
*I *392:A1 I *C 104.61 83.72 *L 0.00314 *D AOI21XL
*I *389:A1 I *C 76.89 73.64 *L 0.00314 *D AOI21XL
*I *386:A1 I *C 73.59 77.56 *L 0.00314 *D AOI21XL

*CAP
1 *427:Y 0.000139828
2 *393:A1 0.000139828
3 *392:A1 6.33026e-05
4 *389:A1 3.98493e-05
5 *386:A1 0.000139828
6 *303:5 0.000213391
7 *303:6 0.000279822
8 *303:7 0.000120198
9 *303:8 0.000189862
10 *303:9 0.00020372
11 *303:10 0.000266705
12 *303:11 0.000240124
13 *303:12 0.00031201
14 *303:13 0.00099034
15 *303:14 0.000964635
16 *303:15 0.000318447
17 *303:16 0.000344137
18 *303:17 0.000204324
19 *303:18 0.000195061
20 *303:19 0.000163387
21 *303:20 0.000163387
22 *303:21 0.000151736
23 *303:22 8.90225e-05
24 *303:23 0.000225133
25 *303:24 0.00018817
26 *303:25 0.00018817
27 *303:26 7.28531e-05
28 *303:27 0.000154985
29 *303:28 0.000133269
30 *303:25 *249:8 6.084e-05
31 *303:24 *249:9 6.084e-05
32 *303:17 *249:8 6.364e-05
33 *303:18 *249:9 6.364e-05
34 *303:11 *249:4 0.00012141
35 *303:12 *249:5 0.00012141
36 *303:12 *249:4 0.00010081
37 *303:27 *249:5 0.000100810003
38 *303:17 *273:7 3.182e-05
39 *303:18 *273:4 3.182e-05
40 *303:13 *273:5 3.75e-05
41 *303:14 *273:3 3.75e-05
42 *303:13 *273:7 6.262e-05
43 *303:14 *273:4 6.26199984e-05

*RES
1 *303:9 *392:A1 6.4000001
2 *303:10 *303:9 0.77998
3 *303:19 *303:10 3.2
4 *303:20 *303:19 0.919238
5 *303:11 *303:20 3.2
6 *303:12 *393:A1 3.2
7 *303:12 *303:11 0.936035
8 *303:27 *303:12 0.77998
9 *303:28 *303:27 3.2
10 *303:26 *303:28 0.183887
11 *303:25 *303:26 0.155957
12 *303:24 *303:25 0.919238
13 *303:17 *303:24 0.155957
14 *303:18 *303:17 0.735449
15 *303:7 *303:18 6.4000001
16 *303:8 *303:7 0.312012
17 *303:8 *427:Y 3.2
18 *303:13 *303:8 3.2
19 *303:14 *303:13 4.04482
20 *303:14 *303:15 0.312012
21 *303:21 *389:A1 0.223828
22 *303:16 *303:15 1.10312
23 *303:22 *303:21 3.2
24 *303:22 *303:16 3.2
25 *303:5 *386:A1 3.2
26 *303:22 *303:23 0.312012
27 *303:6 *303:5 0.77998
28 *303:6 *303:23 0.735449
*END

*D_NET *304 0.00422012

*CONN
*I *389:Y O *C 78.87 74.2 *L 0 *D AOI21XL
*I *375:D I *C 51.81 66.92 *L 0.00184 *D DFFRHQX1

*CAP
1 *389:Y 0.000139839
2 *375:D 6.331e-05
3 *304:2 0.00136212
4 *304:3 0.00129245
5 *304:4 6.58457e-05
6 *304:5 0.000346521
7 *304:6 0.000401268
8 *304:7 0.000120613
9 *304:2 *253:19 1.263e-05
10 *304:3 *253:18 1.263e-05
11 *304:2 *253:18 2.489e-05
12 *304:3 *253:17 2.489e-05
13 *304:2 *253:15 3.343e-05
14 *304:3 *253:11 3.343e-05
15 *304:2 *253:16 0.00014313
16 *304:3 *253:14 0.000143129999

*RES
1 *304:7 *389:Y 3.19999
2 *304:2 *304:7 3.19999
3 *304:3 *304:2 7.35428572
4 *304:6 *304:3 3.19999
5 *304:5 *304:6 1.56005
6 *304:4 *304:5 0.183812
7 *375:D *304:4 6.39999
*END

*D_NET *305 0.00638379

*CONN
*I *429:Y O *C 96.03 57.96 *L 0 *D NOR2X1
*I *391:A1 I *C 101.97 57.4 *L 0.00314 *D AOI21XL
*I *390:A1 I *C 105.27 57.4 *L 0.00314 *D AOI21XL
*I *388:A1 I *C 76.89 63.56 *L 0.00314 *D AOI21XL
*I *387:A1 I *C 73.59 63.56 *L 0.00314 *D AOI21XL

*CAP
1 *429:Y 7.99857e-05
2 *391:A1 0.000139841
3 *390:A1 0.000139841
4 *388:A1 6.32997e-05
5 *387:A1 0.000139841
6 *305:5 0.000204154
7 *305:6 0.000204154
8 *305:7 0.000154993
9 *305:8 0.000446499
10 *305:9 0.00094841
11 *305:10 0.00094841
12 *305:11 0.000394487
13 *305:12 0.000394487
14 *305:13 5.09263e-05
15 *305:14 0.000259841
16 *305:15 5.09263e-05
17 *305:16 0.000259841
18 *305:17 0.000331998
19 *305:18 0.000120594
20 *305:19 0.000130811
21 *305:20 0.000257425
22 *305:21 0.000316716
23 *305:22 0.000105109
24 *305:23 0.000120594
25 *305:24 0.000120594

*RES
1 *305:24 *390:A1 3.2
2 *305:23 *391:A1 3.2
3 *305:7 *305:24 3.2
4 *305:8 *305:23 3.2
5 *305:8 *305:7 0.919238
6 *305:21 *305:8 1.4709
7 *305:21 *305:22 0.312012
8 *305:19 *305:22 0.183887
9 *305:18 *305:19 3.2
10 *429:Y *305:18 3.2
11 *429:Y *305:20 0.189941
12 *305:17 *305:20 1.11914
13 *305:6 *305:17 3.2
14 *305:6 *305:5 0.467969
15 *305:9 *305:5 3.2
16 *305:10 *305:9 4.4126
17 *305:14 *305:10 3.2
18 *305:15 *388:A1 6.4000001
19 *305:14 *305:16 0.77998
20 *305:11 *305:15 6.4000001
21 *305:11 *305:16 3.2
22 *305:12 *305:11 0.919238
23 *305:13 *305:12 6.4000001
24 *387:A1 *305:13 3.2
*END

*D_NET *306 0.0080044

*CONN
*I *405:Y O *C 89.43 62.44 *L 0 *D AND2X2
*I *394:A0 I *C 80.85 83.16 *L 0.00314 *D AOI21XL
*I *389:A0 I *C 77.55 73.08 *L 0.00314 *D AOI21XL
*I *388:A0 I *C 77.55 63 *L 0.00314 *D AOI21XL
*I *385:A0 I *C 88.77 78.12 *L 0.00314 *D AOI21XL

*CAP
1 *405:Y 0.000139842
2 *394:A0 0.000139842
3 *389:A0 0.000139842
4 *388:A0 0.000139842
5 *385:A0 0.000139842
6 *306:5 0.000110173
7 *306:6 0.000179854
8 *306:7 0.000594888
9 *306:8 0.000616523
10 *306:9 0.000192946
11 *306:10 0.000420403
12 *306:11 0.000206858
13 *306:12 0.000206858
14 *306:13 0.00027895
15 *306:14 0.000110333
16 *306:15 0.000118424
17 *306:16 0.000545957
18 *306:17 0.000545957
19 *306:18 0.000157107
20 *306:19 7.93259e-05
21 *306:20 0.000285063
22 *306:21 0.000215382
23 *306:22 0.000201423
24 *306:23 0.000201423
25 *306:24 0.000182623
26 *306:25 0.000165085
27 *306:26 0.000617267305
28 *306:27 0.000465585
29 *306:16 *268:11 0.0002014
30 *306:17 *268:12 0.0002014
31 *306:18 *268:11 6.142e-05
32 *306:19 *268:12 6.142e-05
33 *306:11 *268:6 8.13e-06
34 *306:12 *268:7 8.13e-06
35 *306:20 *268:15 3.245e-05
36 *306:21 *268:6 3.24499813e-05

*RES
1 *306:21 *385:A0 3.20000005
2 *306:5 *394:A0 3.20000005
3 *306:21 *306:20 1.09199
4 *306:6 *306:5 0.312012
5 *306:27 *306:20 3.20000005
6 *306:12 *405:Y 3.20000005
7 *306:26 *306:6 3.20000005
8 *306:26 *306:27 2.2063
9 *306:12 *306:11 0.624023
10 *306:25 *306:26 0.919287
11 *306:18 *306:11 3.20000005
12 *306:7 *306:25 3.20000005
13 *306:19 *306:18 0.367725
14 *306:8 *389:A0 3.20000005
15 *306:8 *306:7 2.496
16 *306:19 *306:16 0.0779785
17 *306:22 *306:8 0.183838
18 *306:17 *306:16 2.75786
19 *306:23 *306:22 0.935986
20 *306:14 *306:17 0.0779785
21 *306:9 *306:23 0.183838
22 *306:15 *306:14 0.551562
23 *306:24 *388:A0 3.20000005
24 *306:10 *306:9 0.77998
25 *306:10 *306:15 3.20000005
26 *306:13 *306:24 0.367725
27 *306:13 *306:10 1.09199
*END

*D_NET *307 0.00224915

*CONN
*I *388:Y O *C 78.87 64.12 *L 0 *D AOI21XL
*I *383:D I *C 66.33 66.92 *L 0.00184 *D DFFRHQX1

*CAP
1 *388:Y 0.000139844
2 *383:D 6.3304e-05
3 *307:2 0.000192396
4 *307:3 0.000192396
5 *307:4 0.00071099
6 *307:5 0.00071099
7 *307:6 0.000154468
8 *307:7 8.47742e-05

*RES
1 *307:3 *388:Y 3.2
2 *307:3 *307:2 0.467969
3 *307:4 *307:2 3.2
4 *307:7 *383:D 6.4000001
5 *307:5 *307:4 3.49326
6 *307:6 *307:7 0.312012
7 *307:6 *307:5 3.2
*END

*D_NET *308 0.0102886

*CONN
*I *406:Y O *C 112.53 63 *L 0 *D NOR2X1
*I *397:A0 I *C 113.85 73.08 *L 0.00314 *D AOI21XL
*I *396:A0 I *C 85.47 83.16 *L 0.00314 *D AOI21XL
*I *387:A0 I *C 74.25 63 *L 0.00314 *D AOI21XL
*I *386:A0 I *C 74.25 78.12 *L 0.00314 *D AOI21XL

*CAP
1 *406:Y 4.12046e-05
2 *397:A0 0.000139849
3 *396:A0 0.000139849
4 *387:A0 0.000139849
5 *386:A0 6.32949e-05
6 *308:5 0.000220153
7 *308:6 0.000220153
8 *308:7 0.000291021
9 *308:8 0.000360704
10 *308:9 0.00054454
11 *308:10 0.000538201
12 *308:11 5.72461e-05
13 *308:12 0.00013951
14 *308:13 0.000209193
15 *308:14 0.000459058
16 *308:15 0.000459058
17 *308:16 0.000206386
18 *308:17 0.000145946
19 *308:18 0.000188288
20 *308:19 0.000411804
21 *308:20 0.000644394
22 *308:21 0.000318991
23 *308:22 0.000189232
24 *308:23 0.000179965
25 *308:24 9.13131e-05
26 *308:25 9.32729e-05
27 *308:26 0.000127171
28 *308:27 5.74881e-05
29 *308:28 0.000120589
30 *308:29 0.00158564
31 *308:30 0.000120589
32 *308:31 0.000120589
33 *308:32 0.00158564
34 *308:33 7.85138e-05

*RES
1 *406:Y *308:33 0.223874
2 *308:5 *396:A0 3.19996
3 *308:33 *308:25 0.189973
4 *308:6 *308:5 0.935953
5 *308:25 *308:24 0.223874
6 *308:16 *308:6 3.19996
7 *308:10 *308:24 3.19996
8 *308:11 *397:A0 3.19996
9 *308:17 *308:16 0.551529
10 *308:10 *308:9 2.18405
11 *308:9 *308:11 0.156072
12 *308:17 *308:14 0.156072
13 *308:12 *308:9 3.19996
14 *308:15 *308:14 2.02238
15 *308:13 *308:12 0.551529
16 *308:22 *308:15 0.156072
17 *308:27 *308:13 3.19996
18 *308:30 *386:A0 6.40008
19 *308:23 *308:22 0.551529
20 *308:27 *308:26 0.156072
21 *308:31 *308:30 3.19996
22 *308:18 *308:23 3.19996
23 *308:32 *308:26 3.19996
24 *308:19 *308:31 3.19996
25 *308:19 *308:18 0.468056
26 *308:29 *308:32 10.4798574
27 *308:20 *308:19 1.40401
28 *308:20 *308:29 3.19996
29 *308:21 *308:20 1.55992
30 *308:28 *308:21 3.19996
31 *308:7 *308:28 3.19996
32 *308:8 *308:7 1.24794
33 *387:A0 *308:8 3.19996
*END

*D_NET *309 0.00218543

*CONN
*I *387:Y O *C 75.57 64.12 *L 0 *D AOI21XL
*I *384:D I *C 65.67 56.84 *L 0.00184 *D DFFRHQX1

*CAP
1 *387:Y 0.000139841
2 *384:D 6.32994e-05
3 *309:2 6.58482e-05
4 *309:3 0.00026541
5 *309:4 0.00032016
6 *309:5 0.00048343
7 *309:6 0.000147167
8 *309:7 0.00055311
9 *309:8 0.000147167

*RES
1 *309:8 *387:Y 3.2
2 *309:6 *309:8 0.467969
3 *309:7 *309:6 3.2
4 *309:5 *309:7 2.57402
5 *309:4 *309:5 3.2
6 *309:3 *309:4 1.09199
7 *309:2 *309:3 0.183887
8 *384:D *309:2 6.4000001
*END

*D_NET *310 0.00215327

*CONN
*I *386:Y O *C 75.57 77 *L 0 *D AOI21XL
*I *376:D I *C 63.69 74.2 *L 0.00184 *D DFFRHQX1

*CAP
1 *386:Y 0.000139843
2 *376:D 6.33006e-05
3 *310:2 0.000335522
4 *310:3 0.000145224
5 *310:4 0.000118946
6 *310:5 0.000188626
7 *310:6 0.00051933
8 *310:7 0.000156722
9 *310:8 0.00032904
10 *310:9 0.000156722

*RES
1 *310:9 *386:Y 3.2
2 *310:7 *310:9 0.312012
3 *310:8 *310:7 3.2
4 *310:6 *310:8 1.4709
5 *310:2 *310:6 1.10312
6 *310:3 *310:2 0.735449
7 *310:5 *310:3 3.2
8 *310:4 *310:5 0.467969
9 *376:D *310:4 6.4000001
*END

*D_NET *311 0.001539

*CONN
*I *385:Y O *C 87.45 77 *L 0 *D AOI21XL
*I *379:D I *C 83.49 87.08 *L 0.00184 *D DFFRHQX1

*CAP
1 *385:Y 0.000163989
2 *379:D 6.33044e-05
3 *311:2 0.00038075
4 *311:3 0.00038075
5 *311:4 6.58491e-05
6 *311:5 0.000199319
7 *311:6 0.000169892
8 *311:7 0.00011514

*RES
1 *311:5 *385:Y 0.895312
2 *311:6 *311:5 3.2
3 *311:6 *311:7 0.467969
4 *311:3 *311:7 0.183887
5 *311:3 *311:2 1.87197
6 *311:4 *311:2 0.183887
7 *379:D *311:4 6.4000001
*END

*D_NET *312 0.0064432

*CONN
*I *604:Y O *C 82.17 36.68 *L 0 *D MXI2X1
*I *580:A I *C 81.51 47.32 *L 0.00346 *D INVX1
*I *471:A0 I *C 96.03 47.32 *L 0.00465 *D AOI22X1
*I *470:A0 I *C 87.45 47.32 *L 0.00465 *D AOI22X1
*I *469:A0 I *C 96.03 53.48 *L 0.00465 *D AOI22X1
*I *468:A0 I *C 82.17 53.48 *L 0.00465 *D AOI22X1

*CAP
1 *604:Y 7.45923e-05
2 *580:A 0.000139839
3 *471:A0 6.32983e-05
4 *470:A0 6.32983e-05
5 *469:A0 6.32983e-05
6 *468:A0 6.32983e-05
7 *312:6 0.000223516
8 *312:7 0.000208708
9 *312:8 4.83829e-05
10 *312:9 0.000168412
11 *312:10 0.00011607
12 *312:11 6.99197e-05
13 *312:12 6.99197e-05
14 *312:13 0.000380381
15 *312:14 0.000319399
16 *312:15 0.000261372
17 *312:16 0.000502818711
18 *312:17 0.00049111
19 *312:18 0.00049111
20 *312:19 0.000102896
21 *312:20 0.000172578
22 *312:21 0.0004713
23 *312:22 0.0004713
24 *312:23 0.000383695
25 *312:24 0.00013354
26 *312:25 0.000130778
27 *312:26 0.000120597
28 *312:27 9.15178e-05
29 *312:28 0.000124801
30 *312:29 5.51194e-05
31 *312:6 *214:9 0.00014314
32 *312:7 *214:8 0.00014314
33 *312:8 *214:5 8.86e-06
34 *312:9 *214:3 8.86e-06
35 *312:9 *214:5 3.116e-05
36 *312:10 *214:3 3.11599956e-05

*RES
1 *312:17 *469:A0 6.4000001
2 *312:26 *468:A0 6.4000001
3 *312:18 *471:A0 6.4000001
4 *312:18 *312:17 1.71602
5 *312:20 *312:26 3.2
6 *312:13 *312:18 3.2
7 *312:20 *312:19 0.367676
8 *312:29 *470:A0 6.4000001
9 *312:14 *312:13 1.28701
10 *604:Y *312:25 0.379785
11 *312:21 *312:19 3.2
12 *312:28 *312:29 0.155957
13 *312:15 *312:14 0.155957
14 *312:25 *312:27 0.223828
15 *312:22 *312:21 1.87197
16 *312:16 *312:28 3.2
17 *312:16 *312:15 1.10312
18 *312:7 *312:27 6.4000001
19 *312:23 *312:22 3.2
20 *312:23 *312:16 1.10312
21 *312:7 *312:6 1.24805
22 *312:24 *312:23 0.551562
23 *312:8 *580:A 3.2
24 *312:12 *312:6 0.183887
25 *312:9 *312:24 3.2
26 *312:9 *312:8 0.155957
27 *312:12 *312:11 0.155957
28 *312:10 *312:9 0.624023
29 *312:10 *312:11 0.183887
*END

