*SPEF "IEEE 1481-1998"
*DESIGN "aer_improved_depth1"
*DATE "Wed Aug 19 15:55:15 2026"
*VENDOR "Cadence Design Systems, Inc."
*PROGRAM "Innovus"
*VERSION "23.14-s088_1"
*DESIGN_FLOW "COUPLING C" "PIN_CAP NONE" "NAME_SCOPE LOCAL"
*DIVIDER /
*DELIMITER :
*BUS_DELIMITER []
*T_UNIT 1 NS
*C_UNIT 1 PF
*R_UNIT 1 OHM
*L_UNIT 1 HENRY

// MMMC spef file for corner 'rc_180nm'

*NAME_MAP

*1 FE_PHN16_req_meta_q_15
*2 FE_PHN15_req_meta_q_2
*3 FE_PHN14_req_meta_q_1
*4 FE_PHN13_req_meta_q_4
*5 FE_PHN12_req_meta_q_10
*6 FE_PHN11_req_meta_q_3
*7 FE_PHN10_req_meta_q_5
*8 FE_PHN9_req_meta_q_9
*9 FE_PHN8_req_meta_q_0
*10 FE_PHN7_req_meta_q_13
*11 FE_PHN6_req_meta_q_11
*12 FE_PHN5_req_meta_q_6
*13 FE_PHN4_req_meta_q_8
*14 FE_PHN3_req_meta_q_7
*15 FE_PHN2_req_meta_q_14
*16 FE_PHN1_req_meta_q_12
*17 CTS_1
*18 FE_OFN0_rst_n
*19 clk
*20 rst_n
*21 src_req_async[15]
*22 src_req_async[14]
*23 src_req_async[13]
*24 src_req_async[12]
*25 src_req_async[11]
*26 src_req_async[10]
*27 src_req_async[9]
*28 src_req_async[8]
*29 src_req_async[7]
*30 src_req_async[6]
*31 src_req_async[5]
*32 src_req_async[4]
*33 src_req_async[3]
*34 src_req_async[2]
*35 src_req_async[1]
*36 src_req_async[0]
*37 src_ack_async[15]
*38 src_ack_async[14]
*39 src_ack_async[13]
*40 src_ack_async[12]
*41 src_ack_async[11]
*42 src_ack_async[10]
*43 src_ack_async[9]
*44 src_ack_async[8]
*45 src_ack_async[7]
*46 src_ack_async[6]
*47 src_ack_async[5]
*48 src_ack_async[4]
*49 src_ack_async[3]
*50 src_ack_async[2]
*51 src_ack_async[1]
*52 src_ack_async[0]
*53 out_addr[3]
*54 out_addr[2]
*55 out_addr[1]
*56 out_addr[0]
*57 out_valid
*58 out_ready
*59 pending_q[15]
*60 pending_q[14]
*61 pending_q[13]
*62 pending_q[12]
*63 pending_q[11]
*64 pending_q[10]
*65 pending_q[9]
*66 pending_q[8]
*67 pending_q[7]
*68 pending_q[6]
*69 pending_q[5]
*70 pending_q[4]
*71 pending_q[3]
*72 pending_q[2]
*73 pending_q[1]
*74 pending_q[0]
*75 local_rr_q\[0\][1]
*76 local_rr_q\[0\][0]
*77 local_rr_q\[3\][1]
*78 local_rr_q\[3\][0]
*79 local_rr_q\[2\][1]
*80 local_rr_q\[2\][0]
*81 local_rr_q\[1\][1]
*82 local_rr_q\[1\][0]
*83 group_rr_q[1]
*84 group_rr_q[0]
*85 req_sync_q[15]
*86 req_sync_q[14]
*87 req_sync_q[13]
*88 req_sync_q[12]
*89 req_sync_q[11]
*90 req_sync_q[10]
*91 req_sync_q[9]
*92 req_sync_q[8]
*93 req_sync_q[7]
*94 req_sync_q[6]
*95 req_sync_q[5]
*96 req_sync_q[4]
*97 req_sync_q[3]
*98 req_sync_q[2]
*99 req_sync_q[1]
*100 req_sync_q[0]
*101 req_meta_q[15]
*102 req_meta_q[14]
*103 req_meta_q[13]
*104 req_meta_q[12]
*105 req_meta_q[11]
*106 req_meta_q[10]
*107 req_meta_q[9]
*108 req_meta_q[8]
*109 req_meta_q[7]
*110 req_meta_q[6]
*111 req_meta_q[5]
*112 req_meta_q[4]
*113 req_meta_q[3]
*114 req_meta_q[2]
*115 req_meta_q[1]
*116 req_meta_q[0]
*117 n_0
*118 n_1
*119 n_2
*120 n_3
*121 n_4
*122 n_5
*123 n_6
*124 n_7
*125 n_8
*126 n_9
*127 n_10
*128 n_11
*129 n_12
*130 n_13
*131 n_14
*132 n_15
*133 n_16
*134 n_17
*135 n_18
*136 n_19
*137 n_20
*138 n_21
*139 n_22
*140 n_23
*141 n_24
*142 n_25
*143 n_26
*144 n_27
*145 n_28
*146 n_29
*147 n_30
*148 n_31
*149 n_32
*150 n_33
*151 n_34
*152 n_35
*153 n_36
*154 n_37
*155 n_38
*156 n_39
*157 n_40
*158 n_41
*159 n_42
*160 n_43
*161 n_44
*162 n_45
*163 n_46
*164 n_47
*165 n_48
*166 n_49
*167 n_50
*168 n_51
*169 n_52
*170 n_53
*171 n_54
*172 n_55
*173 n_56
*174 n_57
*175 n_58
*176 n_59
*177 n_60
*178 n_61
*179 n_62
*180 n_63
*181 n_64
*182 n_65
*183 n_66
*184 n_67
*185 n_68
*186 n_69
*187 n_70
*188 n_71
*189 n_72
*190 n_73
*191 n_74
*192 n_75
*193 n_76
*194 n_77
*195 n_78
*196 n_79
*197 n_80
*198 n_81
*199 n_82
*200 n_83
*201 n_84
*202 n_85
*203 n_86
*204 n_87
*205 n_88
*206 n_89
*207 n_90
*208 n_91
*209 n_92
*210 n_93
*211 n_94
*212 n_95
*213 n_96
*214 n_97
*215 n_98
*216 n_99
*217 n_100
*218 n_101
*219 n_102
*220 n_103
*221 n_104
*222 n_105
*223 n_106
*224 n_107
*225 n_108
*226 n_109
*227 n_110
*228 n_111
*229 n_112
*230 n_113
*231 n_114
*232 n_115
*233 n_116
*234 n_117
*235 n_118
*236 n_119
*237 n_120
*238 n_121
*239 n_122
*240 n_123
*241 n_124
*242 n_125
*243 n_126
*244 n_128
*245 n_129
*246 n_130
*247 n_131
*248 n_132
*249 n_133
*250 n_134
*251 n_135
*252 n_136
*253 n_137
*254 n_138
*255 n_139
*256 n_140
*257 n_141
*258 n_142
*259 n_143
*260 n_144
*261 n_145
*262 n_146
*263 n_147
*264 n_148
*265 n_149
*266 n_150
*267 n_151
*268 n_152
*269 n_153
*270 n_154
*271 n_155
*272 n_156
*273 n_157
*274 n_158
*275 n_159
*276 n_160
*277 n_161
*278 n_162
*279 n_163
*280 n_164
*281 n_165
*282 n_166
*283 n_167
*284 n_168
*285 n_169
*286 n_170
*287 n_171
*288 n_172
*289 n_173
*290 n_174
*291 n_175
*292 n_176
*293 n_177
*294 n_178
*295 n_179
*296 n_180
*297 n_181
*298 n_182
*299 n_183
*300 n_184
*301 n_185
*302 n_186
*303 n_187
*304 n_188
*305 n_190
*306 n_191
*307 n_192
*308 n_193
*309 n_194
*310 n_195
*311 n_196
*312 n_197
*313 n_198
*314 n_199
*315 n_200
*316 n_201
*317 n_202
*318 n_203
*319 n_204
*320 n_205
*321 n_206
*322 n_207
*323 n_208
*324 n_209
*325 n_210
*326 n_211
*327 n_212
*328 n_213
*329 n_214
*330 n_215
*331 n_216
*332 n_217
*333 n_218
*334 n_219
*335 n_220
*336 n_221
*337 n_222
*338 n_223
*339 n_224
*340 n_225
*341 n_226
*342 n_227
*343 n_228
*344 n_229
*345 n_230
*346 n_231
*347 n_232
*348 n_233
*349 n_234
*350 n_235
*351 n_236
*352 n_237
*353 n_238
*354 n_258
*355 FE_PHC16_req_meta_q_15
*356 FE_PHC15_req_meta_q_2
*357 FE_PHC14_req_meta_q_1
*358 FE_PHC13_req_meta_q_4
*359 FE_PHC12_req_meta_q_10
*360 FE_PHC11_req_meta_q_3
*361 FE_PHC10_req_meta_q_5
*362 FE_PHC9_req_meta_q_9
*363 FE_PHC8_req_meta_q_0
*364 FE_PHC7_req_meta_q_13
*365 FE_PHC6_req_meta_q_11
*366 FE_PHC5_req_meta_q_6
*367 FE_PHC4_req_meta_q_8
*368 FE_PHC3_req_meta_q_7
*369 FE_PHC2_req_meta_q_14
*370 FE_PHC1_req_meta_q_12
*371 CTS_ccl_a_buf_00001
*372 FE_OFC0_rst_n
*373 pending_q_reg\[3\]
*374 pending_q_reg\[15\]
*375 pending_q_reg\[14\]
*376 pending_q_reg\[2\]
*377 local_rr_q_reg\[0\]\[1\]
*378 local_rr_q_reg\[3\]\[1\]
*379 pending_q_reg\[10\]
*380 pending_q_reg\[7\]
*381 pending_q_reg\[6\]
*382 pending_q_reg\[11\]
*383 local_rr_q_reg\[2\]\[1\]
*384 local_rr_q_reg\[1\]\[1\]
*385 pending_q_reg\[4\]
*386 pending_q_reg\[5\]
*387 pending_q_reg\[1\]
*388 pending_q_reg\[0\]
*389 pending_q_reg\[9\]
*390 pending_q_reg\[8\]
*391 pending_q_reg\[13\]
*392 pending_q_reg\[12\]
*393 g10376__2398
*394 g10377__5107
*395 g10378__6260
*396 g10379__4319
*397 g10391__8428
*398 g10389__5526
*399 g10386__6783
*400 g10392__3680
*401 g10381__1617
*402 g10385__2802
*403 g10393__1705
*404 g10384__5122
*405 out_addr_q_reg\[1\]
*406 g10390__8246
*407 g10388__7098
*408 g10387__6131
*409 g10394__1881
*410 g10382__5115
*411 g10395__7482
*412 g10397__4733
*413 g10383__6161
*414 g10398__9315
*415 g10396__9945
*416 g10400__2883
*417 g10402__2346
*418 g10399__1666
*419 g10401__7410
*420 g10406
*421 g10407__6417
*422 g10417__5477
*423 local_rr_q_reg\[2\]\[0\]
*424 local_rr_q_reg\[1\]\[0\]
*425 local_rr_q_reg\[0\]\[0\]
*426 local_rr_q_reg\[3\]\[0\]
*427 out_addr_q_reg\[0\]
*428 g10412__2398
*429 g10413__5107
*430 g10420__6260
*431 g10410__4319
*432 g10411__8428
*433 g10414__5526
*434 g10416__6783
*435 g10419__3680
*436 g10415__1617
*437 g10418__2802
*438 g10421
*439 g10423__1705
*440 g10422__5122
*441 g10425__8246
*442 g10424__7098
*443 group_rr_q_reg\[1\]
*444 g10428__6131
*445 g10429__1881
*446 g10426__5115
*447 g10430__7482
*448 g10435__4733
*449 g10431__6161
*450 g10433__9315
*451 g10434__9945
*452 g10437__2883
*453 g10443__2346
*454 g10436__1666
*455 g10438__7410
*456 out_addr_q_reg\[3\]
*457 g10439__6417
*458 g10455
*459 g10447__5477
*460 g10444__2398
*461 g10441__5107
*462 g10432__6260
*463 g10445__4319
*464 out_addr_q_reg\[2\]
*465 g10446__8428
*466 g10459__5526
*467 g10456
*468 g10449__6783
*469 g10461__3680
*470 g10452__1617
*471 g10451__2802
*472 g10442__1705
*473 g10454
*474 g10450__5122
*475 g10465__8246
*476 group_rr_q_reg\[0\]
*477 g10458__7098
*478 g10460__6131
*479 g10462__1881
*480 g10463__5115
*481 g10464__7482
*482 g10468
*483 g10467
*484 g10466
*485 g10474__4733
*486 g10457__6161
*487 g10473
*488 g10469__9945
*489 g10471__2883
*490 g10470__2346
*491 g10475__1666
*492 g10477__7410
*493 g10472__6417
*494 g10479__5477
*495 g10480
*496 g10481__2398
*497 g10482__5107
*498 out_valid_q_reg
*499 g10484__6260
*500 g10486
*501 g10485__4319
*502 g10488__8428
*503 g10487__5526
*504 g10489__6783
*505 g10490__3680
*506 g10491__1617
*507 g10494__2802
*508 g10492__1705
*509 g10495__5122
*510 g10493__8246
*511 g10496__7098
*512 g10497__6131
*513 g10498__1881
*514 g10500__5115
*515 g10499__7482
*516 g10501__4733
*517 g10503
*518 g10502
*519 g10504__6161
*520 g10505__9315
*521 ack_q_reg\[8\]
*522 ack_q_reg\[6\]
*523 ack_q_reg\[12\]
*524 ack_q_reg\[13\]
*525 ack_q_reg\[4\]
*526 ack_q_reg\[7\]
*527 ack_q_reg\[10\]
*528 ack_q_reg\[9\]
*529 g10507
*530 g10506__9945
*531 ack_q_reg\[15\]
*532 ack_q_reg\[1\]
*533 ack_q_reg\[0\]
*534 ack_q_reg\[11\]
*535 ack_q_reg\[3\]
*536 ack_q_reg\[5\]
*537 g10534__2883
*538 ack_q_reg\[2\]
*539 ack_q_reg\[14\]
*540 g10508__2346
*541 g10509__1666
*542 g10510__7410
*543 g10527__6417
*544 g10528__5477
*545 g10524
*546 g10526
*547 g10560
*548 g10559
*549 g10540
*550 g10571
*551 g10567
*552 g10525
*553 g10532__2398
*554 g10530__5107
*555 g10539__6260
*556 g10538__4319
*557 g10537__8428
*558 g10568
*559 g10562
*560 g10563
*561 g10564
*562 g10565
*563 g10566
*564 g10561
*565 g10569
*566 g10570
*567 g10572
*568 g10573
*569 g10574
*570 g10547__5526
*571 g10555__6783
*572 g10554__3680
*573 g10541__1617
*574 g10542__2802
*575 g10543__1705
*576 g10544__5122
*577 g10545__8246
*578 g10546__7098
*579 g10575__6131
*580 g10548__1881
*581 g10549__5115
*582 g10550__7482
*583 g10551__4733
*584 g10552__6161
*585 g10553__9315
*586 g10556__9945
*587 g10535__2883
*588 g10536__2346
*589 g10591__1666
*590 g10577__7410
*591 g10578__6417
*592 g10579__5477
*593 g10580__2398
*594 g10581__5107
*595 g10582__6260
*596 g10583__4319
*597 g10584__8428
*598 g10585__5526
*599 g10586__6783
*600 g10587__3680
*601 g10588__1617
*602 g10589__2802
*603 g10590__1705
*604 g10576__5122
*605 g10557__8246
*606 g10558__7098
*607 g10592__6131
*608 g10593__1881
*609 g10611
*610 req_sync_q_reg\[15\]
*611 req_sync_q_reg\[12\]
*612 req_sync_q_reg\[7\]
*613 req_sync_q_reg\[6\]
*614 req_sync_q_reg\[13\]
*615 req_sync_q_reg\[5\]
*616 req_sync_q_reg\[2\]
*617 g10628__5115
*618 req_sync_q_reg\[8\]
*619 req_sync_q_reg\[1\]
*620 req_sync_q_reg\[9\]
*621 req_sync_q_reg\[4\]
*622 req_sync_q_reg\[11\]
*623 req_sync_q_reg\[10\]
*624 g10629__7482
*625 g10627__4733
*626 req_sync_q_reg\[3\]
*627 g10612__6161
*628 req_sync_q_reg\[0\]
*629 g10615__9315
*630 g10616__9945
*631 g10617__2883
*632 g10618__2346
*633 g10619__1666
*634 g10620__7410
*635 g10622__6417
*636 g10623__5477
*637 g10624__2398
*638 g10625__5107
*639 g10626__6260
*640 req_sync_q_reg\[14\]
*641 g10647__4319
*642 g10646__8428
*643 g10610__5526
*644 g10613__6783
*645 g10614__3680
*646 g10621__1617
*647 req_meta_q_reg\[9\]
*648 req_meta_q_reg\[10\]
*649 req_meta_q_reg\[6\]
*650 req_meta_q_reg\[3\]
*651 req_meta_q_reg\[1\]
*652 req_meta_q_reg\[0\]
*653 req_meta_q_reg\[12\]
*654 g10648__2802
*655 req_meta_q_reg\[14\]
*656 req_meta_q_reg\[4\]
*657 req_meta_q_reg\[11\]
*658 req_meta_q_reg\[7\]
*659 req_meta_q_reg\[2\]
*660 req_meta_q_reg\[5\]
*661 req_meta_q_reg\[15\]
*662 req_meta_q_reg\[8\]
*663 req_meta_q_reg\[13\]
*664 g10672
*665 g2


*PORTS

*19 I *C 0 0.28
*20 I *C 0 8.68
*21 I *C 0 155.96
*22 I *C 0 147
*23 I *C 0 138.6
*24 I *C 0 129.64
*25 I *C 0 121.24
*26 I *C 0 112.28
*27 I *C 0 103.88
*28 I *C 0 94.92
*29 I *C 0 86.52
*30 I *C 0 78.12
*31 I *C 0 69.16
*32 I *C 0 60.76
*33 I *C 0 51.8
*34 I *C 0 43.4
*35 I *C 0 34.44
*36 I *C 0 26.04
*37 O *C 165.66 31.64
*38 O *C 165.66 39.48
*39 O *C 165.66 47.32
*40 O *C 165.66 55.16
*41 O *C 165.66 63
*42 O *C 165.66 70.84
*43 O *C 165.66 78.12
*44 O *C 165.66 85.96
*45 O *C 165.66 93.8
*46 O *C 165.66 101.64
*47 O *C 165.66 109.48
*48 O *C 165.66 117.32
*49 O *C 165.66 125.16
*50 O *C 165.66 133
*51 O *C 165.66 140.84
*52 O *C 165.66 148.68
*53 O *C 165.66 0.28
*54 O *C 165.66 8.12
*55 O *C 165.66 15.96
*56 O *C 165.66 23.8
*57 O *C 165.66 155.96
*58 I *C 0 17.08


*D_NET *1 0.00200662

*CONN
*I *355:Y O *C 37.29 47.32 *L 0 *D BUFX3
*I *610:D I *C 23.43 46.76 *L 0.00184 *D DFFRHQX1

*CAP
1 *355:Y 0.000139839
2 *610:D 6.33041e-05
3 *1:2 0.000120601
4 *1:3 0.00078114
5 *1:4 0.000120601
6 *1:5 0.00078114

*RES
1 *1:4 *355:Y 3.2
2 *1:5 *1:4 3.2
3 *1:3 *1:5 3.86104
4 *1:2 *1:3 3.2
5 *610:D *1:2 6.4000001
*END

*D_NET *2 0.00188706

*CONN
*I *356:Y O *C 61.71 107.8 *L 0 *D BUFX3
*I *616:D I *C 54.45 114.52 *L 0.00184 *D DFFRHQX1

*CAP
1 *356:Y 0.000139842
2 *616:D 6.32975e-05
3 *2:2 0.0001206
4 *2:3 0.00049354
5 *2:4 0.000288119
6 *2:5 0.000357802
7 *2:6 0.000423864

*RES
1 *2:4 *356:Y 3.2
2 *2:4 *2:5 1.55996
3 *2:6 *2:5 3.2
4 *2:3 *2:6 2.02246
5 *2:2 *2:3 3.2
6 *616:D *2:2 6.4000001
*END

*D_NET *3 0.00118036

*CONN
*I *357:Y O *C 36.63 117.88 *L 0 *D BUFX3
*I *619:D I *C 38.61 114.52 *L 0.00184 *D DFFRHQX1

*CAP
1 *357:Y 0.00013984
2 *619:D 6.32971e-05
3 *3:2 0.0002824
4 *3:3 0.000145912
5 *3:4 0.000212717
6 *3:5 0.0001206
7 *3:6 0.000215591

*RES
1 *3:5 *619:D 6.4000001
2 *3:6 *3:5 3.2
3 *3:3 *3:6 0.551562
4 *3:4 *357:Y 3.2
5 *3:2 *3:3 3.2
6 *3:2 *3:4 0.77998
*END

*D_NET *4 0.00138629

*CONN
*I *358:Y O *C 59.07 107.8 *L 0 *D BUFX3
*I *621:D I *C 54.45 104.44 *L 0.00184 *D DFFRHQX1

*CAP
1 *358:Y 3.72976e-05
2 *621:D 6.33001e-05
3 *4:2 0.000146241
4 *4:3 0.00037902
5 *4:4 0.000298502
6 *4:5 0.00015893
7 *4:6 0.0001421
8 *4:7 0.000160896

*RES
1 *358:Y *4:7 0.189941
2 *4:5 *4:7 0.671484
3 *4:6 *4:5 3.2
4 *4:4 *4:6 0.183887
5 *4:3 *4:4 1.404
6 *4:2 *4:3 0.551562
7 *621:D *4:2 6.4000001
*END

*D_NET *5 0.00197805

*CONN
*I *359:Y O *C 36.63 77.56 *L 0 *D BUFX3
*I *623:D I *C 22.77 77 *L 0.00184 *D DFFRHQX1

*CAP
1 *359:Y 0.000139843
2 *623:D 6.33045e-05
3 *5:2 0.00076685
4 *5:3 0.00076685
5 *5:4 0.000120606
6 *5:5 0.000120606

*RES
1 *5:5 *359:Y 3.2
2 *5:2 *5:5 3.2
3 *5:3 *5:2 3.86104
4 *5:4 *5:3 3.2
5 *623:D *5:4 6.4000001
*END

*D_NET *6 0.00110748

*CONN
*I *360:Y O *C 48.51 97.72 *L 0 *D BUFX3
*I *626:D I *C 53.79 97.16 *L 0.00184 *D DFFRHQX1

*CAP
1 *360:Y 0.000139838
2 *626:D 6.3302e-05
3 *6:2 0.000296734
4 *6:3 0.00036641
5 *6:4 0.000120599
6 *6:5 0.000120599

*RES
1 *6:5 *626:D 6.4000001
2 *6:2 *6:5 3.2
3 *6:3 *6:2 1.4709
4 *6:4 *6:3 3.2
5 *360:Y *6:4 3.2
*END

*D_NET *7 0.000869834

*CONN
*I *361:Y O *C 51.15 97.72 *L 0 *D BUFX3
*I *615:D I *C 53.13 94.36 *L 0.00184 *D DFFRHQX1

*CAP
1 *361:Y 3.98603e-05
2 *615:D 6.32998e-05
3 *7:2 7.51929e-05
4 *7:3 0.000142102
5 *7:4 0.00024183
6 *7:5 0.00024183
7 *7:6 6.57205e-05

*RES
1 *7:6 *615:D 6.4000001
2 *7:4 *7:6 0.183887
3 *7:4 *7:5 0.936035
4 *7:3 *7:5 0.183887
5 *7:2 *7:3 3.2
6 *361:Y *7:2 0.223828
*END

*D_NET *8 0.00104973

*CONN
*I *362:Y O *C 39.27 77.56 *L 0 *D BUFX3
*I *620:D I *C 37.95 84.28 *L 0.00184 *D DFFRHQX1

*CAP
1 *362:Y 3.72991e-05
2 *620:D 6.33027e-05
3 *8:2 0.000336739
4 *8:3 0.00039863
5 *8:4 5.87103e-05
6 *8:5 7.65387e-05
7 *8:6 7.85095e-05

*RES
1 *362:Y *8:6 0.189941
2 *8:5 *8:6 0.223828
3 *8:3 *8:5 3.2
4 *8:3 *8:2 1.39561
5 *8:4 *8:2 0.151855
6 *620:D *8:4 6.4000001
*END

*D_NET *9 0.00236857

*CONN
*I *363:Y O *C 24.75 27.16 *L 0 *D BUFX3
*I *628:D I *C 23.43 43.96 *L 0.00184 *D DFFRHQX1

*CAP
1 *363:Y 0.000139837
2 *628:D 6.32976e-05
3 *9:2 0.000105981
4 *9:3 0.00031634
5 *9:4 0.000261456
6 *9:5 0.000317055
7 *9:6 0.000357317
8 *9:7 0.00040364
9 *9:8 0.00040364

*RES
1 *9:3 *363:Y 3.2
2 *9:3 *9:4 1.09199
3 *9:4 *9:7 0.183887
4 *9:7 *9:8 1.87197
5 *9:5 *9:8 0.183887
6 *9:5 *9:6 1.404
7 *9:2 *9:6 0.367676
8 *628:D *9:2 6.4000001
*END

*D_NET *10 0.0021117

*CONN
*I *364:Y O *C 52.47 107.8 *L 0 *D BUFX3
*I *614:D I *C 38.61 107.24 *L 0.00184 *D DFFRHQX1

*CAP
1 *364:Y 0.000139844
2 *614:D 6.32962e-05
3 *10:2 0.00062434
4 *10:3 0.000581479
5 *10:4 0.0001206
6 *10:5 0.000252194
7 *10:6 0.0001206
8 *10:7 0.000209342

*RES
1 *10:6 *364:Y 3.2
2 *10:7 *10:6 3.2
3 *10:5 *10:7 0.919238
4 *10:2 *10:5 0.312012
5 *10:3 *10:2 2.9417
6 *10:4 *10:3 3.2
7 *614:D *10:4 6.4000001
*END

*D_NET *11 0.00133195

*CONN
*I *365:Y O *C 41.91 97.72 *L 0 *D BUFX3
*I *622:D I *C 38.61 104.44 *L 0.00184 *D DFFRHQX1

*CAP
1 *365:Y 3.72975e-05
2 *622:D 6.33016e-05
3 *11:2 6.5718e-05
4 *11:3 0.000203693
5 *11:4 7.99926e-05
6 *11:5 0.00036657
7 *11:6 0.000311692
8 *11:7 0.000203693

*RES
1 *365:Y *11:7 0.189941
2 *11:3 *11:7 0.895312
3 *11:3 *11:4 0.189941
4 *11:5 *11:4 3.2
5 *11:5 *11:6 1.24805
6 *11:2 *11:6 0.183887
7 *622:D *11:2 6.4000001
*END

*D_NET *12 0.00144686

*CONN
*I *366:Y O *C 53.13 77.56 *L 0 *D BUFX3
*I *613:D I *C 51.81 87.08 *L 0.00184 *D DFFRHQX1

*CAP
1 *366:Y 0.00013984
2 *613:D 6.3295e-05
3 *12:2 0.000457731
4 *12:3 0.00051261
5 *12:4 6.57198e-05
6 *12:5 0.000103828
7 *12:6 0.000103828

*RES
1 *12:3 *366:Y 3.2
2 *12:3 *12:2 2.02803
3 *12:5 *12:2 0.183887
4 *12:5 *12:6 0.312012
5 *12:4 *12:6 0.183887
6 *613:D *12:4 6.4000001
*END

*D_NET *13 0.000859864

*CONN
*I *367:Y O *C 39.27 97.72 *L 0 *D BUFX3
*I *618:D I *C 37.95 94.36 *L 0.00184 *D DFFRHQX1

*CAP
1 *367:Y 0.000139841
2 *618:D 0.000139841
3 *13:2 0.00017534
4 *13:3 0.00022644
5 *13:4 0.000178402

*RES
1 *13:4 *367:Y 3.20000005
2 *13:3 *13:4 0.77998
3 *13:2 *13:3 0.335693
4 *618:D *13:2 3.20000005
*END

*D_NET *14 0.00110429

*CONN
*I *368:Y O *C 35.31 93.8 *L 0 *D BUFX3
*I *612:D I *C 37.29 87.08 *L 0.00184 *D DFFRHQX1

*CAP
1 *368:Y 3.73031e-05
2 *612:D 6.32964e-05
3 *14:2 0.00031948
4 *14:3 0.00030468
5 *14:4 0.0001197
6 *14:5 0.00011773
7 *14:6 0.0001421

*RES
1 *14:3 *612:D 6.4000001
2 *14:3 *14:2 1.404
3 *14:6 *14:2 0.183887
4 *14:5 *14:6 3.2
5 *14:4 *14:5 0.447656
6 *14:4 *368:Y 0.189941
*END

*D_NET *15 0.000728959

*CONN
*I *369:Y O *C 56.43 127.96 *L 0 *D BUFX3
*I *640:D I *C 55.11 124.6 *L 0.00184 *D DFFRHQX1

*CAP
1 *369:Y 0.00013984
2 *640:D 6.32983e-05
3 *15:2 0.000182391
4 *15:3 0.00023745
5 *15:4 0.00010598

*RES
1 *15:2 *369:Y 3.2
2 *15:3 *15:2 0.77998
3 *15:4 *15:3 0.367676
4 *640:D *15:4 6.4000001
*END

*D_NET *16 0.00154385

*CONN
*I *370:Y O *C 56.43 107.8 *L 0 *D BUFX3
*I *611:D I *C 55.11 117.32 *L 0.00184 *D DFFRHQX1

*CAP
1 *370:Y 3.73022e-05
2 *611:D 6.32991e-05
3 *16:2 0.000118531
4 *16:3 0.000201418
5 *16:4 0.000146544
6 *16:5 0.000141989
7 *16:6 0.000127189
8 *16:7 0.00029354
9 *16:8 0.00029354
10 *16:9 0.000120502

*RES
1 *16:6 *611:D 6.4000001
2 *16:5 *16:6 0.467969
3 *16:5 *16:8 0.183887
4 *16:7 *16:8 1.24805
5 *16:4 *16:7 0.183887
6 *16:3 *16:4 0.467969
7 *370:Y *16:9 0.189941
8 *16:2 *16:3 3.2
9 *16:2 *16:9 0.447656
*END

*D_NET *17 0.11503

*CONN
*I *663:CK I *C 22.77 123.48 *L 0.003 *D DFFRHQX1
*I *371:Y O *C 25.41 33.88 *L 0 *D CLKBUFX20
*I *662:CK I *C 22.11 98.28 *L 0.003 *D DFFRHQX1
*I *661:CK I *C 22.11 118.44 *L 0.003 *D DFFRHQX1
*I *660:CK I *C 22.11 73.08 *L 0.003 *D DFFRHQX1
*I *659:CK I *C 22.77 57.96 *L 0.003 *D DFFRHQX1
*I *658:CK I *C 22.11 88.2 *L 0.003 *D DFFRHQX1
*I *657:CK I *C 22.11 113.4 *L 0.003 *D DFFRHQX1
*I *656:CK I *C 22.11 68.04 *L 0.003 *D DFFRHQX1
*I *655:CK I *C 38.61 123.48 *L 0.003 *D DFFRHQX1
*I *653:CK I *C 38.61 118.44 *L 0.003 *D DFFRHQX1
*I *652:CK I *C 22.77 37.8 *L 0.003 *D DFFRHQX1
*I *651:CK I *C 22.77 52.92 *L 0.003 *D DFFRHQX1
*I *650:CK I *C 22.77 63 *L 0.003 *D DFFRHQX1
*I *649:CK I *C 22.11 83.16 *L 0.003 *D DFFRHQX1
*I *648:CK I *C 22.11 108.36 *L 0.003 *D DFFRHQX1
*I *647:CK I *C 22.11 103.32 *L 0.003 *D DFFRHQX1
*I *640:CK I *C 54.45 123.48 *L 0.003 *D DFFRHQX1
*I *628:CK I *C 22.77 42.84 *L 0.003 *D DFFRHQX1
*I *626:CK I *C 53.13 98.28 *L 0.003 *D DFFRHQX1
*I *623:CK I *C 22.11 78.12 *L 0.003 *D DFFRHQX1
*I *622:CK I *C 37.95 103.32 *L 0.003 *D DFFRHQX1
*I *621:CK I *C 53.79 103.32 *L 0.003 *D DFFRHQX1
*I *620:CK I *C 37.29 83.16 *L 0.003 *D DFFRHQX1
*I *619:CK I *C 37.95 113.4 *L 0.003 *D DFFRHQX1
*I *618:CK I *C 37.29 93.24 *L 0.003 *D DFFRHQX1
*I *616:CK I *C 53.79 113.4 *L 0.003 *D DFFRHQX1
*I *615:CK I *C 52.47 93.24 *L 0.003 *D DFFRHQX1
*I *614:CK I *C 37.95 108.36 *L 0.003 *D DFFRHQX1
*I *613:CK I *C 51.15 88.2 *L 0.003 *D DFFRHQX1
*I *612:CK I *C 36.63 88.2 *L 0.003 *D DFFRHQX1
*I *611:CK I *C 54.45 118.44 *L 0.003 *D DFFRHQX1
*I *610:CK I *C 22.77 47.88 *L 0.003 *D DFFRHQX1
*I *539:CK I *C 67.65 32.76 *L 0.003 *D DFFRHQX1
*I *538:CK I *C 100.65 123.48 *L 0.003 *D DFFRHQX1
*I *536:CK I *C 131.01 113.4 *L 0.003 *D DFFRHQX1
*I *535:CK I *C 78.87 108.36 *L 0.003 *D DFFRHQX1
*I *534:CK I *C 38.61 57.96 *L 0.003 *D DFFRHQX1
*I *533:CK I *C 96.69 118.44 *L 0.003 *D DFFRHQX1
*I *532:CK I *C 81.51 123.48 *L 0.003 *D DFFRHQX1
*I *531:CK I *C 53.13 32.76 *L 0.003 *D DFFRHQX1
*I *528:CK I *C 65.67 83.16 *L 0.003 *D DFFRHQX1
*I *527:CK I *C 51.15 83.16 *L 0.003 *D DFFRHQX1
*I *526:CK I *C 131.67 93.24 *L 0.003 *D DFFRHQX1
*I *525:CK I *C 131.67 108.36 *L 0.003 *D DFFRHQX1
*I *524:CK I *C 37.95 42.84 *L 0.003 *D DFFRHQX1
*I *523:CK I *C 51.15 52.92 *L 0.003 *D DFFRHQX1
*I *522:CK I *C 131.67 98.28 *L 0.003 *D DFFRHQX1
*I *521:CK I *C 65.67 88.2 *L 0.003 *D DFFRHQX1
*I *498:CK I *C 131.01 37.8 *L 0.003 *D DFFRHQX1
*I *476:CK I *C 129.69 47.32 *L 0.00273 *D DFFRX1
*I *464:CK I *C 116.49 27.72 *L 0.003 *D DFFRHQX1
*I *456:CK I *C 131.01 27.72 *L 0.003 *D DFFRHQX1
*I *443:CK I *C 131.67 63 *L 0.003 *D DFFRHQX1
*I *427:CK I *C 131.01 32.76 *L 0.003 *D DFFRHQX1
*I *426:CK I *C 102.63 37.24 *L 0.00273 *D DFFRX1
*I *425:CK I *C 80.85 87.64 *L 0.00273 *D DFFRX1
*I *424:CK I *C 130.35 73.64 *L 0.00273 *D DFFRX1
*I *423:CK I *C 68.31 57.4 *L 0.00273 *D DFFRX1
*I *405:CK I *C 101.97 27.72 *L 0.003 *D DFFRHQX1
*I *392:CK I *C 66.33 52.92 *L 0.00204 *D JKFFRXL
*I *391:CK I *C 49.17 47.88 *L 0.00204 *D JKFFRXL
*I *390:CK I *C 64.35 78.12 *L 0.00204 *D JKFFRXL
*I *389:CK I *C 51.15 63 *L 0.00204 *D JKFFRXL
*I *388:CK I *C 95.37 98.28 *L 0.00204 *D JKFFRXL
*I *387:CK I *C 77.55 113.4 *L 0.00204 *D JKFFRXL
*I *386:CK I *C 113.19 108.36 *L 0.00204 *D JKFFRXL
*I *385:CK I *C 113.19 98.28 *L 0.00204 *D JKFFRXL
*I *384:CK I *C 129.69 77.56 *L 0.00273 *D DFFRX1
*I *383:CK I *C 82.83 32.76 *L 0.003 *D DFFRHQX1
*I *382:CK I *C 37.29 73.08 *L 0.00204 *D JKFFRXL
*I *381:CK I *C 113.19 93.24 *L 0.00204 *D JKFFRXL
*I *380:CK I *C 127.71 83.16 *L 0.00204 *D JKFFRXL
*I *379:CK I *C 51.81 68.04 *L 0.00204 *D JKFFRXL
*I *378:CK I *C 85.47 27.16 *L 0.00273 *D DFFRX1
*I *377:CK I *C 80.85 83.72 *L 0.00273 *D DFFRX1
*I *376:CK I *C 95.37 108.36 *L 0.00204 *D JKFFRXL
*I *375:CK I *C 65.01 42.84 *L 0.00204 *D JKFFRXL
*I *374:CK I *C 51.15 37.8 *L 0.00204 *D JKFFRXL
*I *373:CK I *C 76.89 98.28 *L 0.00204 *D JKFFRXL

*CAP
1 *663:CK 0.000139824
2 *371:Y 0.000139824
3 *662:CK 0.000139824
4 *661:CK 0.000139824
5 *660:CK 0.000139824
6 *659:CK 0.000139824
7 *658:CK 0.000139824
8 *657:CK 0.000139824
9 *656:CK 0.000139824
10 *655:CK 0.000139824
11 *653:CK 0.000139824
12 *652:CK 0.000139824
13 *651:CK 0.000139824
14 *650:CK 0.000139824
15 *649:CK 0.000139824
16 *648:CK 0.000139824
17 *647:CK 0.000139824
18 *640:CK 0.000139824
19 *628:CK 0.000139824
20 *626:CK 0.000139824
21 *623:CK 0.000139824
22 *622:CK 0.000139824
23 *621:CK 0.000139824
24 *620:CK 0.000139824
25 *619:CK 0.000139824
26 *618:CK 0.000139824
27 *616:CK 0.000139824
28 *615:CK 0.000139824
29 *614:CK 0.000139824
30 *613:CK 0.000139824
31 *612:CK 6.32859e-05
32 *611:CK 0.000139824
33 *610:CK 0.000139824
34 *539:CK 0.000139824
35 *538:CK 0.000139824
36 *536:CK 6.32859e-05
37 *535:CK 0.000139824
38 *534:CK 0.000139824
39 *533:CK 0.000139824
40 *532:CK 0.000139824
41 *531:CK 0.000139824
42 *528:CK 0.000139824
43 *527:CK 6.32859e-05
44 *526:CK 0.000139824
45 *525:CK 0.000139824
46 *524:CK 0.000139824
47 *523:CK 0.000139824
48 *522:CK 0.000139824
49 *521:CK 0.000139824
50 *498:CK 0.000139824
51 *476:CK 6.32859e-05
52 *464:CK 0.000139824
53 *456:CK 0.000139824
54 *443:CK 0.000139824
55 *427:CK 0.000139824
56 *426:CK 6.32859e-05
57 *425:CK 6.32859e-05
58 *424:CK 6.32859e-05
59 *423:CK 6.32859e-05
60 *405:CK 0.000139824
61 *392:CK 0.000139824
62 *391:CK 0.000139824
63 *390:CK 0.000139824
64 *389:CK 0.000139824
65 *388:CK 0.000139824
66 *387:CK 0.000139824
67 *386:CK 0.000139824
68 *385:CK 0.000139824
69 *384:CK 6.32859e-05
70 *383:CK 0.000139824
71 *382:CK 0.000139824
72 *381:CK 0.000139824
73 *380:CK 0.000139824
74 *379:CK 0.000139824
75 *378:CK 6.32859e-05
76 *377:CK 6.32859e-05
77 *376:CK 0.000139824
78 *375:CK 0.000139824
79 *374:CK 0.000139824
80 *373:CK 0.000139824
81 *17:80 0.000541763
82 *17:81 0.000550163
83 *17:82 0.00034114
84 *17:83 0.000538582
85 *17:84 0.000264887
86 *17:85 0.000292493
87 *17:86 0.000278344
88 *17:87 6.89539e-05
89 *17:88 0.000240299
90 *17:89 0.000823981
91 *17:90 0.000564924
92 *17:91 0.000258975
93 *17:92 0.000328663
94 *17:93 0.000349622
95 *17:94 0.000353822
96 *17:95 0.000124818
97 *17:96 0.000271697
98 *17:97 0.000341385
99 *17:98 0.000602439
100 *17:99 0.0011241
101 *17:100 0.000731294
102 *17:101 0.000268068
103 *17:102 0.000361284
104 *17:103 0.000395129
105 *17:104 0.000367931
106 *17:105 0.000334045
107 *17:106 0.000921193
108 *17:107 0.000682648
109 *17:108 0.000363935
110 *17:109 0.000360876
111 *17:110 0.000672657
112 *17:111 0.000711477
113 *17:112 0.000745893
114 *17:113 0.000776761
115 *17:114 8.97909e-05
116 *17:115 0.0016091
117 *17:116 0.00267232
118 *17:117 0.000924618
119 *17:118 0.00116239
120 *17:119 0.00072265
121 *17:120 0.000691659
122 *17:121 0.00203073
123 *17:122 0.00105046
124 *17:123 0.0001543
125 *17:124 0.0001543
126 *17:125 0.000332699
127 *17:126 0.000181131
128 *17:127 0.000181131
129 *17:128 0.000131302
130 *17:129 0.00020099
131 *17:130 0.000347665
132 *17:131 0.000347665
133 *17:132 0.000976201
134 *17:133 0.00156865
135 *17:134 0.000766934
136 *17:135 0.000142312
137 *17:136 0.000188145
138 *17:137 0.000188145
139 *17:138 0.000543761
140 *17:139 0.000531977
141 *17:140 0.000301587
142 *17:141 6.14917e-05
143 *17:142 6.14917e-05
144 *17:143 7.0218e-05
145 *17:144 0.000139906
146 *17:145 0.000849385
147 *17:146 0.000779697
148 *17:147 0.000886696
149 *17:148 0.000546167
150 *17:149 6.10839e-05
151 *17:150 6.10839e-05
152 *17:151 0.00152689
153 *17:152 0.000845633
154 *17:153 0.000259872
155 *17:154 0.000142067
156 *17:155 0.000211755
157 *17:156 0.000674451
158 *17:157 0.000834909
159 *17:158 0.000880946
160 *17:159 0.000895503
161 *17:160 6.41014e-05
162 *17:161 6.41014e-05
163 *17:162 0.00199024
164 *17:163 0.00197393
165 *17:164 0.000937789
166 *17:165 0.000444469
167 *17:166 0.00059567
168 *17:167 0.00102664
169 *17:168 0.000111077
170 *17:169 0.000180764
171 *17:170 0.000540458
172 *17:171 0.000606395
173 *17:172 0.000612715
174 *17:173 0.000322016
175 *17:174 0.000134523
176 *17:175 0.000134523
177 *17:176 0.000130894
178 *17:177 0.000130894
179 *17:178 0.000390725
180 *17:179 0.000321078
181 *17:180 0.000388523
182 *17:181 0.000388523
183 *17:182 0.00030807
184 *17:183 0.000562315
185 *17:184 0.00106473
186 *17:185 0.0012377
187 *17:186 0.000787159
188 *17:187 0.000414131
189 *17:188 0.000646641
190 *17:189 0.000446304
191 *17:190 0.000720489
192 *17:191 0.00122665
193 *17:192 0.000967108
194 *17:193 0.000794091
195 *17:194 0.000760001
196 *17:195 0.000848121
197 *17:196 0.00090374
198 *17:197 0.000365647
199 *17:198 0.000260606
200 *17:199 0.000748054
201 *17:200 0.00029494
202 *17:201 0.00113764
203 *17:202 0.000893628
204 *17:203 6.14917e-05
205 *17:204 6.14917e-05
206 *17:205 0.000280872
207 *17:206 0.00035056
208 *17:207 0.000154463
209 *17:208 0.000154463
210 *17:209 0.000159764
211 *17:210 0.00101779
212 *17:211 6.14917e-05
213 *17:212 6.14917e-05
214 *17:213 0.0001291
215 *17:214 0.000162619
216 *17:215 0.000120618
217 *17:216 0.0001291
218 *17:217 0.00036528
219 *17:218 0.000162619
220 *17:219 0.000614183
221 *17:220 0.000120618
222 *17:221 0.000699162
223 *17:222 0.000120618
224 *17:223 0.000168001
225 *17:224 0.000120618
226 *17:225 0.000120618
227 *17:226 0.000120618
228 *17:227 5.94528e-05
229 *17:228 0.000590736
230 *17:229 0.000120618
231 *17:230 0.000120618
232 *17:231 0.00105453
233 *17:232 9.83133e-05
234 *17:233 0.000120618
235 *17:234 0.000120618
236 *17:235 0.000120618
237 *17:236 0.000120618
238 *17:237 0.000120618
239 *17:238 0.000120618
240 *17:239 0.000120618
241 *17:240 0.000120618
242 *17:241 0.00015218
243 *17:242 8.25326e-05
244 *17:243 0.000120618
245 *17:244 0.000120618
246 *17:245 0.0001333
247 *17:246 0.00030754
248 *17:247 0.0001333
249 *17:248 0.000377228
250 *17:249 0.000120618
251 *17:250 0.000578952
252 *17:251 0.000120618
253 *17:252 0.000120618
254 *17:253 0.000509264
255 *17:254 0.000120618
256 *17:255 0.000120618
257 *17:256 0.000120618
258 *17:257 0.000120618
259 *17:258 0.000197075
260 *17:259 0.000120618
261 *17:260 0.000872016
262 *17:261 0.00138711
263 *17:262 0.000120618
264 *17:263 0.000120618
265 *17:264 0.000839965
266 *17:265 0.000871894
267 *17:266 0.000161395
268 *17:267 0.000635428
269 *17:268 0.000120618
270 *17:269 0.000161395
271 *17:270 5.39887e-05
272 *17:271 5.39887e-05
273 *17:272 9.74978e-05
274 *17:273 0.000120618
275 *17:274 0.000325727
276 *17:275 0.000241644
277 *17:276 0.000120618
278 *17:277 0.000428036
279 *17:278 0.000588412
280 *17:279 0.000120618
281 *17:280 0.000120618
282 *17:281 0.000211266
283 *17:282 0.000120618
284 *17:283 0.000120618
285 *17:284 0.00084074
286 *17:285 0.000120618
287 *17:286 0.000120618
288 *17:287 0.0016177
289 *17:288 0.000127428
290 *17:289 0.00146177
291 *17:290 0.000849262
292 *17:291 0.000120618
293 *17:292 0.000120618
294 *17:293 0.000553507
295 *17:294 0.000389053
296 *17:295 0.000120618
297 *17:296 0.000104267
298 *17:297 0.000120618
299 *17:298 0.000120618
300 *17:299 0.000127428
301 *17:300 9.54589e-05
302 *17:301 0.000292534
303 *17:198 *89:10 8.677e-05
304 *17:199 *89:11 8.677e-05
305 *17:199 *89:10 0.00014295
306 *17:194 *89:11 0.000142950003
307 *17:187 *115:10 9.114e-05
308 *17:188 *115:9 9.114e-05
309 *17:188 *115:10 4.557e-05
310 *17:189 *115:9 4.557e-05
311 *17:189 *115:10 4.557e-05
312 *17:190 *115:9 4.557e-05
313 *17:190 *115:10 8.298e-05
314 *17:191 *115:9 8.298e-05
315 *17:191 *115:10 0.00013062
316 *17:192 *115:9 0.00013062
317 *17:192 *115:10 3.544e-05
318 *17:193 *115:9 3.544e-05
319 *17:176 *115:2 7.53e-06
320 *17:177 *115:3 7.53001332e-06
321 *17:187 *107:6 7.556e-05
322 *17:188 *107:7 7.556e-05
323 *17:188 *107:6 4.557e-05
324 *17:189 *107:7 4.557e-05
325 *17:189 *107:6 4.557e-05
326 *17:190 *107:7 4.557e-05
327 *17:190 *107:6 2.181e-05
328 *17:191 *107:7 2.18100085e-05
329 *17:184 *35:6 5.491e-05
330 *17:185 *35:3 5.491e-05
331 *17:185 *35:6 0.00010382
332 *17:186 *35:3 0.00010382
333 *17:164 *329:7 1.506e-05
334 *17:162 *329:4 1.506e-05
335 *17:165 *329:8 0.00010424
336 *17:100 *329:6 0.00010424
337 *17:165 *329:2 3.47e-05
338 *17:100 *329:3 3.47e-05
339 *17:100 *329:2 7.125e-05
340 *17:101 *329:3 7.12499989e-05
341 *17:162 *117:7 0.00025457
342 *17:163 *117:4 0.00025457
343 *17:99 *117:2 9.96e-06
344 *17:156 *117:3 9.95997633e-06
345 *17:136 *31:3 1.263e-05
346 *17:137 *31 1.263e-05
347 *17:138 *31:6 1.773e-05
348 *17:139 *31:5 1.773e-05
349 *17:139 *31:6 5.86e-05
350 *17:140 *31:5 5.85999995e-05
351 *17:119 *59:10 8.95e-05
352 *17:120 *59:8 8.95e-05
353 *17:119 *59:12 3.79e-05
354 *17:120 *59:9 3.79e-05
355 *17:119 *59:7 3.678e-05
356 *17:120 *59:6 3.678e-05
357 *17:120 *59:7 3.678e-05
358 *17:117 *59:6 3.678e-05
359 *17:117 *59:7 2.489e-05
360 *17:118 *59:6 2.489e-05
361 *17:91 *59:5 1.697e-05
362 *17:92 *59:4 1.69700096e-05
363 *17:114 *56:8 2.489e-05
364 *17:115 *56:5 2.489e-05
365 *17:115 *56:8 0.00012035
366 *17:116 *56:5 0.000120350001
367 *17:110 *55:9 0.00038131
368 *17:111 *55:7 0.000381309995
369 *17:111 *348:6 1.263e-05
370 *17:112 *348:4 1.263e-05
371 *17:112 *348:6 0.00030245
372 *17:113 *348:4 0.000302449996
373 *17:88 *104:5 5.86e-05
374 *17:89 *104:3 5.86e-05
375 *17:89 *104:5 4.888e-05
376 *17:90 *104:3 4.88800029e-05
377 *17:166 *105:2 5.86e-05
378 *17:83 *105:3 5.86e-05
379 *17:83 *105:2 5.86e-05
380 *17:84 *105:3 5.86000038e-05
381 *17:182 *25:6 2.659e-05
382 *17:183 *25:5 2.659e-05
383 *17:183 *25:6 5.787e-05
384 *17:170 *25:5 5.78700021e-05
385 *17:147 *30:5 1.773e-05
386 *17:148 *30:4 1.773e-05
387 *17:148 *30:5 7.633e-05
388 *17:138 *30:4 7.63300008e-05
389 *17:80 *34:6 2.659e-05
390 *17:81 *34:4 2.659e-05
391 *17:125 *34:3 4.241e-05
392 *17:80 *34:2 4.241e-05
393 *17:80 *34:3 2.333e-05
394 *17:81 *34:2 2.33300008e-05

*RES
1 *17:297 *536:CK 6.39999
2 *17:175 *17:297 3.20005
3 *17:180 *538:CK 3.20005
4 *17:175 *17:174 0.183807
5 *17:181 *17:180 1.40397
6 *17:109 *526:CK 3.20005
7 *17:301 *17:174 3.20005
8 *17:273 *533:CK 3.20005
9 *17:275 *17:181 3.20005
10 *17:108 *522:CK 3.20005
11 *17:109 *17:108 1.40397
12 *17:106 *525:CK 3.20005
13 *17:106 *17:301 1.40397
14 *17:248 *640:CK 3.20005
15 *17:274 *17:273 3.20005
16 *17:274 *17:275 1.10318
17 *17:108 *17:107 0.155971
18 *17:107 *17:106 2.65197
19 *17:246 *611:CK 3.20005
20 *17:246 *17:248 1.40397
21 *17:272 *17:274 0.367728
22 *17:300 *17:107 3.20005
23 *17:268 *532:CK 3.20005
24 *17:247 *17:246 3.20005
25 *17:98 *17:272 3.20005
26 *17:101 *381:CK 3.20005
27 *17:165 *386:CK 3.20005
28 *17:296 *17:300 0.367728
29 *17:259 *387:CK 3.20005
30 *17:269 *17:268 3.20005
31 *17:245 *17:247 0.183807
32 *17:99 *376:CK 3.20005
33 *17:99 *17:98 2.80805
34 *17:100 *385:CK 3.20005
35 *17:101 *17:100 1.40397
36 *17:100 *17:165 2.80805
37 *17:164 *17:296 0.155971
38 *17:169 *17:259 3.20005
39 *17:266 *17:269 0.735457
40 *17:88 *17:245 3.20005
41 *17:257 *373:CK 3.20005
42 *17:156 *388:CK 3.20005
43 *17:156 *17:99 2.80805
44 *17:162 *17:100 3.20005
45 *17:162 *17:164 4.78024
46 *17:262 *535:CK 3.20005
47 *17:169 *17:168 0.367728
48 *17:267 *17:266 3.20005
49 *17:89 *616:CK 3.20005
50 *17:89 *17:88 1.40397
51 *17:258 *17:257 3.20005
52 *17:163 *17:156 3.20005
53 *17:163 *17:162 4.96416
54 *17:263 *17:262 3.20005
55 *17:265 *17:168 3.20005
56 *17:265 *17:267 2.80805
57 *17:178 *655:CK 3.20005
58 *17:243 *626:CK 3.20005
59 *17:90 *621:CK 3.20005
60 *17:90 *17:89 2.80805
61 *17:258 *17:167 0.551535
62 *17:167 *17:163 4.59643
63 *17:264 *17:263 3.20005
64 *17:264 *17:265 1.40397
65 *17:96 *425:CK 6.39999
66 *17:179 *653:CK 3.20005
67 *17:179 *17:178 1.40397
68 *17:161 *17:243 3.20005
69 *17:244 *17:90 3.20005
70 *17:261 *17:167 3.20005
71 *17:261 *17:264 2.80805
72 *17:97 *377:CK 6.39999
73 *17:97 *17:96 1.09203
74 *17:176 *17:179 3.20005
75 *17:283 *380:CK 3.20005
76 *17:161 *17:160 0.183807
77 *17:200 *17:244 3.20005
78 *17:95 *528:CK 3.20005
79 *17:93 *521:CK 3.20005
80 *17:260 *17:261 4.05605
81 *17:209 *17:97 3.20005
82 *17:177 *17:176 0.183807
83 *17:155 *17:283 3.20005
84 *17:201 *17:160 3.20005
85 *17:201 *17:200 1.40397
86 *17:95 *17:94 0.155971
87 *17:94 *17:93 1.248
88 *17:210 *17:260 3.20005
89 *17:210 *17:209 0.551535
90 *17:173 *17:177 3.20005
91 *17:295 *424:CK 6.39999
92 *17:291 *384:CK 6.39999
93 *17:155 *17:154 0.551535
94 *17:87 *527:CK 6.39999
95 *17:85 *613:CK 3.20005
96 *17:202 *17:201 4.05605
97 *17:151 *17:94 3.20005
98 *17:151 *17:210 3.67717
99 *17:166 *619:CK 3.20005
100 *17:166 *17:173 1.40397
101 *17:270 *378:CK 6.39999
102 *17:298 *443:CK 3.20005
103 *17:211 *17:295 3.20005
104 *17:292 *17:291 3.20005
105 *17:294 *17:154 3.20005
106 *17:249 *390:CK 3.20005
107 *17:87 *17:86 0.155971
108 *17:86 *17:85 1.248
109 *17:152 *17:202 3.20005
110 *17:152 *17:151 3.30944
111 *17:83 *614:CK 3.20005
112 *17:83 *17:166 1.40397
113 *17:270 *17:271 0.155971
114 *17:299 *17:298 3.20005
115 *17:212 *17:211 0.183807
116 *17:293 *17:292 3.20005
117 *17:293 *17:294 1.56006
118 *17:239 *379:CK 3.20005
119 *17:145 *17:249 3.20005
120 *17:153 *17:86 3.20005
121 *17:153 *17:152 0.735457
122 *17:255 *423:CK 6.39999
123 *17:226 *618:CK 3.20005
124 *17:240 *615:CK 3.20005
125 *17:84 *622:CK 3.20005
126 *17:84 *17:83 1.40397
127 *17:276 *405:CK 3.20005
128 *17:113 *17:271 3.20005
129 *17:282 *464:CK 3.20005
130 *17:285 *476:CK 6.39999
131 *17:288 *17:299 0.551535
132 *17:290 *17:212 3.20005
133 *17:290 *17:293 1.09203
134 *17:105 *456:CK 3.20005
135 *17:235 *391:CK 3.20005
136 *17:141 *17:239 3.20005
137 *17:146 *17:145 3.67717
138 *17:198 *17:153 3.20005
139 *17:256 *17:255 3.20005
140 *17:222 *612:CK 6.39999
141 *17:227 *17:226 3.20005
142 *17:157 *17:240 3.20005
143 *17:233 *17:84 3.20005
144 *17:112 *17:276 3.20005
145 *17:113 *17:112 4.59643
146 *17:110 *17:282 3.20005
147 *17:279 *426:CK 6.39999
148 *17:286 *17:285 3.20005
149 *17:289 *17:288 3.20005
150 *17:289 *17:290 2.96403
151 *17:104 *427:CK 3.20005
152 *17:105 *17:104 1.40397
153 *17:102 *498:CK 3.20005
154 *17:129 *17:235 3.20005
155 *17:237 *389:CK 3.20005
156 *17:142 *17:141 0.183807
157 *17:199 *17:146 3.20005
158 *17:199 *17:198 1.56006
159 *17:205 *17:256 3.20005
160 *17:225 *620:CK 3.20005
161 *17:223 *17:222 3.20005
162 *17:227 *17:158 0.183807
163 *17:158 *17:157 4.0449
164 *17:187 *17:233 3.20005
165 *17:112 *17:111 0.183807
166 *17:111 *17:110 3.86097
167 *17:280 *17:279 3.20005
168 *17:287 *17:286 3.20005
169 *17:287 *17:289 4.368
170 *17:104 *17:103 0.312057
171 *17:103 *17:102 1.09203
172 *17:129 *17:128 0.551535
173 *17:238 *17:237 3.20005
174 *17:194 *17:142 3.20005
175 *17:194 *17:199 2.80805
176 *17:206 *17:205 1.248
177 *17:224 *382:CK 3.20005
178 *17:150 *17:225 3.20005
179 *17:223 *17:232 0.367728
180 *17:188 *17:158 3.20005
181 *17:188 *17:187 2.80805
182 *17:277 *17:111 3.20005
183 *17:281 *17:280 3.20005
184 *17:284 *17:287 3.744
185 *17:114 *17:103 3.20005
186 *17:197 *17:128 3.20005
187 *17:195 *17:238 3.20005
188 *17:195 *17:194 1.40397
189 *17:254 *392:CK 3.20005
190 *17:135 *17:206 3.20005
191 *17:234 *534:CK 3.20005
192 *17:144 *17:224 3.20005
193 *17:150 *17:149 0.183807
194 *17:189 *17:232 3.20005
195 *17:189 *17:188 1.40397
196 *17:251 *375:CK 3.20005
197 *17:208 *383:CK 3.20005
198 *17:277 *17:278 1.71603
199 *17:278 *17:281 0.936057
200 *17:115 *17:284 3.20005
201 *17:115 *17:114 0.367728
202 *17:236 *523:CK 3.20005
203 *17:197 *17:196 1.40397
204 *17:196 *17:195 2.80805
205 *17:132 *17:254 3.20005
206 *17:132 *17:135 0.551535
207 *17:203 *17:234 3.20005
208 *17:144 *17:143 0.183807
209 *17:190 *17:149 3.20005
210 *17:190 *17:189 1.40397
211 *17:252 *17:251 3.20005
212 *17:124 *539:CK 3.20005
213 *17:208 *17:207 0.312057
214 *17:116 *17:278 3.20005
215 *17:116 *17:115 7.53814268
216 *17:133 *17:236 3.20005
217 *17:133 *17:196 3.20005
218 *17:133 *17:132 4.2287
219 *17:204 *17:203 0.183807
220 *17:191 *17:143 3.20005
221 *17:191 *17:190 2.80805
222 *17:253 *17:252 3.20005
223 *17:124 *17:123 0.312057
224 *17:121 *17:207 3.20005
225 *17:121 *17:116 5.51569
226 *17:215 *663:CK 3.20005
227 *17:229 *524:CK 3.20005
228 *17:134 *17:133 3.67717
229 *17:192 *17:204 3.20005
230 *17:192 *17:191 4.21202
231 *17:241 *531:CK 3.20005
232 *17:250 *17:253 2.496
233 *17:122 *17:123 3.20005
234 *17:122 *17:121 4.2287
235 *17:216 *17:215 3.20005
236 *17:230 *17:229 3.20005
237 *17:193 *17:134 3.20005
238 *17:193 *17:192 1.40397
239 *17:91 *374:CK 3.20005
240 *17:241 *17:242 0.312057
241 *17:119 *17:250 3.20005
242 *17:119 *17:122 0.735457
243 *17:213 *17:216 0.183807
244 *17:231 *17:230 3.20005
245 *17:231 *17:193 2.80805
246 *17:92 *17:91 1.09203
247 *17:120 *17:242 3.20005
248 *17:120 *17:119 3.30944
249 *17:182 *17:213 3.20005
250 *17:82 *652:CK 3.20005
251 *17:228 *17:231 2.496
252 *17:117 *17:92 3.20005
253 *17:117 *17:120 0.551535
254 *17:183 *661:CK 3.20005
255 *17:183 *17:182 1.40397
256 *17:81 *628:CK 3.20005
257 *17:82 *17:81 1.40397
258 *17:125 *651:CK 3.20005
259 *17:118 *17:228 3.20005
260 *17:118 *17:117 3.67717
261 *17:220 *371:Y 3.20005
262 *17:170 *657:CK 3.20005
263 *17:170 *17:183 1.40397
264 *17:130 *650:CK 3.20005
265 *17:80 *610:CK 3.20005
266 *17:81 *17:80 1.40397
267 *17:80 *17:125 1.40397
268 *17:221 *17:118 1.65472
269 *17:221 *17:220 3.20005
270 *17:171 *648:CK 3.20005
271 *17:171 *17:170 1.40397
272 *17:131 *659:CK 3.20005
273 *17:131 *17:130 1.40397
274 *17:127 *17:80 3.20005
275 *17:217 *17:221 1.83853
276 *17:172 *647:CK 3.20005
277 *17:172 *17:171 1.40397
278 *17:214 *17:131 3.20005
279 *17:127 *17:126 0.735457
280 *17:186 *17:217 3.20005
281 *17:159 *662:CK 3.20005
282 *17:159 *17:172 1.40397
283 *17:214 *17:218 0.735457
284 *17:185 *17:126 3.20005
285 *17:186 *17:185 3.89997
286 *17:147 *658:CK 3.20005
287 *17:147 *17:159 2.80805
288 *17:184 *17:218 3.20005
289 *17:185 *17:184 2.80805
290 *17:148 *649:CK 3.20005
291 *17:148 *17:147 1.40397
292 *17:184 *17:219 2.80805
293 *17:138 *623:CK 3.20005
294 *17:138 *17:148 1.40397
295 *17:136 *17:219 3.20005
296 *17:139 *660:CK 3.20005
297 *17:139 *17:138 1.40397
298 *17:137 *17:136 0.919263
299 *17:140 *17:139 1.40397
300 *17:140 *17:137 3.20005
301 *656:CK *17:140 3.20005
*END

*D_NET *18 0.0710953

*CONN
*I *656:RN I *C 33.33 68.6 *L 0.004 *D DFFRHQX1
*I *382:RN I *C 45.21 73.64 *L 0.00224 *D JKFFRXL
*I *660:RN I *C 33.33 72.52 *L 0.004 *D DFFRHQX1
*I *623:RN I *C 33.33 78.68 *L 0.004 *D DFFRHQX1
*I *649:RN I *C 33.33 82.6 *L 0.004 *D DFFRHQX1
*I *658:RN I *C 33.33 88.76 *L 0.004 *D DFFRHQX1
*I *662:RN I *C 33.33 98.84 *L 0.004 *D DFFRHQX1
*I *647:RN I *C 33.33 102.76 *L 0.004 *D DFFRHQX1
*I *648:RN I *C 33.33 108.92 *L 0.004 *D DFFRHQX1
*I *657:RN I *C 33.33 112.84 *L 0.004 *D DFFRHQX1
*I *614:RN I *C 49.17 108.92 *L 0.004 *D DFFRHQX1
*I *663:RN I *C 33.99 122.92 *L 0.004 *D DFFRHQX1
*I *661:RN I *C 33.33 119 *L 0.004 *D DFFRHQX1
*I *626:RN I *C 64.35 98.84 *L 0.004 *D DFFRHQX1
*I *622:RN I *C 49.17 102.76 *L 0.004 *D DFFRHQX1
*I *615:RN I *C 63.69 92.68 *L 0.004 *D DFFRHQX1
*I *618:RN I *C 48.51 92.68 *L 0.004 *D DFFRHQX1
*I *619:RN I *C 49.17 112.84 *L 0.004 *D DFFRHQX1
*I *620:RN I *C 48.51 82.6 *L 0.004 *D DFFRHQX1
*I *612:RN I *C 47.85 88.76 *L 0.004 *D DFFRHQX1
*I *655:RN I *C 49.83 122.92 *L 0.004 *D DFFRHQX1
*I *653:RN I *C 49.83 119 *L 0.004 *D DFFRHQX1
*I *621:RN I *C 65.01 102.76 *L 0.004 *D DFFRHQX1
*I *613:RN I *C 62.37 88.76 *L 0.004 *D DFFRHQX1
*I *616:RN I *C 65.01 112.84 *L 0.004 *D DFFRHQX1
*I *521:RN I *C 76.89 88.76 *L 0.004 *D DFFRHQX1
*I *611:RN I *C 65.67 119 *L 0.004 *D DFFRHQX1
*I *390:RN I *C 72.27 77.56 *L 0.00224 *D JKFFRXL
*I *640:RN I *C 65.67 122.92 *L 0.004 *D DFFRHQX1
*I *527:RN I *C 62.37 82.6 *L 0.004 *D DFFRHQX1
*I *528:RN I *C 76.89 82.6 *L 0.004 *D DFFRHQX1
*I *377:RN I *C 84.15 82.6 *L 0.00239 *D DFFRX1
*I *425:RN I *C 84.15 88.76 *L 0.00239 *D DFFRX1
*I *373:RN I *C 84.81 97.72 *L 0.00224 *D JKFFRXL
*I *387:RN I *C 85.47 113.96 *L 0.00224 *D JKFFRXL
*I *535:RN I *C 90.09 108.92 *L 0.004 *D DFFRHQX1
*I *532:RN I *C 92.73 122.92 *L 0.004 *D DFFRHQX1
*I *376:RN I *C 103.29 107.8 *L 0.00224 *D JKFFRXL
*I *388:RN I *C 103.29 97.72 *L 0.00224 *D JKFFRXL
*I *386:RN I *C 121.11 107.8 *L 0.00224 *D JKFFRXL
*I *385:RN I *C 121.11 97.72 *L 0.00224 *D JKFFRXL
*I *381:RN I *C 121.11 93.8 *L 0.00224 *D JKFFRXL
*I *525:RN I *C 142.89 108.92 *L 0.004 *D DFFRHQX1
*I *526:RN I *C 142.89 92.68 *L 0.004 *D DFFRHQX1
*I *522:RN I *C 142.89 98.84 *L 0.004 *D DFFRHQX1
*I *536:RN I *C 142.23 112.84 *L 0.004 *D DFFRHQX1
*I *538:RN I *C 111.87 122.92 *L 0.004 *D DFFRHQX1
*I *533:RN I *C 107.91 119 *L 0.004 *D DFFRHQX1
*I *380:RN I *C 135.63 83.72 *L 0.00224 *D JKFFRXL
*I *384:RN I *C 132.99 78.68 *L 0.00239 *D DFFRX1
*I *424:RN I *C 133.65 72.52 *L 0.00239 *D DFFRX1
*I *443:RN I *C 142.89 62.44 *L 0.004 *D DFFRHQX1
*I *372:Y O *C 37.29 67.48 *L 0 *D CLKBUFX3

*CAP
1 *656:RN 0.000139837
2 *382:RN 6.33055e-05
3 *660:RN 0.000139837
4 *623:RN 0.000139837
5 *649:RN 0.000139837
6 *658:RN 0.000139837
7 *662:RN 0.000139837
8 *647:RN 0.000139837
9 *648:RN 0.000139837
10 *657:RN 0.000139837
11 *614:RN 0.000139837
12 *663:RN 0.000139837
13 *661:RN 0.000139837
14 *626:RN 0.000139837
15 *622:RN 0.000139837
16 *615:RN 0.000139837
17 *618:RN 0.000139837
18 *619:RN 0.000139837
19 *620:RN 0.000139837
20 *612:RN 0.000139837
21 *655:RN 0.000139837
22 *653:RN 0.000139837
23 *621:RN 0.000139837
24 *613:RN 0.000139837
25 *616:RN 0.000139837
26 *521:RN 0.000139837
27 *611:RN 0.000139837
28 *390:RN 6.33055e-05
29 *640:RN 0.000139837
30 *527:RN 0.000139837
31 *528:RN 0.000139837
32 *377:RN 6.33055e-05
33 *425:RN 6.33055e-05
34 *373:RN 6.33055e-05
35 *387:RN 6.33055e-05
36 *535:RN 0.000139837
37 *532:RN 0.000139837
38 *376:RN 6.33055e-05
39 *388:RN 6.33055e-05
40 *386:RN 6.33055e-05
41 *385:RN 6.33055e-05
42 *381:RN 6.33055e-05
43 *525:RN 0.000139837
44 *526:RN 0.000139837
45 *522:RN 0.000139837
46 *536:RN 0.000139837
47 *538:RN 0.000139837
48 *533:RN 3.98533e-05
49 *380:RN 6.33055e-05
50 *384:RN 6.33055e-05
51 *424:RN 6.33055e-05
52 *443:RN 0.000139837
53 *372:Y 3.73132e-05
54 *18:53 0.000468999
55 *18:54 0.000468999
56 *18:55 0.000523677
57 *18:56 0.000506269
58 *18:57 0.000442263
59 *18:58 0.000308732
60 *18:59 0.000146384
61 *18:60 0.00040565
62 *18:61 0.000487963
63 *18:62 0.000543998
64 *18:63 0.000196048
65 *18:64 0.000272448
66 *18:65 0.000224909
67 *18:66 0.000518159
68 *18:67 0.000344337
69 *18:68 0.000328243
70 *18:69 0.000449029
71 *18:70 0.000109027
72 *18:71 0.000109027
73 *18:72 0.000159545
74 *18:73 0.000150632
75 *18:74 0.00068782
76 *18:75 0.000343242
77 *18:76 0.000410533
78 *18:77 0.000355658
79 *18:78 0.000395271
80 *18:79 0.000274506
81 *18:80 0.000354235
82 *18:81 0.000380884
83 *18:82 0.000159851
84 *18:83 0.000156567
85 *18:84 0.000474912
86 *18:85 0.000463919
87 *18:86 0.000512094
88 *18:87 0.000715411
89 *18:88 0.000493743
90 *18:89 0.00015672
91 *18:90 0.000330323
92 *18:91 0.000202836
93 *18:92 0.00013445
94 *18:93 0.000125735
95 *18:94 0.000402979
96 *18:95 0.000411672
97 *18:96 0.00022758
98 *18:97 0.000432934
99 *18:98 0.000318805
100 *18:99 0.000388483
101 *18:100 0.000522276
102 *18:101 0.000522276
103 *18:102 0.000175114
104 *18:103 0.000241003
105 *18:104 0.00143504875
106 *18:105 0.00143504875
107 *18:106 0.000487612
108 *18:107 0.000521882
109 *18:108 0.000670719
110 *18:109 0.000679521
111 *18:110 0.000477824
112 *18:111 0.000830723
113 *18:112 0.000976363
114 *18:113 0.000623442
115 *18:114 0.000483211
116 *18:115 0.000483211
117 *18:116 0.000314951
118 *18:117 0.000241069
119 *18:118 0.00085965
120 *18:119 0.000816556
121 *18:120 0.00044316
122 *18:121 0.00048343
123 *18:122 0.000172683
124 *18:123 0.000159348
125 *18:124 0.000289659
126 *18:125 0.000344556
127 *18:126 0.000636909
128 *18:127 0.000700411
129 *18:128 0.000405781
130 *18:129 0.000527619
131 *18:130 0.000277857
132 *18:131 0.000263054
133 *18:132 0.000616501
134 *18:133 0.000616501
135 *18:134 0.000413467
136 *18:135 8.92321e-05
137 *18:136 0.000273893
138 *18:137 0.000474123
139 *18:138 0.000260076
140 *18:139 0.000422292
141 *18:140 0.000422292
142 *18:141 0.000350994
143 *18:142 9.95677e-05
144 *18:143 9.95677e-05
145 *18:144 9.75093e-05
146 *18:145 9.75093e-05
147 *18:146 0.000143275
148 *18:147 0.000143275
149 *18:148 9.95677e-05
150 *18:149 9.95677e-05
151 *18:150 0.000830767
152 *18:151 0.00124329
153 *18:152 0.000265112
154 *18:153 0.000265112
155 *18:154 0.00043462
156 *18:155 0.000240806
157 *18:156 0.000210128
158 *18:157 0.000127443
159 *18:158 0.000187968
160 *18:159 0.000391789
161 *18:160 0.000559261
162 *18:161 0.000192785
163 *18:162 0.000192785
164 *18:163 0.000173888
165 *18:164 0.000112925
166 *18:165 0.000365775
167 *18:166 0.000365775
168 *18:167 0.00012002
169 *18:168 0.000148092
170 *18:169 7.10572e-05
171 *18:170 0.00026509
172 *18:171 0.000308841
173 *18:172 9.46845e-05
174 *18:173 0.000303783
175 *18:174 0.000413971
176 *18:175 0.000190705
177 *18:176 0.000444584
178 *18:177 0.00036803
179 *18:178 0.000330498
180 *18:179 0.000406854
181 *18:180 0.00120101
182 *18:181 0.00120101
183 *18:182 0.000127334
184 *18:183 0.000136158
185 *18:184 0.000158537
186 *18:185 0.000149713
187 *18:186 0.000338863
188 *18:187 0.000338863
189 *18:188 0.000356359
190 *18:189 0.000356359
191 *18:190 0.000152384
192 *18:191 0.00023439
193 *18:192 0.000113013
194 *18:193 0.000569246
195 *18:194 0.000384694
196 *18:195 0.000201675
197 *18:196 0.000341162
198 *18:197 0.000127399
199 *18:198 0.000117721
200 *18:199 0.000136114
201 *18:200 0.000119713
202 *18:201 0.000142114
203 *18:202 0.000212996
204 *18:203 0.000290513
205 *18:204 0.00021396
206 *18:205 9.73341e-05
207 *18:206 0.000142114
208 *18:207 0.000203427
209 *18:208 0.000274353
210 *18:209 0.000212996
211 *18:210 6.57142e-05
212 *18:211 0.000120589
213 *18:212 0.000120589
214 *18:213 0.000146231
215 *18:214 0.000222631
216 *18:215 0.000127399
217 *18:216 0.000136114
218 *18:217 0.00010213
219 *18:218 0.00010213
220 *18:219 6.57142e-05
221 *18:220 7.51958e-05
222 *18:221 0.000142114
223 *18:222 0.00012948
224 *18:223 0.000209996
225 *18:224 0.000222631
226 *18:225 6.57142e-05
227 *18:226 0.000383906
228 *18:227 0.000650639
229 *18:228 0.000390256
230 *18:229 6.57142e-05
231 *18:230 0.000305754
232 *18:231 0.000305754
233 *18:232 0.000120589
234 *18:233 0.000241419
235 *18:234 0.000241419
236 *18:150 *103:16 2.489e-05
237 *18:151 *103:13 2.489e-05
238 *18:152 *103:11 3.304e-05
239 *18:153 *103:7 3.304e-05
240 *18:151 *103:12 0.00010498
241 *18:154 *103:10 0.00010498
242 *18:155 *103:15 8.86e-06
243 *18:156 *103:14 8.86e-06
244 *18:156 *103:2 2.479e-05
245 *18:157 *103:3 2.479e-05
246 *18:158 *103:2 3.822e-05
247 *18:159 *103:3 3.822e-05
248 *18:159 *103:4 2.766e-05
249 *18:160 *103:5 2.766e-05
250 *18:161 *103:9 1.299e-05
251 *18:162 *103:6 1.29900011e-05
252 *18:132 *95:16 7.671e-05
253 *18:133 *95:9 7.671e-05
254 *18:132 *95:17 5.464e-05
255 *18:133 *95:15 5.464e-05
256 *18:135 *95:14 1.034e-05
257 *18:136 *95:13 1.034e-05
258 *18:136 *95:14 3.283e-05
259 *18:137 *95:13 3.283e-05
260 *18:137 *95:14 2.585e-05
261 *18:138 *95:13 2.585e-05
262 *18:137 *95:12 1.427e-05
263 *18:138 *95:11 1.427e-05
264 *18:139 *95:8 6.369e-05
265 *18:140 *95:7 6.36899974e-05
266 *18:104 *93:8 3.67e-05
267 *18:105 *93:6 3.67e-05
268 *18:104 *93:9 0.00027603
269 *18:105 *93:7 0.000276029989
270 *18:78 *325:2 0.00015971
271 *18:79 *325:3 0.00015971
272 *18:130 *325:2 7.081e-05
273 *18:131 *325:3 7.08099914e-05
274 *18:98 *313:2 8.897e-05
275 *18:99 *313:3 8.89699977e-05
276 *18:63 *113:13 2.864e-05
277 *18:64 *113:11 2.864e-05
278 *18:65 *113:13 3.283e-05
279 *18:66 *113:11 3.283e-05
280 *18:66 *113:13 5.351e-05
281 *18:67 *113:11 5.351e-05
282 *18:68 *113:13 3.458e-05
283 *18:69 *113:11 3.458e-05
284 *18:70 *113:13 2.659e-05
285 *18:71 *113:11 2.659e-05
286 *18:72 *113:9 1.034e-05
287 *18:73 *113:8 1.03399952e-05
288 *18:55 *106:2 3.8e-05
289 *18:56 *106:3 3.8e-05
290 *18:56 *106:2 3.283e-05
291 *18:57 *106:3 3.283e-05
292 *18:57 *106:2 3.2e-05
293 *18:58 *106:3 3.2e-05
294 *18:59 *106:2 1.034e-05
295 *18:60 *106:3 1.034e-05
296 *18:60 *106:2 4.317e-05
297 *18:61 *106:3 4.317e-05
298 *18:61 *106:2 3.283e-05
299 *18:62 *106:3 3.28300023e-05

*RES
1 *18:233 *443:RN 3.20004
2 *18:233 *18:234 0.780013
3 *18:182 *18:234 3.20004
4 *18:183 *18:182 0.551527
5 *18:186 *18:183 0.156027
6 *18:187 *18:186 1.4709
7 *18:187 *18:184 0.156027
8 *18:185 *18:184 0.551527
9 *18:86 *18:185 3.20004
10 *18:85 *424:RN 6.39995
11 *18:86 *18:85 2.02798
12 *18:226 *18:85 0.183801
13 *18:232 *536:RN 3.20004
14 *18:227 *384:RN 6.39995
15 *18:226 *18:227 1.71605
16 *18:144 *18:232 3.20004
17 *18:227 *18:228 1.404
18 *18:229 *380:RN 6.39995
19 *18:145 *18:144 0.367725
20 *18:228 *18:103 0.551527
21 *18:103 *18:229 0.183801
22 *18:231 *18:145 3.20004
23 *18:103 *18:102 0.467958
24 *18:230 *18:231 1.09194
25 *18:101 *18:102 3.20004
26 *18:147 *18:230 3.20004
27 *18:101 *18:100 2.20623
28 *18:147 *18:146 0.551527
29 *18:225 *386:RN 6.39995
30 *18:88 *18:100 3.20004
31 *18:126 *525:RN 3.20004
32 *18:126 *18:146 3.20004
33 *18:148 *18:225 0.183801
34 *18:87 *526:RN 3.20004
35 *18:88 *18:87 2.02798
36 *18:127 *522:RN 3.20004
37 *18:127 *18:126 2.808
38 *18:149 *18:148 0.312054
39 *18:87 *18:128 1.24797
40 *18:128 *18:127 0.467958
41 *18:120 *18:149 0.183801
42 *18:108 *18:128 3.20004
43 *18:121 *18:120 2.02798
44 *18:109 *18:108 3.30941
45 *18:121 *18:122 0.367725
46 *18:114 *18:109 0.156027
47 *18:224 *538:RN 3.20004
48 *18:117 *381:RN 6.39995
49 *18:123 *385:RN 6.39995
50 *18:123 *18:122 0.467958
51 *18:115 *18:114 2.20623
52 *533:RN *18:220 0.223795
53 *18:223 *18:224 0.551527
54 *18:117 *18:116 0.93604
55 *18:116 *18:123 0.156027
56 *18:115 *18:190 0.156027
57 *18:98 *425:RN 6.39995
58 *18:221 *18:220 3.20004
59 *18:222 *18:223 0.467958
60 *18:191 *18:116 3.20004
61 *18:191 *18:190 0.551527
62 *18:210 *390:RN 6.39995
63 *18:99 *377:RN 6.39995
64 *18:99 *18:98 1.71605
65 *18:221 *18:169 0.183801
66 *18:167 *18:222 0.183801
67 *18:192 *18:191 0.367725
68 *18:77 *18:210 0.183801
69 *18:211 *528:RN 3.20004
70 *18:110 *18:99 3.20004
71 *18:169 *18:168 0.156027
72 *18:168 *18:167 0.467958
73 *18:106 *18:192 0.156027
74 *18:77 *18:76 1.404
75 *18:111 *18:211 3.20004
76 *18:111 *18:110 2.02243
77 *18:163 *18:168 3.20004
78 *18:107 *18:106 2.20623
79 *18:112 *18:76 3.20004
80 *18:112 *18:111 1.4709
81 *18:164 *18:163 0.367725
82 *18:107 *18:118 0.312054
83 *18:113 *18:112 2.57396
84 *18:165 *18:164 0.156027
85 *18:119 *18:118 2.39015
86 *18:194 *527:RN 3.20004
87 *18:194 *18:113 3.20004
88 *18:166 *18:165 1.6547
89 *18:125 *388:RN 6.39995
90 *18:125 *18:119 3.20004
91 *18:193 *613:RN 3.20004
92 *18:194 *18:193 1.71605
93 *18:166 *18:218 0.156027
94 *18:125 *18:124 1.09194
95 *18:193 *18:203 1.09194
96 *18:217 *18:218 0.367725
97 *18:134 *18:124 0.183801
98 *18:219 *376:RN 6.39995
99 *18:204 *615:RN 3.20004
100 *18:203 *18:204 0.367725
101 *18:217 *18:188 0.156027
102 *18:131 *373:RN 6.39995
103 *18:134 *18:84 1.71605
104 *18:84 *18:219 0.183801
105 *18:204 *18:205 0.312054
106 *18:189 *18:188 1.6547
107 *18:131 *18:130 1.404
108 *18:84 *18:83 0.312054
109 *18:205 *18:138 0.183801
110 *18:216 *18:189 0.156027
111 *18:130 *18:79 0.183801
112 *18:132 *18:83 3.20004
113 *18:137 *626:RN 3.20004
114 *18:138 *18:137 1.404
115 *18:206 *621:RN 3.20004
116 *18:215 *18:216 0.551527
117 *18:170 *532:RN 3.20004
118 *18:79 *18:78 1.56003
119 *18:133 *18:132 3.49333
120 *18:137 *18:136 1.09194
121 *18:136 *18:206 0.183801
122 *18:171 *18:215 3.20004
123 *18:171 *18:170 0.93604
124 *18:78 *18:175 0.735451
125 *18:214 *535:RN 3.20004
126 *18:214 *18:133 3.20004
127 *18:136 *18:135 0.312054
128 *18:172 *18:171 0.467958
129 *18:175 *18:174 0.156027
130 *18:174 *18:214 0.551527
131 *18:140 *18:135 0.183801
132 *18:176 *18:172 3.20004
133 *18:213 *387:RN 6.39995
134 *18:174 *18:173 1.404
135 *18:140 *18:139 2.18401
136 *18:177 *18:176 1.79061
137 *18:213 *18:81 0.551527
138 *18:81 *18:173 0.183801
139 *18:161 *663:RN 3.20004
140 *18:139 *18:143 0.183801
141 *18:80 *18:177 3.20004
142 *18:81 *18:80 1.09194
143 *18:162 *18:161 0.623985
144 *18:143 *18:142 0.312054
145 *18:80 *18:82 0.312054
146 *18:197 *18:162 3.20004
147 *18:179 *616:RN 3.20004
148 *18:142 *18:179 0.183801
149 *18:180 *18:82 3.20004
150 *18:197 *18:199 0.551527
151 *18:179 *18:178 1.71605
152 *18:181 *18:180 6.06729
153 *18:199 *18:153 0.156027
154 *18:207 *611:RN 3.20004
155 *18:178 *18:207 0.183801
156 *18:207 *18:181 3.20004
157 *18:209 *640:RN 3.20004
158 *18:153 *18:152 1.28698
159 *18:207 *18:208 0.467958
160 *18:208 *18:209 0.623985
161 *18:154 *18:152 0.156027
162 *18:150 *18:208 3.20004
163 *18:154 *18:151 2.57396
164 *18:151 *18:150 4.41258
165 *18:202 *655:RN 3.20004
166 *18:155 *18:151 3.20004
167 *18:155 *18:202 0.623985
168 *18:156 *653:RN 3.20004
169 *18:156 *18:155 0.467958
170 *18:157 *18:156 0.780013
171 *18:158 *18:157 0.183801
172 *18:159 *619:RN 3.20004
173 *18:159 *18:158 0.93604
174 *18:160 *614:RN 3.20004
175 *18:160 *18:159 1.09194
176 *18:74 *622:RN 3.20004
177 *18:74 *18:160 1.71605
178 *18:75 *18:74 1.87196
179 *18:212 *521:RN 3.20004
180 *18:63 *18:75 0.183801
181 *18:104 *18:212 3.20004
182 *18:64 *618:RN 3.20004
183 *18:64 *18:63 0.93604
184 *18:105 *18:104 8.08971405
185 *18:65 *18:64 0.183801
186 *18:201 *620:RN 3.20004
187 *18:66 *612:RN 3.20004
188 *18:66 *18:105 3.20004
189 *18:66 *18:65 1.09194
190 *18:67 *18:201 0.183801
191 *18:67 *18:66 1.71605
192 *18:70 *18:67 0.183801
193 *18:71 *18:70 0.467958
194 *18:71 *18:68 0.183801
195 *18:69 *18:68 1.56003
196 *18:96 *18:69 0.735451
197 *18:72 *382:RN 6.39995
198 *18:72 *18:96 0.467958
199 *18:73 *18:72 0.312054
200 *18:94 *18:73 3.20004
201 *18:95 *18:94 1.83863
202 *372:Y *18:200 0.189973
203 *18:92 *18:95 0.156027
204 *18:198 *18:200 0.447591
205 *18:93 *18:92 0.735451
206 *18:141 *661:RN 3.20004
207 *18:91 *18:198 3.20004
208 *18:89 *18:93 3.20004
209 *18:129 *657:RN 3.20004
210 *18:129 *18:141 1.71605
211 *18:195 *656:RN 3.20004
212 *18:91 *18:90 0.467958
213 *18:90 *18:89 0.312054
214 *18:55 *648:RN 3.20004
215 *18:55 *18:129 1.09194
216 *18:195 *18:196 0.623985
217 *18:196 *18:90 0.735451
218 *18:56 *647:RN 3.20004
219 *18:56 *18:55 1.71605
220 *18:97 *660:RN 3.20004
221 *18:196 *18:97 0.467958
222 *18:57 *662:RN 3.20004
223 *18:57 *18:56 1.09194
224 *18:62 *623:RN 3.20004
225 *18:97 *18:62 1.71605
226 *18:58 *18:57 1.09194
227 *18:61 *649:RN 3.20004
228 *18:62 *18:61 1.09194
229 *18:59 *658:RN 3.20004
230 *18:53 *18:58 0.551527
231 *18:61 *18:60 1.404
232 *18:60 *18:59 0.312054
233 *18:54 *18:53 2.02798
234 *18:54 *18:60 0.551527
*END

*D_NET *19 0.00641673

*CONN
*I *371:A I *C 23.43 33.32 *L 0.0305 *D CLKBUFX20
*P *19 I *C 0 0.28 *L 0

*CAP
1 *371:A 0.000139847
2 *19 0.000145719
3 *19:2 0.000179874
4 *19:3 0.00108763
5 *19:4 0.00107894
6 *19:5 0.0018066
7 *19:6 0.000120605
8 *19:7 0.000120605
9 *19:8 0.00173691

*RES
1 *19:6 *371:A 3.19999
2 *19:7 *19:6 3.19999
3 *19:8 *19:7 3.19999
4 *19:5 *19:8 9.04800034
5 *19:4 *19:5 3.19999
6 *19:3 *19:4 5.69959
7 *19:2 *19:3 0.15601
8 *19 *19:2 0.788331
*END

*D_NET *20 0.0463359

*CONN
*I *372:A I *C 35.97 67.48 *L 0.00331 *D CLKBUFX3
*P *20 I *C 0 8.68 *L 0
*I *659:RN I *C 33.99 58.52 *L 0.004 *D DFFRHQX1
*I *652:RN I *C 33.99 38.36 *L 0.004 *D DFFRHQX1
*I *651:RN I *C 33.99 52.36 *L 0.004 *D DFFRHQX1
*I *650:RN I *C 33.99 62.44 *L 0.004 *D DFFRHQX1
*I *628:RN I *C 33.99 42.28 *L 0.004 *D DFFRHQX1
*I *610:RN I *C 33.99 48.44 *L 0.004 *D DFFRHQX1
*I *539:RN I *C 78.87 32.2 *L 0.004 *D DFFRHQX1
*I *534:RN I *C 49.83 58.52 *L 0.004 *D DFFRHQX1
*I *531:RN I *C 64.35 32.2 *L 0.004 *D DFFRHQX1
*I *524:RN I *C 49.17 42.28 *L 0.004 *D DFFRHQX1
*I *523:RN I *C 62.37 52.36 *L 0.004 *D DFFRHQX1
*I *498:RN I *C 142.23 38.36 *L 0.004 *D DFFRHQX1
*I *476:RN I *C 132.99 48.44 *L 0.00239 *D DFFRX1
*I *464:RN I *C 127.71 28.28 *L 0.004 *D DFFRHQX1
*I *456:RN I *C 142.23 28.28 *L 0.004 *D DFFRHQX1
*I *427:RN I *C 142.23 32.2 *L 0.004 *D DFFRHQX1
*I *426:RN I *C 105.93 38.36 *L 0.00239 *D DFFRX1
*I *423:RN I *C 71.61 58.52 *L 0.00239 *D DFFRX1
*I *405:RN I *C 113.19 28.28 *L 0.004 *D DFFRHQX1
*I *392:RN I *C 74.25 53.48 *L 0.00224 *D JKFFRXL
*I *391:RN I *C 57.09 47.32 *L 0.00224 *D JKFFRXL
*I *389:RN I *C 59.07 63.56 *L 0.00224 *D JKFFRXL
*I *383:RN I *C 94.05 32.2 *L 0.004 *D DFFRHQX1
*I *379:RN I *C 59.73 67.48 *L 0.00224 *D JKFFRXL
*I *378:RN I *C 88.77 28.28 *L 0.00239 *D DFFRX1
*I *375:RN I *C 72.93 43.4 *L 0.00224 *D JKFFRXL
*I *374:RN I *C 59.07 37.24 *L 0.00224 *D JKFFRXL

*CAP
1 *372:A 3.98653e-05
2 *20 0.00174552
3 *659:RN 0.000139827
4 *652:RN 0.000139827
5 *651:RN 0.000139827
6 *650:RN 0.000139827
7 *628:RN 6.3301e-05
8 *610:RN 0.000139827
9 *539:RN 0.000139827
10 *534:RN 0.000139827
11 *531:RN 0.000139827
12 *524:RN 0.000139827
13 *523:RN 0.000139827
14 *498:RN 0.000139827
15 *476:RN 6.3301e-05
16 *464:RN 0.000139827
17 *456:RN 0.000139827
18 *427:RN 0.000139827
19 *426:RN 6.3301e-05
20 *423:RN 6.3301e-05
21 *405:RN 0.000139827
22 *392:RN 6.3301e-05
23 *391:RN 6.3301e-05
24 *389:RN 6.3301e-05
25 *383:RN 0.000139827
26 *379:RN 6.3301e-05
27 *378:RN 6.3301e-05
28 *375:RN 6.3301e-05
29 *374:RN 6.3301e-05
30 *20:29 0.000547387
31 *20:30 0.000336519
32 *20:31 0.000213556
33 *20:32 0.000213556
34 *20:33 0.000280469
35 *20:34 0.000280469
36 *20:35 0.000157642
37 *20:36 0.000157642
38 *20:37 0.000155523
39 *20:38 0.000155523
40 *20:39 0.000742803
41 *20:40 0.000434852
42 *20:41 0.000351157
43 *20:42 0.000532288
44 *20:43 0.000162367
45 *20:44 0.000280713
46 *20:45 0.000280713
47 *20:46 0.000350152
48 *20:47 0.000101646
49 *20:48 0.000325412
50 *20:49 0.00025573
51 *20:50 0.000455871
52 *20:51 0.000601808
53 *20:52 0.000300402
54 *20:53 0.000154464
55 *20:54 0.000454241
56 *20:55 0.000454241
57 *20:56 0.000578101
58 *20:57 0.000815283
59 *20:58 0.0007012
60 *20:59 0.00115623
61 *20:60 0.00107799
62 *20:61 0.000424424
63 *20:62 0.000681647
64 *20:63 0.000399739
65 *20:64 8.7633e-05
66 *20:65 0.000278188
67 *20:66 0.000278188
68 *20:67 8.7633e-05
69 *20:68 0.000114382
70 *20:69 0.00017122
71 *20:70 8.7633e-05
72 *20:71 0.000238078
73 *20:72 0.000238078
74 *20:73 0.000222138
75 *20:74 0.000222138
76 *20:75 0.000266538
77 *20:76 0.000321421
78 *20:77 0.000570144
79 *20:78 0.000578834
80 *20:79 0.000401531
81 *20:80 0.000467439
82 *20:81 0.000315962
83 *20:82 0.000222979
84 *20:83 0.000714316
85 *20:84 0.000714316
86 *20:85 0.000516755
87 *20:86 0.000516755
88 *20:87 0.00177968
89 *20:88 0.000989951
90 *20:89 0.000135998
91 *20:90 0.00100475
92 *20:91 0.000279654
93 *20:92 0.000299913
94 *20:93 0.0003136
95 *20:94 0.000534705
96 *20:95 0.000614218
97 *20:96 0.000606723
98 *20:97 0.000546735
99 *20:98 0.000347572
100 *20:99 7.51955e-05
101 *20:100 0.000182354
102 *20:101 0.00030863
103 *20:102 0.000241744
104 *20:103 0.000241744
105 *20:104 0.000120601
106 *20:105 0.000310938
107 *20:106 0.000625027
108 *20:107 0.000310151
109 *20:108 0.000378611
110 *20:109 0.000385726
111 *20:110 0.000404247
112 *20:111 0.00029975
113 *20:112 0.000251575
114 *20:113 0.000163969
115 *20:114 0.000105991
116 *20:115 0.000412584
117 *20:116 0.000554719
118 *20:117 0.000261487
119 *20:118 6.57179e-05
120 *20:119 0.000305127
121 *20:120 0.000120601
122 *20:121 0.000193732
123 *20:122 0.000124049
124 *20:123 0.000186509
125 *20:124 0.000120601
126 *20:125 0.000120601
127 *20:126 0.000239871
128 *20:127 0.000185015
129 *20:128 0.00058918
130 *20:129 0.00057438
131 *20:64 *61:6 2.527e-05
132 *20:65 *61:3 2.527e-05
133 *20:65 *61:6 8.843e-05
134 *20:66 *61:3 8.843e-05
135 *20:66 *61:6 2.527e-05
136 *20:67 *61:3 2.527e-05
137 *20:68 *61:6 3.79e-05
138 *20:69 *61:3 3.79e-05
139 *20:69 *61:6 2.527e-05
140 *20:70 *61:3 2.527e-05
141 *20:71 *61:6 5.142e-05
142 *20:72 *61:3 5.142e-05
143 *20:73 *61:6 4.518e-05
144 *20:74 *61:3 4.518e-05
145 *20:75 *61:7 4.419e-05
146 *20:76 *61:5 4.41899947e-05
147 *20:56 *37:28 0.00019389
148 *20:57 *37:26 0.00019389
149 *20:56 *37:27 0.0001224
150 *20:57 *37:25 0.0001224
151 *20:57 *37:24 0.00014205
152 *20:58 *37:23 0.00014205
153 *20:58 *37:24 0.00015912
154 *20:59 *37:23 0.00015912
155 *20:59 *37:21 3.79e-05
156 *20:60 *37:19 3.79e-05
157 *20:58 *37:22 4.518e-05
158 *20:59 *37:20 4.518e-05
159 *20:59 *37:22 0.000128
160 *20:60 *37:20 0.000128
161 *20:44 *37:8 5.895e-05
162 *20:45 *37:9 5.895e-05
163 *20:61 *37:10 0.00010541
164 *20:62 *37:11 0.00010541
165 *20:62 *37:10 5.544e-05
166 *20:46 *37:11 5.544e-05
167 *20:46 *37:8 1.506e-05
168 *20:47 *37:9 1.506e-05
169 *20:63 *37:8 8.352e-05
170 *20:39 *37:9 8.35200028e-05
171 *20:39 *55:9 0.00012147
172 *20:40 *55:7 0.00012147
173 *20:41 *55:8 4.071e-05
174 *20:42 *55:6 4.071e-05
175 *20:42 *55:8 9.743e-05
176 *20:43 *55:6 9.74299941e-05

*RES
1 *20:129 *476:RN 6.4
2 *20:128 *20:129 2.65194
3 *20:128 *20:54 0.183885
4 *20:50 *498:RN 3.2
5 *20:55 *20:54 2.02806
6 *20:53 *456:RN 3.2
7 *20:51 *427:RN 3.2
8 *20:51 *20:50 1.71597
9 *20:127 *20:55 0.183885
10 *20:53 *20:52 0.311943
11 *20:52 *20:51 0.78
12 *20:38 *464:RN 3.2
13 *20:126 *20:127 0.624029
14 *20:61 *20:52 3.2
15 *20:38 *20:37 0.311943
16 *20:62 *20:126 3.2
17 *20:62 *20:61 2.57396
18 *20:46 *20:37 3.2
19 *20:46 *20:62 1.47079
20 *20:47 *20:46 0.36777
21 *20:47 *20:44 0.155971
22 *20:36 *405:RN 3.2
23 *20:45 *20:44 1.47079
24 *20:36 *20:35 0.311943
25 *20:63 *20:45 0.155971
26 *20:123 *392:RN 6.4
27 *20:39 *20:35 3.2
28 *20:39 *20:63 2.20633
29 *20:80 *20:123 0.735396
30 *20:40 *20:39 2.02245
31 *20:79 *423:RN 6.4
32 *20:80 *20:79 1.40403
33 *20:118 *379:RN 6.4
34 *20:43 *20:40 3.2
35 *20:41 *426:RN 6.4
36 *20:33 *534:RN 3.2
37 *20:83 *20:79 3.2
38 *20:117 *20:118 0.183885
39 *20:43 *20:42 0.78
40 *20:42 *20:41 1.71597
41 *20:34 *20:33 0.935971
42 *20:84 *20:83 3.49324
43 *20:116 *389:RN 6.4
44 *20:116 *20:117 1.09194
45 *20:49 *378:RN 6.4
46 *20:125 *383:RN 3.2
47 *20:56 *20:42 3.2
48 *20:86 *20:34 3.2
49 *20:115 *20:84 3.2
50 *20:115 *20:116 1.40403
51 *20:49 *20:48 1.09194
52 *20:57 *20:125 3.2
53 *20:57 *20:56 3.3095
54 *20:86 *20:85 2.39007
55 *20:113 *20:115 0.183885
56 *20:124 *539:RN 3.2
57 *20:58 *20:48 3.2
58 *20:58 *20:57 1.47079
59 *20:112 *20:85 3.2
60 *20:112 *20:113 0.935971
61 *20:120 *531:RN 3.2
62 *20:59 *20:124 3.2
63 *20:59 *20:58 2.75784
64 *20:111 *20:112 0.468058
65 *20:60 *20:120 3.2
66 *20:60 *20:59 4.04489
67 *20:111 *20:119 1.10317
68 *20:122 *375:RN 6.4
69 *20:109 *20:60 1.83856
70 *20:81 *523:RN 3.2
71 *20:81 *20:119 0.311943
72 *20:121 *20:122 0.468058
73 *20:108 *20:109 3.2
74 *20:114 *374:RN 6.4
75 *20:82 *20:81 1.24806
76 *20:77 *20:121 3.2
77 *20:108 *20:110 1.40403
78 *20:110 *20:114 0.36777
79 *20:75 *20:82 0.183885
80 *20:78 *20:77 2.75784
81 *20:105 *20:110 0.183885
82 *20:107 *391:RN 6.4
83 *20:76 *20:75 1.56
84 *20:78 *20:64 0.155971
85 *20:105 *20:106 1.40403
86 *20:106 *20:107 1.40403
87 *20:65 *20:76 3.2
88 *20:65 *20:64 0.36777
89 *20:66 *20:106 3.2
90 *20:66 *20:65 1.28705
91 *20:67 *20:66 0.36777
92 *20:71 *20:67 0.155971
93 *20:72 *20:71 1.28705
94 *20:104 *524:RN 3.2
95 *20:72 *20:68 0.155971
96 *20:69 *20:104 3.2
97 *20:69 *20:68 0.551511
98 *20:99 *372:A 0.223885
99 *20:70 *20:69 0.36777
100 *20:100 *20:99 3.2
101 *20:73 *20:70 0.155971
102 *20:98 *20:100 0.36777
103 *20:74 *20:73 1.28705
104 *20:97 *650:RN 3.2
105 *20:97 *20:98 1.40403
106 *20:74 *20:103 0.155971
107 *20:96 *659:RN 3.2
108 *20:96 *20:97 1.09194
109 *20:102 *20:103 1.10317
110 *20:95 *651:RN 3.2
111 *20:95 *20:96 1.71597
112 *20:101 *20:102 0.155971
113 *20:94 *610:RN 3.2
114 *20:94 *20:95 1.09194
115 *20:92 *20:101 1.47079
116 *20:93 *628:RN 6.4
117 *20:93 *20:94 1.71597
118 *20:91 *20:92 3.2
119 *20:91 *20:93 0.155971
120 *20:29 *652:RN 3.2
121 *20:29 *20:91 0.935971
122 *20:30 *20:29 1.71597
123 *20:31 *20:30 0.183885
124 *20:32 *20:31 1.24806
125 *20:32 *20:90 0.183885
126 *20:88 *20:90 5.14806
127 *20:89 *20:88 3.2
128 *20:87 *20:89 0.155971
129 *20 *20:87 9.42964268
*END

*D_NET *21 0.0068958

*CONN
*P *21 I *C 0 155.96 *L 0
*I *661:D I *C 22.77 117.32 *L 0.00184 *D DFFRHQX1

*CAP
1 *21 0.00106325
2 *661:D 6.32762e-05
3 *21:2 0.00021559
4 *21:3 0.000145911
5 *21:4 0.00196998
6 *21:5 0.00196998
7 *21:6 0.00108871
8 *21:7 0.000120601
9 *21:4 *23:3 0.00012923
10 *21:5 *23:2 0.00012923

*RES
1 *21:7 *661:D 6.39999
2 *21:2 *21:7 3.2
3 *21:3 *21:2 0.551537
4 *21:5 *21:3 3.2
5 *21:5 *21:4 10.7639999
6 *21:6 *21:4 3.2
7 *21 *21:6 5.75254
*END

*D_NET *22 0.00651375

*CONN
*P *22 I *C 0 147 *L 0
*I *655:D I *C 39.27 124.6 *L 0.00184 *D DFFRHQX1

*CAP
1 *22 0.00194928
2 *655:D 6.33086e-05
3 *22:2 0.00121754
4 *22:3 0.00120292
5 *22:4 0.00197474
6 *22:5 0.000105976

*RES
1 *22:5 *655:D 6.39993
2 *22:3 *22:5 0.367722
3 *22:3 *22:2 6.24002
4 *22:4 *22:2 3.20005
5 *22 *22:4 10.5327854
*END

*D_NET *23 0.00411306

*CONN
*P *23 I *C 0 138.6 *L 0
*I *663:D I *C 23.43 124.6 *L 0.00184 *D DFFRHQX1

*CAP
1 *23 0.00116767
2 *663:D 6.33017e-05
3 *23:2 0.000654955
4 *23:3 0.000709828
5 *23:4 0.00119312
6 *23:5 6.57231e-05
7 *23:3 *21:4 0.00012923
8 *23:2 *21:5 0.00012923

*RES
1 *23:5 *663:D 6.4000001
2 *23:2 *23:5 0.183887
3 *23:2 *23:3 3.9
4 *23:4 *23:3 3.2
5 *23 *23:4 6.3041
*END

*D_NET *24 0.00604554

*CONN
*P *24 I *C 0 129.64 *L 0
*I *653:D I *C 39.27 117.32 *L 0.00184 *D DFFRHQX1

*CAP
1 *24 0.00207603
2 *653:D 6.33116e-05
3 *24:2 6.57301e-05
4 *24:3 7.24224e-05
5 *24:4 0.00217118
6 *24:5 9.94565e-05
7 *24:6 9.94565e-05
8 *24:7 0.000255599
9 *24:8 0.000255599
10 *24:9 0.00044338
11 *24:10 0.00044338

*RES
1 *24:2 *653:D 6.39999
2 *24:2 *24:5 0.183793
3 *24:5 *24:6 0.312032
4 *24:6 *24:9 0.183793
5 *24:9 *24:10 2.02804
6 *24:7 *24:10 0.183793
7 *24:7 *24:8 1.09195
8 *24:3 *24:8 0.183793
9 *24:4 *24:3 3.19999
10 *24 *24:4 10.9005003
*END

*D_NET *25 0.00351345

*CONN
*P *25 I *C 0 121.24 *L 0
*I *657:D I *C 22.77 114.52 *L 0.00184 *D DFFRHQX1

*CAP
1 *25 0.000791399
2 *657:D 6.32967e-05
3 *25:2 0.000494606
4 *25:3 0.00085972
5 *25:4 6.57236e-05
6 *25:5 0.000281575
7 *25:6 0.000336463
8 *25:7 0.000451748
9 *25:6 *17:182 2.659e-05
10 *25:5 *17:183 2.659e-05
11 *25:6 *17:183 5.787e-05
12 *25:5 *17:170 5.78700021e-05

*RES
1 *25:4 *657:D 6.4000001
2 *25:4 *25:5 0.183887
3 *25:5 *25:6 1.55996
4 *25:7 *25:6 3.2
5 *25:2 *25:7 2.20625
6 *25:2 *25:3 0.312012
7 *25 *25:3 4.28164
*END

*D_NET *26 0.00330398

*CONN
*P *26 I *C 0 112.28 *L 0
*I *648:D I *C 22.77 107.24 *L 0.00184 *D DFFRHQX1

*CAP
1 *26 0.00116887
2 *648:D 6.33023e-05
3 *26:2 6.57132e-05
4 *26:3 7.24253e-05
5 *26:4 0.00126402
6 *26:5 0.000334815
7 *26:6 0.000334815

*RES
1 *26:2 *648:D 6.4000001
2 *26:2 *26:5 0.183887
3 *26:5 *26:6 1.404
4 *26:3 *26:6 0.183887
5 *26:4 *26:3 3.2
6 *26 *26:4 6.3041
*END

*D_NET *27 0.00268513

*CONN
*P *27 I *C 0 103.88 *L 0
*I *647:D I *C 22.77 104.44 *L 0.00184 *D DFFRHQX1

*CAP
1 *27 0.000621485
2 *647:D 6.3298e-05
3 *27:2 0.00065564
4 *27:3 0.000581557
5 *27:4 0.000120603
6 *27:5 0.000642544

*RES
1 *27:4 *647:D 6.4000001
2 *27:5 *27:4 3.2
3 *27:3 *27:5 2.9417
4 *27:2 *27:3 0.155957
5 *27 *27:2 3.3624
*END

*D_NET *28 0.00290244

*CONN
*P *28 I *C 0 94.92 *L 0
*I *662:D I *C 22.77 97.16 *L 0.00184 *D DFFRHQX1

*CAP
1 *28 0.00116887
2 *662:D 6.33023e-05
3 *28:2 0.000203119
4 *28:3 0.00126402
5 *28:4 0.000203119

*RES
1 *28:4 *662:D 6.4000001
2 *28:2 *28:4 0.624023
3 *28:3 *28:2 3.2
4 *28 *28:3 6.3041
*END

*D_NET *29 0.00268512

*CONN
*P *29 I *C 0 86.52 *L 0
*I *658:D I *C 22.77 87.08 *L 0.00184 *D DFFRHQX1

*CAP
1 *29 0.000655463
2 *658:D 6.32954e-05
3 *29:2 0.00068962
4 *29:3 0.000547582
5 *29:4 0.000120603
6 *29:5 0.000608562

*RES
1 *29:4 *658:D 6.4000001
2 *29:5 *29:4 3.2
3 *29:3 *29:5 2.75781
4 *29:2 *29:3 0.155957
5 *29 *29:2 3.54619
*END

*D_NET *30 0.00342024

*CONN
*P *30 I *C 0 78.12 *L 0
*I *649:D I *C 22.77 84.28 *L 0.00184 *D DFFRHQX1

*CAP
1 *30 0.00120703
2 *649:D 6.33053e-05
3 *30:2 0.00130217
4 *30:3 6.57294e-05
5 *30:4 0.000289543
6 *30:5 0.000304346
7 *30:5 *17:147 1.773e-05
8 *30:4 *17:148 1.773e-05
9 *30:5 *17:148 7.633e-05
10 *30:4 *17:138 7.63300008e-05

*RES
1 *30:3 *649:D 6.40002
2 *30:3 *30:5 0.183839
3 *30:4 *30:5 1.71603
4 *30:2 *30:4 3.20001
5 *30 *30:2 6.48792839
*END

*D_NET *31 0.0033148

*CONN
*P *31 I *C 0 69.16 *L 0
*I *660:D I *C 22.77 74.2 *L 0.00184 *D DFFRHQX1

*CAP
1 *31 0.00116164
2 *660:D 6.3304e-05
3 *31:2 7.24132e-05
4 *31:3 0.00125678
5 *31:4 6.57204e-05
6 *31:5 0.000258509
7 *31:6 0.000258509
8 *31:3 *17:136 1.263e-05
9 *31 *17:137 1.263e-05
10 *31:6 *17:138 1.773e-05
11 *31:5 *17:139 1.773e-05
12 *31:6 *17:139 5.86e-05
13 *31:5 *17:140 5.85999995e-05

*RES
1 *31:4 *660:D 6.4000001
2 *31:4 *31:6 0.183887
3 *31:5 *31:6 1.404
4 *31:2 *31:5 0.183887
5 *31:3 *31:2 3.2
6 *31 *31:3 6.3041
*END

*D_NET *32 0.00325318

*CONN
*P *32 I *C 0 60.76 *L 0
*I *656:D I *C 22.77 66.92 *L 0.00184 *D DFFRHQX1

*CAP
1 *32 0.000791399
2 *656:D 6.32967e-05
3 *32:2 0.000356351
4 *32:3 0.000370978
5 *32:4 0.00085972
6 *32:5 0.000374165
7 *32:6 0.000331294
8 *32:7 0.000105984

*RES
1 *32:7 *656:D 6.4000001
2 *32:2 *32:7 0.367676
3 *32:3 *32:2 1.404
4 *32:6 *32:3 3.2
5 *32:5 *32:6 1.65469
6 *32:4 *32:5 0.312012
7 *32 *32:4 4.28164
*END

*D_NET *33 0.00442816

*CONN
*P *33 I *C 0 51.8 *L 0
*I *650:D I *C 23.43 64.12 *L 0.00184 *D DFFRHQX1

*CAP
1 *33 0.00128571
2 *650:D 6.33032e-05
3 *33:2 0.000105979
4 *33:3 0.000182987
5 *33:4 0.00131118
6 *33:5 0.000128107
7 *33:6 0.000317056
8 *33:7 0.000357331
9 *33:8 0.000338264
10 *33:9 0.000338264

*RES
1 *33:2 *650:D 6.39997
2 *33:2 *33:7 0.3677
3 *33:6 *33:7 1.40395
4 *33:6 *33:9 0.183902
5 *33:8 *33:9 1.56003
6 *33:5 *33:8 0.183902
7 *33:3 *33:5 0.46802
8 *33:4 *33:3 3.19998
9 *33 *33:4 6.8556428
*END

*D_NET *34 0.0042924

*CONN
*P *34 I *C 0 43.4 *L 0
*I *659:D I *C 23.43 56.84 *L 0.00184 *D DFFRHQX1

*CAP
1 *34 0.00109724
2 *659:D 6.33002e-05
3 *34:2 0.000565093
4 *34:3 0.000565093
5 *34:4 0.000163895
6 *34:5 0.0011227
7 *34:6 0.000109024
8 *34:7 9.73229e-05
9 *34:8 0.00017784
10 *34:9 0.000146233
11 *34:6 *17:80 2.659e-05
12 *34:4 *17:81 2.659e-05
13 *34:3 *17:125 4.241e-05
14 *34:2 *17:80 4.241e-05
15 *34:3 *17:80 2.333e-05
16 *34:2 *17:81 2.33300008e-05

*RES
1 *34:9 *659:D 6.4000001
2 *34:8 *34:9 0.551562
3 *34:7 *34:8 0.312012
4 *34:3 *34:7 0.183887
5 *34:2 *34:3 2.96396
6 *34:2 *34:6 0.183887
7 *34:4 *34:6 0.467969
8 *34:5 *34:4 3.2
9 *34 *34:5 5.93633
*END

*D_NET *35 0.00501295

*CONN
*P *35 I *C 0 34.44 *L 0
*I *651:D I *C 23.43 54.04 *L 0.00184 *D DFFRHQX1

*CAP
1 *35 0.00120163
2 *651:D 6.3307e-05
3 *35:2 0.0012271
4 *35:3 0.00101596
5 *35:4 0.000120604
6 *35:5 0.000120604
7 *35:6 0.000946272
8 *35:6 *17:184 5.491e-05
9 *35:3 *17:185 5.491e-05
10 *35:6 *17:185 0.00010382
11 *35:3 *17:186 0.00010382

*RES
1 *35:4 *651:D 6.40002
2 *35:5 *35:4 3.20001
3 *35:6 *35:5 3.20001
4 *35:3 *35:6 5.46003
5 *35:2 *35:3 3.20001
6 *35 *35:2 6.48792839
*END

*D_NET *36 0.00383089

*CONN
*P *36 I *C 0 26.04 *L 0
*I *652:D I *C 23.43 36.68 *L 0.00184 *D DFFRHQX1

*CAP
1 *36 0.00113121
2 *652:D 6.32922e-05
3 *36:2 0.000679553
4 *36:3 0.000694167
5 *36:4 0.00115668
6 *36:5 0.000105987

*RES
1 *36:5 *652:D 6.4000001
2 *36:2 *36:5 0.367676
3 *36:3 *36:2 2.96396
4 *36:4 *36:3 3.2
5 *36 *36:4 6.12021
*END

*D_NET *37 0.0170163

*CONN
*P *37 O *C 165.66 31.64 *L 0
*I *603:A1 I *C 47.85 33.32 *L 0.00324 *D OAI21XL
*I *573:B I *C 47.85 37.8 *L 0.00302 *D NOR2BXL
*I *531:Q O *C 65.67 33.88 *L 0 *D DFFRHQX1

*CAP
1 *37 0.00109723
2 *603:A1 0.000139839
3 *573:B 0.000139839
4 *531:Q 0.000139839
5 *37:4 0.00034283
6 *37:5 0.00034283
7 *37:6 0.000292626
8 *37:7 0.000375286
9 *37:8 0.00100853
10 *37:9 0.00099144
11 *37:10 0.000658917
12 *37:11 0.000658917
13 *37:12 0.000527745
14 *37:13 0.000536446
15 *37:14 0.000286411
16 *37:15 0.000286411
17 *37:16 0.000141496
18 *37:17 0.000132795
19 *37:18 0.00020325
20 *37:19 0.000105673
21 *37:20 0.00068963
22 *37:21 0.000114374
23 *37:22 0.000706704
24 *37:23 0.00042088
25 *37:24 0.000386715
26 *37:25 0.000124474
27 *37:26 0.000238727
28 *37:27 0.000124474
29 *37:28 0.000238727
30 *37:29 0.0011314
31 *37:12 *59:10 8.95e-05
32 *37:13 *59:8 8.95e-05
33 *37:12 *59:12 2.259e-05
34 *37:13 *59:9 2.259e-05
35 *37:6 *59:13 6.082e-05
36 *37:7 *59:11 6.082e-05
37 *37:4 *59:5 1.3e-05
38 *37:5 *59:4 1.30000066e-05
39 *37:8 *56:8 8.843e-05
40 *37:9 *56:5 8.843e-05
41 *37:10 *56:8 0.00016619
42 *37:11 *56:5 0.000166189993
43 *37:28 *20:56 0.00019389
44 *37:26 *20:57 0.00019389
45 *37:27 *20:56 0.0001224
46 *37:25 *20:57 0.0001224
47 *37:24 *20:57 0.00014205
48 *37:23 *20:58 0.00014205
49 *37:24 *20:58 0.00015912
50 *37:23 *20:59 0.00015912
51 *37:21 *20:59 3.79e-05
52 *37:19 *20:60 3.79e-05
53 *37:22 *20:58 4.518e-05
54 *37:20 *20:59 4.518e-05
55 *37:22 *20:59 0.000128
56 *37:20 *20:60 0.000128
57 *37:8 *20:44 5.895e-05
58 *37:9 *20:45 5.895e-05
59 *37:10 *20:61 0.00010541
60 *37:11 *20:62 0.00010541
61 *37:10 *20:62 5.544e-05
62 *37:11 *20:46 5.544e-05
63 *37:8 *20:46 1.506e-05
64 *37:9 *20:47 1.506e-05
65 *37:8 *20:63 8.352e-05
66 *37:9 *20:39 8.35200028e-05
67 *37:8 *78:24 0.00010032
68 *37:9 *78:25 0.00010032
69 *37:28 *78:24 0.00020701
70 *37:26 *78:25 0.00020701
71 *37:27 *78:24 2.377e-05
72 *37:25 *78:25 2.377e-05
73 *37:24 *78:25 0.00029737
74 *37:23 *78:26 0.000297370004

*RES
1 *37:29 *37 5.93635702
2 *37:10 *37:29 0.155982
3 *37:11 *37:10 4.59647
4 *37:11 *37:8 0.155982
5 *37:9 *37:8 5.88346
6 *37:28 *37:9 0.0779908
7 *37:26 *37:28 2.2063
8 *37:26 *37:27 0.0779908
9 *37:25 *37:27 0.735432
10 *37:24 *37:25 0.0779908
11 *37:23 *37:24 3.67716
12 *37:22 *37:23 0.233972
13 *37:20 *37:22 4.22871
14 *37:20 *37:21 0.155982
15 *37:19 *37:21 0.551551
16 *37:18 *37:19 3.19998
17 *37:18 *37:7 0.779998
18 *37:7 *531:Q 3.19998
19 *37:7 *37:6 1.09196
20 *37:12 *37:6 3.19998
21 *37:13 *37:12 3.12561
22 *37:13 *37:14 0.155982
23 *37:15 *37:14 1.28698
24 *37:16 *37:15 0.155982
25 *37:17 *37:16 0.551551
26 *37:4 *573:B 3.19998
27 *37:4 *37:17 3.19998
28 *37:5 *37:4 1.24803
29 *603:A1 *37:5 3.19998
*END

*D_NET *38 0.0130443

*CONN
*P *38 O *C 165.66 39.48 *L 0
*I *600:A1 I *C 74.91 37.24 *L 0.00324 *D OAI21XL
*I *580:B I *C 72.93 47.88 *L 0.00302 *D NOR2BXL
*I *539:Q O *C 80.19 33.88 *L 0 *D DFFRHQX1

*CAP
1 *38 0.00228149
2 *600:A1 0.000139855
3 *580:B 0.000139855
4 *539:Q 8.24005e-05
5 *38:4 0.000101835
6 *38:5 0.000160914
7 *38:6 0.000124802
8 *38:7 0.000422108
9 *38:8 0.000422108
10 *38:9 0.000410165
11 *38:10 0.000410165
12 *38:11 0.000332959
13 *38:12 0.000332959
14 *38:13 0.000581821
15 *38:14 0.000573129
16 *38:15 0.00231566
17 *38:16 9.81598e-05
18 *38:17 9.81598e-05
19 *38:18 0.000156038
20 *38:19 0.000156038
21 *38:20 0.000501647
22 *38:21 0.000501647
23 *38:22 0.000142081
24 *38:23 0.000117735
25 *38:24 0.000120597
26 *38:25 0.000941635
27 *38:26 0.000941635
28 *38 *53:10 0.00021835
29 *38:15 *53:8 0.000218349996

*RES
1 *38:15 *38 12.9229288
2 *38:20 *38:15 0.155976
3 *38:21 *38:20 2.20634
4 *38:21 *38:13 0.155976
5 *38:14 *38:13 2.20634
6 *38:18 *38:14 3.19997
7 *38:19 *38:18 0.311952
8 *38:26 *38:19 3.19997
9 *539:Q *38:23 0.447617
10 *38:25 *38:26 6.06729
11 *38:12 *38:23 3.19997
12 *38:24 *38:25 3.19997
13 *38:12 *38:11 1.248
14 *38:9 *38:24 3.19997
15 *38:9 *38:11 3.19997
16 *38:6 *600:A1 3.19997
17 *38:10 *38:9 1.83858
18 *38:6 *38:5 0.155976
19 *38:5 *38:10 3.19997
20 *38:5 *38:4 0.311952
21 *38:8 *38:4 0.183779
22 *38:8 *38:7 2.02808
23 *38:17 *38:7 0.183779
24 *38:17 *38:16 0.311952
25 *38:22 *38:16 0.183779
26 *580:B *38:22 3.19997
*END

*D_NET *39 0.014783

*CONN
*P *39 O *C 165.66 47.32 *L 0
*I *598:A1 I *C 43.23 47.32 *L 0.00324 *D OAI21XL
*I *581:B I *C 48.51 52.92 *L 0.00302 *D NOR2BXL
*I *524:Q O *C 50.49 43.96 *L 0 *D DFFRHQX1

*CAP
1 *39 0.00182825
2 *598:A1 0.000139831
3 *581:B 0.000139831
4 *524:Q 0.000139831
5 *39:4 0.000228151
6 *39:5 0.000158489
7 *39:6 9.79022e-05
8 *39:7 0.000112707
9 *39:8 0.000284935
10 *39:9 0.000284935
11 *39:10 7.37688e-05
12 *39:11 0.00033452
13 *39:12 0.000343849
14 *39:13 0.000126953
15 *39:14 0.000126953
16 *39:15 0.0018537
17 *39:16 0.000353026
18 *39:17 0.000353026
19 *39:18 0.000196159
20 *39:19 0.000141302
21 *39:20 0.000185157
22 *39:21 0.00332264
23 *39:22 0.000185157
24 *39:23 0.00332264
25 *39:10 *61:6 3.79e-05
26 *39:11 *61:3 3.79e-05
27 *39:11 *61:6 8.806e-05
28 *39:12 *61:3 8.806e-05
29 *39:4 *61:4 9.875e-05
30 *39:5 *61:2 9.87499986e-05

*RES
1 *39:15 *39 9.61349
2 *39:16 *39:15 3.20016
3 *39:6 *581:B 3.20016
4 *39:17 *39:16 1.24789
5 *39:7 *39:6 0.623946
6 *39:23 *39:17 3.20016
7 *39:8 *39:7 0.183795
8 *39:21 *39:23 22.4305706
9 *39:9 *39:8 1.24789
10 *39:20 *39:21 3.20016
11 *39:14 *524:Q 3.20016
12 *39:9 *39:19 0.183795
13 *39:20 *39:22 0.467874
14 *39:14 *39:13 0.156072
15 *39:18 *39:19 0.467874
16 *39:10 *39:22 3.20016
17 *39:10 *39:13 3.20016
18 *39:11 *39:18 3.20016
19 *39:11 *39:10 0.551728
20 *39:4 *598:A1 3.20016
21 *39:12 *39:11 1.47071
22 *39:5 *39:4 0.780018
23 *39:5 *39:12 3.20016
*END

*D_NET *40 0.0113562

*CONN
*P *40 O *C 165.66 55.16 *L 0
*I *601:A1 I *C 59.73 57.4 *L 0.00324 *D OAI21XL
*I *575:B I *C 65.01 57.96 *L 0.00302 *D NOR2BXL
*I *523:Q O *C 63.69 54.04 *L 0 *D DFFRHQX1

*CAP
1 *40 0.000655459
2 *601:A1 0.000139854
3 *575:B 0.000139854
4 *523:Q 0.000139854
5 *40:4 0.000211351
6 *40:5 0.000281016
7 *40:6 0.000187117
8 *40:7 0.000117452
9 *40:8 7.31719e-05
10 *40:9 7.31719e-05
11 *40:10 9.96038e-05
12 *40:11 0.000265732
13 *40:12 0.000231868
14 *40:13 0.00343013
15 *40:14 0.00343013
16 *40:15 0.000120592
17 *40:16 0.000142104
18 *40:17 0.000365336
19 *40:18 0.000120592
20 *40:19 0.000723763
21 *40:20 0.000408151

*RES
1 *40:19 *40 3.54607
2 *40:19 *40:20 0.312105
3 *40:17 *40:20 1.83861
4 *40:16 *575:B 3.19995
5 *40:18 *40:17 3.19995
6 *40:8 *40:16 0.183756
7 *40:13 *40:18 3.19995
8 *40:9 *40:8 0.156052
9 *40:14 *40:13 22.9821434
10 *40:12 *523:Q 3.19995
11 *40:10 *40:9 0.183756
12 *40:15 *40:14 3.19995
13 *40:12 *40:11 0.623859
14 *40:11 *40:10 0.312105
15 *40:4 *40:15 3.19995
16 *40:4 *40:11 3.19995
17 *40:6 *601:A1 3.19995
18 *40:5 *40:4 1.10324
19 *40:7 *40:6 0.312105
20 *40:7 *40:5 3.19995
*END

*D_NET *41 0.0144657

*CONN
*P *41 O *C 165.66 63 *L 0
*I *579:A1 I *C 47.19 67.48 *L 0.00324 *D OAI21XL
*I *578:B I *C 44.55 68.04 *L 0.00302 *D NOR2BXL
*I *534:Q O *C 51.15 56.84 *L 0 *D DFFRHQX1

*CAP
1 *41 0.00170357
2 *579:A1 6.22186e-05
3 *578:B 0.000139856
4 *534:Q 0.000139856
5 *41:4 0.000101556
6 *41:5 0.000436815
7 *41:6 0.000348553
8 *41:7 0.000445315
9 *41:8 0.000383542
10 *41:9 9.75533e-05
11 *41:10 0.000126908
12 *41:11 0.00011228
13 *41:12 0.000276006
14 *41:13 0.000276006
15 *41:14 0.000364318
16 *41:15 0.000364318
17 *41:16 0.00172903
18 *41:17 0.000223325
19 *41:18 0.000223325
20 *41:19 0.00323868
21 *41:20 0.00323868
22 *41:20 *281:2 5.67e-05
23 *41:19 *281:3 5.67e-05
24 *41:20 *281:4 0.00016032
25 *41:19 *281:5 0.000160319995

*RES
1 *41:16 *41 9.24582
2 *41:13 *41:16 3.20007
3 *41:13 *41:12 0.935885
4 *41:20 *41:12 3.20007
5 *41:19 *41:20 22.2467136
6 *41:14 *41:19 3.20007
7 *41:15 *41:14 1.24785
8 *41:17 *534:Q 3.20007
9 *41:4 *41:15 3.20007
10 *41:17 *41:18 0.623924
11 *41:5 *41:4 0.367633
12 *41:5 *41:18 3.20007
13 *41:6 *41:5 1.47087
14 *41:9 *579:A1 0.447745
15 *41:8 *41:6 3.20007
16 *41:10 *578:B 3.20007
17 *41:7 *41:9 3.20007
18 *41:8 *41:7 1.56015
19 *41:11 *41:10 0.156151
20 *41:11 *41:7 0.367633
*END

*D_NET *42 0.0150212

*CONN
*P *42 O *C 165.66 70.84 *L 0
*I *602:A1 I *C 59.07 73.64 *L 0.00324 *D OAI21XL
*I *572:B I *C 55.77 73.08 *L 0.00302 *D NOR2BXL
*I *527:Q O *C 63.69 84.28 *L 0 *D DFFRHQX1

*CAP
1 *42 0.000791405
2 *602:A1 0.000135308
3 *572:B 0.000139843
4 *527:Q 0.000139843
5 *42:4 0.000769651
6 *42:5 0.000784709
7 *42:6 0.000124785
8 *42:7 0.0011096
9 *42:8 0.00117926
10 *42:9 0.000247161
11 *42:10 0.00053737
12 *42:11 0.00053737
13 *42:12 0.000158409
14 *42:13 0.000158409
15 *42:14 0.000127478
16 *42:15 0.000127478
17 *42:16 0.000112668
18 *42:17 0.000154015
19 *42:18 0.00232192
20 *42:19 0.000154015
21 *42:20 0.00102705
22 *42:21 0.00232192
23 *42:22 0.000825666
24 *42:23 0.00103587

*RES
1 *42:22 *42 4.28167
2 *42:22 *42:23 0.15601
3 *42:20 *42:23 5.33183
4 *42:13 *42:20 3.20008
5 *42:13 *42:12 0.312021
6 *42:21 *42:12 3.20008
7 *42:18 *42:21 15.2601433
8 *42:17 *42:18 3.20008
9 *42:15 *527:Q 3.20008
10 *42:17 *42:19 0.312021
11 *42:15 *42:14 0.15601
12 *42:7 *42:19 3.20008
13 *42:10 *42:14 3.20008
14 *42:9 *602:A1 0.671543
15 *42:8 *42:7 5.33183
16 *42:11 *42:10 2.20627
17 *42:16 *42:9 3.20008
18 *42:16 *42:8 3.20008
19 *42:4 *42:11 3.20008
20 *42:5 *42:16 0.367672
21 *42:5 *42:4 3.11997
22 *42:6 *42:5 0.15601
23 *572:B *42:6 3.20008
*END

*D_NET *43 0.0134279

*CONN
*P *43 O *C 165.66 78.12 *L 0
*I *597:B I *C 63.69 73.08 *L 0.00302 *D NOR2BXL
*I *589:A1 I *C 65.67 73.64 *L 0.00324 *D OAI21XL
*I *528:Q O *C 78.21 84.28 *L 0 *D DFFRHQX1

*CAP
1 *43 0.00189716
2 *597:B 0.00013985
3 *589:A1 4.22835e-05
4 *528:Q 8.34613e-05
5 *43:4 0.000441028
6 *43:5 0.000127487
7 *43:6 0.000246531
8 *43:7 0.000246531
9 *43:8 0.000423304
10 *43:9 0.00101846
11 *43:10 0.00101846
12 *43:11 0.00192263
13 *43:12 7.75979e-05
14 *43:13 0.000225892
15 *43:14 0.000225892
16 *43:15 0.000182369
17 *43:16 0.000299368
18 *43:17 0.00219576
19 *43:18 0.000299368
20 *43:19 0.000118776
21 *43:20 0.00219576

*RES
1 *43:11 *43 9.6136
2 *43:13 *43:11 3.20008
3 *43:14 *43:13 0.624086
4 *43:20 *43:14 3.20008
5 *43:17 *43:20 14.3408575
6 *528:Q *43:19 0.447714
7 *43:16 *43:17 3.20008
8 *43:6 *43:19 3.20008
9 *43:16 *43:18 1.09193
10 *43:7 *43:6 0.624086
11 *43:9 *43:18 3.20008
12 *43:9 *43:7 3.20008
13 *43:12 *589:A1 0.223857
14 *43:10 *43:9 4.41259
15 *43:15 *43:12 3.20008
16 *43:8 *43:10 3.20008
17 *43:4 *43:15 0.367625
18 *43:4 *43:8 1.71602
19 *43:5 *43:4 0.156022
20 *597:B *43:5 3.20008
*END

*D_NET *44 0.0137577

*CONN
*P *44 O *C 165.66 85.96 *L 0
*I *596:A1 I *C 78.21 93.8 *L 0.00324 *D OAI21XL
*I *577:B I *C 72.27 93.24 *L 0.00302 *D NOR2BXL
*I *521:Q O *C 78.21 87.08 *L 0 *D DFFRHQX1

*CAP
1 *44 0.000655459
2 *596:A1 0.000139826
3 *577:B 0.000139826
4 *521:Q 0.000139826
5 *44:4 0.000203681
6 *44:5 0.000238741
7 *44:6 0.000277239
8 *44:7 0.00027433
9 *44:8 0.000177217
10 *44:9 0.000177217
11 *44:10 0.000420586
12 *44:11 0.000420586
13 *44:12 0.000415016
14 *44:13 0.000415016
15 *44:14 0.00108317
16 *44:15 0.00108328586
17 *44:16 8.77571e-05
18 *44:17 7.06322e-05
19 *44:18 7.57895e-05
20 *44:19 9.29145e-05
21 *44:20 0.00103548
22 *44:21 0.00102667
23 *44:22 0.000374088
24 *44:23 0.000443761
25 *44:24 0.000609606
26 *44:25 0.000609606
27 *44:26 0.000689627
28 *44:12 *93:15 0.00019023
29 *44:13 *93:13 0.00019023
30 *44:14 *93:15 1.263e-05
31 *44:15 *93:13 1.263e-05
32 *44:16 *93:15 2.527e-05
33 *44:17 *93:13 2.527e-05
34 *44:18 *93:15 2.377e-05
35 *44:19 *93:13 2.377e-05
36 *44:20 *93:11 0.00048544
37 *44:21 *93:10 0.00048544
38 *44:10 *93:15 9.788e-05
39 *44:11 *93:13 9.78800231e-05
40 *44:25 *330:21 1.263e-05
41 *44:24 *330:19 1.263e-05
42 *44:20 *330:19 0.00027501
43 *44:21 *330:20 0.00027501
44 *44:25 *330:19 2.487e-05
45 *44:24 *330:20 2.487e-05
46 *44:4 *330:22 8.82e-06
47 *44:5 *330:23 8.82e-06
48 *44:5 *330:17 8.3e-06
49 *44:6 *330:18 8.3e-06
50 *44:6 *330:17 2.553e-05
51 *44:7 *330:18 2.55299778e-05

*RES
1 *44:26 *44 3.54627
2 *44:26 *44:14 0.155971
3 *44:15 *44:14 5.33189
4 *44:10 *44:15 0.155971
5 *44:11 *44:10 2.39018
6 *44:11 *44:16 0.155971
7 *44:17 *44:16 0.367728
8 *44:17 *44:12 0.0779855
9 *44:13 *44:12 2.02245
10 *44:18 *44:13 0.0779855
11 *44:19 *44:18 0.367728
12 *44:25 *44:19 0.155971
13 *44:24 *44:25 2.7579
14 *44:24 *44:20 0.155971
15 *44:21 *44:20 7.53814268
16 *44:7 *44:21 3.20005
17 *44:7 *44:6 0.936057
18 *44:6 *521:Q 3.20005
19 *44:4 *596:A1 3.20005
20 *44:6 *44:5 0.312057
21 *44:5 *44:4 0.623999
22 *44:22 *44:5 3.20005
23 *44:8 *577:B 3.20005
24 *44:23 *44:22 1.65472
25 *44:9 *44:8 0.623999
26 *44:9 *44:23 3.20005
*END

*D_NET *45 0.00483803

*CONN
*P *45 O *C 165.66 93.8 *L 0
*I *592:A1 I *C 139.59 87.64 *L 0.00324 *D OAI21XL
*I *571:B I *C 135.63 88.2 *L 0.00302 *D NOR2BXL
*I *526:Q O *C 144.21 94.36 *L 0 *D DFFRHQX1

*CAP
1 *45 0.00109724
2 *592:A1 0.000139843
3 *571:B 0.000139843
4 *526:Q 0.000203143
5 *45:4 0.000293648
6 *45:5 0.000588632
7 *45:6 0.000276225
8 *45:7 0.000120604
9 *45:8 0.000120604
10 *45:9 0.000307473
11 *45:10 0.000307473
12 *45:11 0.000120604
13 *45:12 0.0011227

*RES
1 *45:12 *45 5.93633
2 *45:11 *45:12 3.2
3 *526:Q *45:11 6.4000001
4 *45:10 *526:Q 3.2
5 *45:9 *45:10 0.936035
6 *45:8 *592:A1 3.2
7 *45:4 *45:9 3.2
8 *45:5 *45:8 3.2
9 *45:5 *45:4 1.28701
10 *45:6 *45:5 1.10312
11 *45:7 *45:6 3.2
12 *571:B *45:7 3.2
*END

*D_NET *46 0.00717768

*CONN
*P *46 O *C 165.66 101.64 *L 0
*I *594:A1 I *C 128.37 87.64 *L 0.00324 *D OAI21XL
*I *585:B I *C 126.39 88.2 *L 0.00302 *D NOR2BXL
*I *522:Q O *C 144.21 97.16 *L 0 *D DFFRHQX1

*CAP
1 *46 0.000995294
2 *594:A1 3.98585e-05
3 *585:B 0.00013984
4 *522:Q 8.2396e-05
5 *46:4 0.000216395
6 *46:5 0.000112862
7 *46:6 0.000429612
8 *46:7 0.000429612
9 *46:8 0.000453349
10 *46:9 0.000514219
11 *46:10 0.000172004
12 *46:11 0.000286844
13 *46:12 0.00029566
14 *46:13 0.000637112
15 *46:14 0.000484594
16 *46:15 7.51844e-05
17 *46:16 0.000182361
18 *46:17 0.000117722
19 *46:18 0.000218248
20 *46:19 0.000109451
21 *46:20 0.000164325
22 *46:21 0.00102076

*RES
1 *46:21 *46 5.38478565
2 *46:20 *46:21 3.20001
3 *46:19 *46:20 0.311982
4 *46:18 *46:19 0.183886
5 *522:Q *46:17 0.447637
6 *46:13 *46:18 0.936027
7 *46:13 *46:17 3.20001
8 *46:14 *46:13 1.87197
9 *46:11 *46:14 3.20001
10 *46:12 *46:11 1.28704
11 *46:12 *46:6 0.156032
12 *46:7 *46:6 2.02242
13 *46:8 *46:7 0.156032
14 *46:9 *46:8 2.02242
15 *46:15 *594:A1 0.223818
16 *46:10 *46:9 3.20001
17 *46:16 *46:15 3.20001
18 *46:4 *585:B 3.20001
19 *46:4 *46:10 0.623963
20 *46:5 *46:16 0.36769
21 *46:5 *46:4 0.156032
*END

*D_NET *47 0.00625074

*CONN
*P *47 O *C 165.66 109.48 *L 0
*I *591:A1 I *C 123.75 113.96 *L 0.00324 *D OAI21XL
*I *582:B I *C 121.11 113.4 *L 0.00302 *D NOR2BXL
*I *536:Q O *C 143.55 114.52 *L 0 *D DFFRHQX1

*CAP
1 *47 0.00113122
2 *591:A1 7.9737e-05
3 *582:B 0.000139842
4 *536:Q 0.000139842
5 *47:4 0.000414334
6 *47:5 0.000405638
7 *47:6 0.00012366
8 *47:7 0.000109043
9 *47:8 0.000115053
10 *47:9 0.00018236
11 *47:10 0.00075727
12 *47:11 0.00116538
13 *47:12 0.000266561
14 *47:13 0.000136001
15 *47:14 0.000336233
16 *47:15 0.000748575

*RES
1 *47:11 *47 6.12021446
2 *47:11 *47:13 0.155956
3 *47:12 *47:13 3.2
4 *47:12 *47:14 1.24802
5 *47:14 *536:Q 3.2
6 *47:15 *47:14 3.2
7 *47:10 *47:15 3.86099
8 *47:4 *47:10 0.155956
9 *47:8 *591:A1 0.447698
10 *47:5 *47:4 2.02239
11 *47:9 *47:8 3.2
12 *47:9 *47:5 3.2
13 *47:7 *47:9 0.367758
14 *47:6 *47:7 0.155956
15 *582:B *47:6 3.2
*END

*D_NET *48 0.00745443

*CONN
*P *48 O *C 165.66 117.32 *L 0
*I *590:A1 I *C 124.41 103.88 *L 0.00324 *D OAI21XL
*I *570:B I *C 121.11 103.32 *L 0.00302 *D NOR2BXL
*I *525:Q O *C 144.21 107.24 *L 0 *D DFFRHQX1

*CAP
1 *48 0.000179716
2 *590:A1 0.000119591
3 *570:B 0.00013984
4 *525:Q 0.000134507
5 *48:4 0.000142098
6 *48:5 6.9618e-05
7 *48:6 6.9618e-05
8 *48:7 0.000154916
9 *48:8 0.000335254
10 *48:9 0.000313743
11 *48:10 0.00116507
12 *48:11 0.000120605
13 *48:12 0.00116507
14 *48:13 0.000267734
15 *48:14 0.000108516
16 *48:15 0.000267734
17 *48:16 0.000753033
18 *48:17 0.000751078
19 *48:18 0.00049577
20 *48:19 0.00049577
21 *48:20 0.000205156

*RES
1 *48:20 *48 0.972168
2 *48:19 *48:20 3.2
3 *48:18 *48:19 2.18398
4 *48:17 *48:18 3.2
5 *48:16 *48:17 4.25273
6 *48:15 *48:16 0.189941
7 *48:13 *48:15 1.34297
8 *48:13 *48:14 0.189941
9 *525:Q *48:14 0.447656
10 *48:11 *525:Q 6.4000001
11 *48:12 *48:11 3.2
12 *48:10 *48:12 6.06729
13 *48:7 *590:A1 0.671484
14 *48:9 *48:10 3.2
15 *48:8 *48:7 3.2
16 *48:8 *48:9 1.09199
17 *48:6 *48:8 0.183887
18 *48:5 *48:6 0.155957
19 *48:4 *48:5 0.183887
20 *570:B *48:4 3.2
*END

*D_NET *49 0.0129641

*CONN
*P *49 O *C 165.66 125.16 *L 0
*I *595:A1 I *C 89.43 103.88 *L 0.00324 *D OAI21XL
*I *583:B I *C 80.19 103.32 *L 0.00302 *D NOR2BXL
*I *535:Q O *C 91.41 107.24 *L 0 *D DFFRHQX1

*CAP
1 *49 0.00378193
2 *595:A1 0.000124385
3 *583:B 0.000139839
4 *535:Q 0.000139839
5 *49:4 0.000256904
6 *49:5 0.000256904
7 *49:6 0.000172025
8 *49:7 0.000117123
9 *49:8 0.000221233
10 *49:9 0.000221233
11 *49:10 0.000335916
12 *49:11 0.000335916
13 *49:12 0.000159708
14 *49:13 0.000385821
15 *49:14 0.000474594
16 *49:15 0.000264748
17 *49:16 0.000230877
18 *49:17 0.000679792
19 *49:18 0.000679792
20 *49:19 0.00380738
21 *49:6 *73:3 1.551e-05
22 *49:7 *73:2 1.551e-05
23 *49:8 *73:3 1.649e-05
24 *49:9 *73:2 1.649e-05
25 *49:10 *73:3 5.703e-05
26 *49:11 *73:2 5.70300003e-05

*RES
1 *49:19 *49 20.461071
2 *49:6 *49:19 3.19985
3 *49:7 *49:6 0.468005
4 *49:10 *49:7 0.183892
5 *49:11 *49:10 1.87202
6 *49:11 *49:8 0.183892
7 *49:9 *49:8 0.936009
8 *595:A1 *49:12 0.671566
9 *49:13 *49:9 0.183892
10 *49:16 *49:12 3.19985
11 *49:14 *49:13 1.71591
12 *49:14 *535:Q 3.19985
13 *49:16 *49:15 0.62411
14 *49:15 *49:14 0.311899
15 *49:17 *49:15 3.19985
16 *49:18 *49:17 3.12555
17 *49:4 *49:18 3.19985
18 *49:5 *49:4 0.779903
19 *583:B *49:5 3.19985
*END

*D_NET *50 0.00999752

*CONN
*P *50 O *C 165.66 133 *L 0
*I *593:A1 I *C 109.23 113.96 *L 0.00324 *D OAI21XL
*I *584:B I *C 106.59 113.4 *L 0.00302 *D NOR2BXL
*I *538:Q O *C 113.19 124.6 *L 0 *D DFFRHQX1

*CAP
1 *50 0.00177691
2 *593:A1 7.97299e-05
3 *584:B 0.00013985
4 *538:Q 0.000222248
5 *50:4 0.000621063
6 *50:5 0.000137705
7 *50:6 0.000418726
8 *50:7 0.000418726
9 *50:8 0.000593148
10 *50:9 0.000115071
11 *50:10 0.000182369
12 *50:11 0.000120599
13 *50:12 0.000916193
14 *50:13 0.000119691
15 *50:14 0.000916193
16 *50:15 0.00016089
17 *50:16 0.000158937
18 *50:17 0.000548538
19 *50:18 0.000548538
20 *50:19 0.00180238

*RES
1 *50:19 *50 9.61349964
2 *50:18 *50:19 3.20005
3 *50:17 *50:18 2.34
4 *50:16 *50:17 3.20005
5 *50:15 *50:16 0.671548
6 *50:14 *50:15 0.189964
7 *50:12 *50:14 4.9241
8 *50:12 *50:13 0.189964
9 *538:Q *50:13 0.447699
10 *50:11 *538:Q 3.20005
11 *50:6 *50:11 3.20005
12 *50:9 *593:A1 0.447699
13 *50:7 *50:6 1.83862
14 *50:10 *50:9 3.20005
15 *50:8 *50:7 3.20005
16 *50:4 *50:10 0.367753
17 *50:4 *50:8 2.18407
18 *50:5 *50:4 0.155932
19 *584:B *50:5 3.20005
*END

*D_NET *51 0.0126092

*CONN
*P *51 O *C 165.66 140.84 *L 0
*I *599:A1 I *C 89.43 127.96 *L 0.00324 *D OAI21XL
*I *574:B I *C 84.81 118.44 *L 0.00302 *D NOR2BXL
*I *532:Q O *C 94.05 124.6 *L 0 *D DFFRHQX1

*CAP
1 *51 0.00368
2 *599:A1 0.000279032
3 *574:B 0.000139827
4 *532:Q 0.000139827
5 *51:4 0.0010558
6 *51:5 0.00047557
7 *51:6 8.5434e-05
8 *51:7 0.000200043
9 *51:8 0.00015515
10 *51:9 0.000425983
11 *51:10 0.000202022
12 *51:11 0.000425983
13 *51:12 0.000147743
14 *51:13 0.000222321
15 *51:14 0.000203266
16 *51:15 0.00031437
17 *51:16 0.000751322
18 *51:17 0.00370544

*RES
1 *51:17 *51 19.9095001
2 *599:A1 *51:15 1.56667
3 *51:16 *51:17 3.19987
4 *51:4 *51:15 3.19987
5 *51:4 *51:16 3.58812
6 *51:5 *51:4 1.71614
7 *51:5 *532:Q 3.19987
8 *51:14 *51:5 0.468148
9 *51:13 *51:14 3.19987
10 *51:12 *51:13 0.447794
11 *51:11 *51:12 0.189872
12 *51:9 *51:11 2.01446
13 *51:9 *51:10 0.189872
14 *51:7 *51:10 0.671387
15 *51:8 *51:7 3.19987
16 *51:6 *51:8 0.468148
17 *574:B *51:6 3.19987
*END

*D_NET *52 0.0135371

*CONN
*P *52 O *C 165.66 148.68 *L 0
*I *604:A1 I *C 104.61 103.88 *L 0.00324 *D OAI21XL
*I *576:B I *C 98.67 103.32 *L 0.00302 *D NOR2BXL
*I *533:Q O *C 109.23 117.32 *L 0 *D DFFRHQX1

*CAP
1 *52 0.00228665
2 *604:A1 8.06517e-05
3 *576:B 0.000139853
4 *533:Q 0.000139853
5 *52:4 0.000118755
6 *52:5 0.000188434
7 *52:6 0.000764074
8 *52:7 0.000901175
9 *52:8 0.000188011
10 *52:9 0.000448241
11 *52:10 0.000517956
12 *52:11 0.000116003
13 *52:12 0.000245024
14 *52:13 0.000120589
15 *52:14 0.000801542
16 *52:15 0.00176425
17 *52:16 0.000639604
18 *52:17 0.00176425
19 *52:18 0.00231212

*RES
1 *52:18 *52 12.371357
2 *52:17 *52:18 3.20006
3 *52:15 *52:17 8.73599
4 *52:16 *52:15 3.20006
5 *52:13 *533:Q 3.20006
6 *52:14 *52:16 3.30936
7 *52:14 *52:13 3.20006
8 *604:A1 *52:11 0.447578
9 *52:12 *52:14 0.919319
10 *52:8 *52:11 3.20006
11 *52:6 *52:12 3.20006
12 *52:8 *52:7 0.467966
13 *52:7 *52:6 3.27595
14 *52:9 *52:7 3.20006
15 *52:10 *52:9 2.0225
16 *52:4 *52:10 3.20006
17 *52:5 *52:4 0.62408
18 *576:B *52:5 3.20006
*END

*D_NET *53 0.0101483

*CONN
*P *53 O *C 165.66 0.28 *L 0
*I *486:B1 I *C 126.39 43.4 *L 0.00307 *D AOI22XL
*I *456:Q O *C 143.55 26.6 *L 0 *D DFFRHQX1

*CAP
1 *53 0.000995291
2 *486:B1 0.000139846
3 *456:Q 0.00011454
4 *53:3 0.000205846
5 *53:4 0.000205846
6 *53:5 0.000905758
7 *53:6 0.000197318
8 *53:7 0.00080633
9 *53:8 0.000903129
10 *53:9 0.000226408
11 *53:10 0.000903129
12 *53:11 0.0014007
13 *53:12 0.00102077
14 *53:13 0.00134581
15 *53:10 *38 0.00021835
16 *53:8 *38:15 0.000218349996
17 *53:5 *56:11 0.00014438
18 *53:6 *56:9 0.00014438
19 *53:7 *56:7 2.607e-05
20 *53:5 *56:6 2.60700016e-05

*RES
1 *53:12 *53 5.38481
2 *53:11 *53:12 3.20001
3 *53:11 *53:13 6.86399984
4 *53:6 *53:13 0.183812
5 *456:Q *53:9 0.671465
6 *53:6 *53:5 1.09198
7 *53:5 *53:9 3.20001
8 *53:5 *53:7 3.58795
9 *53:10 *53:7 3.20001
10 *53:3 *486:B1 3.20001
11 *53:8 *53:10 5.33181
12 *53:4 *53:3 0.467962
13 *53:4 *53:8 3.20001
*END

*D_NET *54 0.00841799

*CONN
*P *54 O *C 165.66 8.12 *L 0
*I *485:A0N I *C 119.13 33.32 *L 0.00186 *D OAI2BB2X1
*I *464:Q O *C 129.03 26.6 *L 0 *D DFFRHQX1

*CAP
1 *54 0.00177691
2 *485:A0N 0.000224201
3 *464:Q 0.00013985
4 *54:3 0.00100305
5 *54:4 0.00109834
6 *54:5 0.000397164
7 *54:6 0.000397164
8 *54:7 0.000402775
9 *54:8 0.000259542
10 *54:9 0.000472439
11 *54:10 0.000209267
12 *54:11 0.00180238
13 *54:12 0.000234899

*RES
1 *54:11 *54 9.61349964
2 *54:10 *54:11 3.20005
3 *54:10 *54:12 0.624021
4 *54:4 *54:12 0.551556
5 *54:4 *54:3 4.99202
6 *54:3 *464:Q 3.20005
7 *54:9 *54:3 3.20005
8 *54:7 *54:9 2.02242
9 *54:6 *54:7 3.20005
10 *54:6 *54:5 1.40397
11 *54:8 *54:5 3.20005
12 *485:A0N *54:8 0.895251
*END

*D_NET *55 0.00978998

*CONN
*P *55 O *C 165.66 15.96 *L 0
*I *415:A0N I *C 106.59 33.32 *L 0.00186 *D OAI2BB2X1
*I *405:Q O *C 114.51 26.6 *L 0 *D DFFRHQX1

*CAP
1 *55 0.00266425
2 *415:A0N 0.000139831
3 *405:Q 0.000139831
4 *55:3 0.000816247
5 *55:4 0.000816247
6 *55:5 0.0026897
7 *55:6 0.00034184
8 *55:7 0.000244365
9 *55:8 0.00034184
10 *55:9 0.000314014
11 *55:9 *20:39 0.00012147
12 *55:7 *20:40 0.00012147
13 *55:8 *20:41 4.071e-05
14 *55:6 *20:42 4.071e-05
15 *55:8 *20:42 9.743e-05
16 *55:6 *20:43 9.74299941e-05
17 *55:9 *17:110 0.00038131
18 *55:7 *17:111 0.000381309995

*RES
1 *55:5 *55 14.2099285
2 *55:4 *55:5 3.19992
3 *55:4 *55:3 3.43193
4 *55:3 *405:Q 3.19992
5 *55:9 *55:3 3.19992
6 *55:8 *415:A0N 3.19992
7 *55:7 *55:9 2.20621
8 *55:6 *55:8 1.40395
9 *55:6 *55:7 3.19992
*END

*D_NET *56 0.00672191

*CONN
*P *56 O *C 165.66 23.8 *L 0
*I *433:A0N I *C 123.09 33.32 *L 0.0019 *D OAI2BB2XL
*I *427:Q O *C 143.55 33.88 *L 0 *D DFFRHQX1

*CAP
1 *56 0.00106325
2 *433:A0N 0.000139847
3 *427:Q 0.000139847
4 *56:3 0.000127437
5 *56:4 5.77627e-05
6 *56:5 0.00094472
7 *56:6 0.000263612
8 *56:7 0.000208541
9 *56:8 0.00094472
10 *56:9 0.000308716
11 *56:10 0.00108872
12 *56:11 0.000294096
13 *56:8 *17:114 2.489e-05
14 *56:5 *17:115 2.489e-05
15 *56:8 *17:115 0.00012035
16 *56:5 *17:116 0.000120350001
17 *56:8 *37:8 8.843e-05
18 *56:5 *37:9 8.843e-05
19 *56:8 *37:10 0.00016619
20 *56:5 *37:11 0.000166189993
21 *56:11 *53:5 0.00014438
22 *56:9 *53:6 0.00014438
23 *56:7 *53:7 2.607e-05
24 *56:6 *53:5 2.60700016e-05

*RES
1 *56:10 *56 5.75250006
2 *56:9 *56:10 3.19997
3 *56:9 *56:11 1.55996
4 *56:6 *56:11 0.367694
5 *56:6 *56:7 0.935957
6 *56:7 *427:Q 3.19997
7 *56:8 *56:7 3.19997
8 *56:3 *433:A0N 3.19997
9 *56:5 *56:8 5.69957
10 *56:4 *56:3 0.155978
11 *56:4 *56:5 3.19997
*END

*D_NET *57 0.0185476

*CONN
*P *57 O *C 165.66 155.96 *L 0
*I *654:AN I *C 120.45 37.8 *L 0.00218 *D NOR2BX1
*I *498:Q O *C 143.55 36.68 *L 0 *D DFFRHQX1

*CAP
1 *57 0.00119919
2 *654:AN 0.000139816
3 *498:Q 0.000139816
4 *57:3 0.00139174
5 *57:4 0.00130761
6 *57:5 0.000375675
7 *57:6 0.000375675
8 *57:7 0.000120618
9 *57:8 0.00378942
10 *57:9 0.00373455
11 *57:10 0.00220305
12 *57:11 0.00122469
13 *57:12 0.00225792
14 *57:13 0.000120618
15 *57:14 0.000167166

*RES
1 *57:11 *57 6.488
2 *57:12 *57:11 3.20011
3 *57:10 *57:12 11.7001
4 *57:10 *57:5 0.183884
5 *57:6 *57:5 1.71595
6 *57:9 *57:6 0.183884
7 *57:13 *498:Q 3.20011
8 *57:8 *57:9 19.5
9 *57:14 *57:13 3.20011
10 *57:3 *57:8 3.20011
11 *57:3 *57:14 0.367767
12 *57:4 *57:3 6.06727
13 *57:7 *57:4 3.20011
14 *654:AN *57:7 3.20011
*END

*D_NET *58 0.0156896

*CONN
*P *58 I *C 0 17.08 *L 0
*I *654:B I *C 119.13 37.8 *L 0.0041 *D NOR2BX1

*CAP
1 *58 0.00646844
2 *654:B 0.000139815
3 *58:2 7.24113e-05
4 *58:3 0.00656359
5 *58:4 0.000229553
6 *58:5 0.000284537
7 *58:6 0.000965584
8 *58:7 0.000965584

*RES
1 *58:5 *654:B 3.20011
2 *58:4 *58:5 0.936211
3 *58:4 *58:7 0.184106
4 *58:6 *58:7 4.83582
5 *58:2 *58:6 0.184106
6 *58:3 *58:2 3.20011
7 *58 *58:3 33.147213
*END

*D_NET *59 0.00322551

*CONN
*I *603:A0 I *C 47.19 33.32 *L 0.00336 *D OAI21XL
*I *374:QN O *C 65.01 36.68 *L 0 *D JKFFRXL

*CAP
1 *603:A0 7.45919e-05
2 *374:QN 6.33018e-05
3 *59:2 0.00013741
4 *59:3 0.000176672
5 *59:4 0.00018202
6 *59:5 0.00018202
7 *59:6 0.000232811
8 *59:7 0.00024151
9 *59:8 0.00031378
10 *59:9 9.79285e-05
11 *59:10 0.00031378
12 *59:11 0.000166339
13 *59:12 8.92287e-05
14 *59:13 9.66597e-05
15 *59:10 *37:12 8.95e-05
16 *59:8 *37:13 8.95e-05
17 *59:12 *37:12 2.259e-05
18 *59:9 *37:13 2.259e-05
19 *59:13 *37:6 6.082e-05
20 *59:11 *37:7 6.082e-05
21 *59:5 *37:4 1.3e-05
22 *59:4 *37:5 1.30000066e-05
23 *59:10 *17:119 8.95e-05
24 *59:8 *17:120 8.95e-05
25 *59:12 *17:119 3.79e-05
26 *59:9 *17:120 3.79e-05
27 *59:7 *17:119 3.678e-05
28 *59:6 *17:120 3.678e-05
29 *59:7 *17:120 3.678e-05
30 *59:6 *17:117 3.678e-05
31 *59:7 *17:117 2.489e-05
32 *59:6 *17:118 2.489e-05
33 *59:5 *17:91 1.697e-05
34 *59:4 *17:92 1.69700096e-05

*RES
1 *59:13 *374:QN 6.4000001
2 *59:11 *59:13 0.467969
3 *59:12 *59:11 3.2
4 *59:9 *59:12 0.551562
5 *59:9 *59:10 0.155957
6 *59:8 *59:10 2.20625
7 *59:7 *59:8 0.155957
8 *59:6 *59:7 1.4709
9 *59:5 *59:6 3.2
10 *59:4 *59:5 0.77998
11 *59:2 *59:4 3.2
12 *59:3 *603:A0 0.379785
13 *59:3 *59:2 0.895312
*END

*D_NET *60 0.00169582

*CONN
*I *646:A1N I *C 79.53 37.24 *L 0.0024 *D AOI2BB1X1
*I *600:A0 I *C 75.57 37.24 *L 0.00336 *D OAI21XL
*I *375:QN O *C 78.87 43.96 *L 0 *D JKFFRXL

*CAP
1 *646:A1N 0.000119585
2 *600:A0 6.32965e-05
3 *375:QN 6.32965e-05
4 *60:3 0.000152944
5 *60:4 0.000154922
6 *60:5 0.00057621
7 *60:6 0.00045957
8 *60:7 0.000105984

*RES
1 *60:7 *375:QN 6.4000001
2 *60:4 *646:A1N 0.671484
3 *60:6 *60:7 0.367676
4 *60:5 *60:4 3.2
5 *60:5 *60:6 1.87197
6 *60:3 *60:5 0.551562
7 *600:A0 *60:3 6.4000001
*END

*D_NET *61 0.00380678

*CONN
*I *598:A0 I *C 43.89 47.32 *L 0.00336 *D OAI21XL
*I *391:QN O *C 63.03 46.76 *L 0 *D JKFFRXL

*CAP
1 *598:A0 6.33009e-05
2 *391:QN 6.33009e-05
3 *61:2 0.000281247
4 *61:3 0.00061963
5 *61:4 0.000211573
6 *61:5 0.000232469
7 *61:6 0.00061963
8 *61:7 0.000162786
9 *61:6 *346:2 0.00020878
10 *61:3 *346:3 0.000208780005
11 *61:6 *39:10 3.79e-05
12 *61:3 *39:11 3.79e-05
13 *61:6 *39:11 8.806e-05
14 *61:3 *39:12 8.806e-05
15 *61:4 *39:4 9.875e-05
16 *61:2 *39:5 9.87499986e-05
17 *61:6 *20:64 2.527e-05
18 *61:3 *20:65 2.527e-05
19 *61:6 *20:65 8.843e-05
20 *61:3 *20:66 8.843e-05
21 *61:6 *20:66 2.527e-05
22 *61:3 *20:67 2.527e-05
23 *61:6 *20:68 3.79e-05
24 *61:3 *20:69 3.79e-05
25 *61:6 *20:69 2.527e-05
26 *61:3 *20:70 2.527e-05
27 *61:6 *20:71 5.142e-05
28 *61:3 *20:72 5.142e-05
29 *61:6 *20:73 4.518e-05
30 *61:3 *20:74 4.518e-05
31 *61:7 *20:75 4.419e-05
32 *61:5 *20:76 4.41899947e-05

*RES
1 *61:7 *391:QN 6.4000001
2 *61:5 *61:7 0.936035
3 *61:6 *61:5 3.2
4 *61:4 *598:A0 6.4000001
5 *61:3 *61:6 5.33184
6 *61:2 *61:4 1.09199
7 *61:2 *61:3 3.2
*END

*D_NET *62 0.0055181

*CONN
*I *644:A1N I *C 84.81 42.84 *L 0.00223 *D AOI2BB1XL
*I *601:A0 I *C 60.39 57.4 *L 0.00336 *D OAI21XL
*I *392:QN O *C 80.19 54.04 *L 0 *D JKFFRXL

*CAP
1 *644:A1N 0.000176519
2 *601:A0 6.32888e-05
3 *392:QN 6.32888e-05
4 *62:3 0.000211848
5 *62:4 0.00106159
6 *62:5 0.00106159
7 *62:6 0.000191907
8 *62:7 0.000261579
9 *62:8 0.000115206
10 *62:9 0.000274781
11 *62:10 0.000219915
12 *62:11 0.000134337
13 *62:12 0.0001206
14 *62:13 0.000189218
15 *62:14 0.000412357
16 *62:15 0.000412357
17 *62:16 0.0001206
18 *62:17 0.000184877
19 *62:4 *310:7 0.00012112
20 *62:5 *310:5 0.00012112

*RES
1 *62:3 *644:A1N 0.895312
2 *62:16 *62:3 3.2
3 *62:17 *62:16 3.2
4 *62:8 *62:17 0.367676
5 *62:9 *62:8 3.2
6 *62:9 *62:10 0.936035
7 *62:10 *62:14 0.183887
8 *62:14 *62:15 1.87197
9 *62:11 *62:15 0.183887
10 *62:11 *62:13 0.467969
11 *62:12 *392:QN 6.4000001
12 *62:4 *62:13 3.2
13 *62:4 *62:12 3.2
14 *62:6 *601:A0 6.4000001
15 *62:5 *62:4 5.69961
16 *62:7 *62:6 0.77998
17 *62:7 *62:5 3.2
*END

*D_NET *63 0.00197567

*CONN
*I *579:A0 I *C 47.85 67.48 *L 0.00336 *D OAI21XL
*I *382:QN O *C 51.15 74.2 *L 0 *D JKFFRXL

*CAP
1 *579:A0 7.45882e-05
2 *382:QN 6.3299e-05
3 *63:2 0.00038553
4 *63:3 0.000315848
5 *63:4 0.000119421
6 *63:5 0.00015653
7 *63:6 0.00029157
8 *63:7 0.000156712
9 *63:8 0.000120598
10 *63:9 0.00029157

*RES
1 *63:8 *382:QN 6.4000001
2 *63:9 *63:8 3.2
3 *63:6 *63:9 1.28701
4 *63:2 *63:6 3.2
5 *63:3 *63:2 1.404
6 *579:A0 *63:7 0.379785
7 *63:5 *63:3 3.2
8 *63:4 *63:7 0.447656
9 *63:4 *63:5 0.189941
*END

*D_NET *64 0.00213152

*CONN
*I *602:A0 I *C 59.73 73.64 *L 0.00336 *D OAI21XL
*I *379:QN O *C 65.67 66.92 *L 0 *D JKFFRXL

*CAP
1 *602:A0 0.000139841
2 *379:QN 6.33002e-05
3 *64:2 0.000470403
4 *64:3 0.00048502
5 *64:4 0.000369839
6 *64:5 0.00030016
7 *64:6 0.000182359
8 *64:7 0.000120606

*RES
1 *64:7 *379:QN 6.4000001
2 *64:4 *64:7 3.2
3 *64:5 *64:4 1.4709
4 *64:3 *64:5 3.2
5 *64:3 *64:2 2.02803
6 *64:6 *64:2 0.367676
7 *602:A0 *64:6 3.2
*END

*D_NET *65 0.00140705

*CONN
*I *589:A0 I *C 66.33 73.64 *L 0.00336 *D OAI21XL
*I *389:QN O *C 65.01 64.12 *L 0 *D JKFFRXL

*CAP
1 *589:A0 0.000139839
2 *389:QN 6.32994e-05
3 *65:2 0.000256409
4 *65:3 0.000271209
5 *65:4 0.00034555
6 *65:5 0.000330749

*RES
1 *65:5 *589:A0 3.2
2 *65:4 *65:5 1.404
3 *65:3 *65:4 0.183887
4 *65:2 *65:3 1.09199
5 *389:QN *65:2 6.4000001
*END

*D_NET *66 0.00266293

*CONN
*I *596:A0 I *C 77.55 93.8 *L 0.00336 *D OAI21XL
*I *390:QN O *C 78.21 77 *L 0 *D JKFFRXL

*CAP
1 *596:A0 7.45866e-05
2 *390:QN 6.32972e-05
3 *66:2 0.00055628
4 *66:3 0.000541663
5 *66:4 0.000259759
6 *66:5 0.000222478
7 *66:6 0.000444905
8 *66:7 0.00049996

*RES
1 *66:6 *390:QN 6.4000001
2 *66:6 *66:7 2.34004
3 *66:7 *66:3 0.367676
4 *66:3 *66:2 2.02803
5 *66:4 *66:2 3.2
6 *66:5 *596:A0 0.379785
7 *66:5 *66:4 0.671484
*END

*D_NET *67 0.000819082

*CONN
*I *592:A0 I *C 140.25 87.64 *L 0.00336 *D OAI21XL
*I *380:QN O *C 141.57 84.28 *L 0 *D JKFFRXL

*CAP
1 *592:A0 0.00013984
2 *380:QN 6.33002e-05
3 *67:2 0.00024767
4 *67:3 0.00026229
5 *67:4 0.000105981

*RES
1 *67:3 *592:A0 3.2
2 *67:4 *380:QN 6.4000001
3 *67:2 *67:3 0.936035
4 *67:2 *67:4 0.367676
*END

*D_NET *68 0.00134448

*CONN
*I *594:A0 I *C 129.03 87.64 *L 0.00336 *D OAI21XL
*I *381:QN O *C 127.05 94.36 *L 0 *D JKFFRXL

*CAP
1 *594:A0 0.000139842
2 *381:QN 6.32981e-05
3 *68:2 0.000348211094
4 *68:3 0.000293149
5 *68:4 0.00022246
6 *68:5 0.000277522

*RES
1 *68:4 *594:A0 3.2
2 *68:4 *68:5 0.936035
3 *68:3 *381:QN 6.4000001
4 *68:2 *68:5 0.367676
5 *68:2 *68:3 1.09199
*END

*D_NET *69 0.00122378

*CONN
*I *591:A0 I *C 124.41 113.96 *L 0.00336 *D OAI21XL
*I *386:QN O *C 127.05 107.24 *L 0 *D JKFFRXL

*CAP
1 *591:A0 6.33008e-05
2 *386:QN 6.33008e-05
3 *69:2 0.000186502
4 *69:3 0.000387548
5 *69:4 0.00052313

*RES
1 *69:3 *386:QN 6.4000001
2 *69:3 *69:4 1.87197
3 *69:2 *69:4 0.735449
4 *591:A0 *69:2 6.4000001
*END

*D_NET *70 0.00112007

*CONN
*I *590:A0 I *C 125.07 103.88 *L 0.00336 *D OAI21XL
*I *385:QN O *C 127.05 97.16 *L 0 *D JKFFRXL

*CAP
1 *590:A0 6.32965e-05
2 *385:QN 6.32965e-05
3 *70:2 0.000105981
4 *70:3 0.000390763
5 *70:4 0.00043102
6 *70:5 6.57168e-05

*RES
1 *70:5 *385:QN 6.4000001
2 *70:3 *70:5 0.183887
3 *70:3 *70:4 1.87197
4 *70:2 *70:4 0.367676
5 *590:A0 *70:2 6.4000001
*END

*D_NET *71 0.00114071

*CONN
*I *595:A0 I *C 88.77 103.88 *L 0.00336 *D OAI21XL
*I *373:QN O *C 90.75 97.16 *L 0 *D JKFFRXL

*CAP
1 *595:A0 7.45897e-05
2 *373:QN 6.32966e-05
3 *71:2 0.000179051
4 *71:3 0.000307145
5 *71:4 0.00013979
6 *71:5 0.00037683

*RES
1 *71:3 *373:QN 6.4000001
2 *71:3 *71:5 1.55996
3 *71:4 *71:5 3.2
4 *71:2 *595:A0 0.379785
5 *71:2 *71:4 0.671484
*END

*D_NET *72 0.0039141

*CONN
*I *645:A1N I *C 103.29 93.24 *L 0.00223 *D AOI2BB1XL
*I *593:A0 I *C 109.89 113.96 *L 0.00336 *D OAI21XL
*I *376:QN O *C 109.23 107.24 *L 0 *D JKFFRXL

*CAP
1 *645:A1N 0.000139838
2 *593:A0 0.000139838
3 *376:QN 6.32959e-05
4 *72:3 0.000346462
5 *72:4 0.000346462
6 *72:5 0.000243071
7 *72:6 0.000312764
8 *72:7 0.000362232
9 *72:8 0.000347615
10 *72:9 0.000384704
11 *72:10 0.00064592
12 *72:11 0.000344471
13 *72:12 0.000126109
14 *72:13 0.000111305

*RES
1 *72:13 *593:A0 3.2
2 *72:12 *72:13 0.312012
3 *72:11 *72:12 0.183887
4 *72:10 *72:11 1.55996
5 *72:10 *376:QN 6.4000001
6 *72:9 *72:10 1.55996
7 *72:8 *72:9 0.367676
8 *72:7 *72:8 1.404
9 *72:3 *72:7 3.2
10 *72:4 *72:3 1.28701
11 *72:6 *72:4 3.2
12 *72:5 *72:6 0.936035
13 *645:A1N *72:5 3.2
*END

*D_NET *73 0.00203422

*CONN
*I *599:A0 I *C 88.77 127.96 *L 0.00336 *D OAI21XL
*I *387:QN O *C 91.41 114.52 *L 0 *D JKFFRXL

*CAP
1 *599:A0 6.3306e-05
2 *387:QN 6.3306e-05
3 *73:2 0.00083932
4 *73:3 0.00070373
5 *73:4 0.000186498
6 *73:3 *49:6 1.551e-05
7 *73:2 *49:7 1.551e-05
8 *73:3 *49:8 1.649e-05
9 *73:2 *49:9 1.649e-05
10 *73:3 *49:10 5.703e-05
11 *73:2 *49:11 5.70300003e-05

*RES
1 *73:3 *599:A0 6.4000001
2 *73:4 *387:QN 6.4000001
3 *73:2 *73:3 3.74404
4 *73:2 *73:4 0.735449
*END

*D_NET *74 0.00395228

*CONN
*I *643:A1N I *C 99.99 93.24 *L 0.00223 *D AOI2BB1XL
*I *604:A0 I *C 103.95 103.88 *L 0.00336 *D OAI21XL
*I *388:QN O *C 109.23 97.16 *L 0 *D JKFFRXL

*CAP
1 *643:A1N 0.000139842
2 *604:A0 6.33019e-05
3 *388:QN 6.33019e-05
4 *74:3 0.00054052
5 *74:4 0.000470834
6 *74:5 0.000218699
7 *74:6 0.000149021
8 *74:7 0.000181443
9 *74:8 0.000190252
10 *74:9 8.9365e-05
11 *74:10 0.000279411
12 *74:11 0.000212249
13 *74:12 6.57185e-05
14 *74:13 0.000296566
15 *74:14 0.000241685
16 *74:7 *117:7 6.242e-05
17 *74:8 *117:4 6.242e-05
18 *74:9 *117:7 6.338e-05
19 *74:10 *117:4 6.338e-05
20 *74:10 *117:7 0.00021951
21 *74:11 *117:4 0.00021951
22 *74:5 *117:6 4.41e-06
23 *74:6 *117:5 4.41e-06
24 *74:3 *117:2 2.531e-05
25 *74:4 *117:3 2.53100139e-05

*RES
1 *74:6 *388:QN 6.4000001
2 *74:6 *74:5 0.936035
3 *74:12 *604:A0 6.4000001
4 *74:7 *74:5 3.2
5 *74:12 *74:14 0.183887
6 *74:8 *74:7 0.919238
7 *74:13 *74:14 1.09199
8 *74:9 *74:8 0.155957
9 *74:10 *74:13 3.2
10 *74:10 *74:9 0.367676
11 *74:11 *74:10 1.28701
12 *74:3 *74:11 3.2
13 *74:4 *74:3 1.87197
14 *643:A1N *74:4 3.2
*END

*D_NET *75 0.00334532

*CONN
*I *617:A1 I *C 92.07 78.12 *L 0.00344 *D AOI22XL
*I *588:B1 I *C 98.01 83.16 *L 0.00419 *D OAI22X1
*I *557:B1 I *C 94.05 78.12 *L 0.00419 *D OAI22X1
*I *395:A I *C 89.43 77.56 *L 0.00377 *D MXI2X1
*I *377:QN O *C 93.39 82.04 *L 0 *D DFFRX1

*CAP
1 *617:A1 6.33016e-05
2 *588:B1 0.000174272
3 *557:B1 3.98392e-05
4 *395:A 0.000139841
5 *377:QN 6.33016e-05
6 *75:5 0.000113961
7 *75:6 9.91627e-05
8 *75:7 0.000243771
9 *75:8 0.000295580273
10 *75:9 0.000149872
11 *75:10 0.000152519
12 *75:11 0.000152519
13 *75:12 0.000254663
14 *75:13 0.00018498
15 *75:14 0.000151707
16 *75:15 0.000182359
17 *75:16 0.00011268
18 *75:17 0.000171381
19 *75:18 0.000171381
20 *75:19 0.00028614
21 *75:20 0.0001421

*RES
1 *75:19 *588:B1 0.895312
2 *75:20 *75:19 3.2
3 *75:5 *75:20 0.183887
4 *75:6 *75:5 0.312012
5 *75:18 *75:6 3.2
6 *75:14 *557:B1 0.223828
7 *75:17 *75:18 0.367676
8 *75:15 *75:14 3.2
9 *75:16 *75:17 3.2
10 *75:16 *377:QN 6.4000001
11 *75:9 *617:A1 6.4000001
12 *75:9 *75:15 0.367676
13 *75:7 *75:16 0.367676
14 *75:9 *75:8 0.312012
15 *75:8 *75:7 0.77998
16 *75:13 *75:8 3.2
17 *75:12 *75:13 0.735449
18 *75:11 *75:12 3.2
19 *75:10 *75:11 0.467969
20 *395:A *75:10 3.2
*END

*D_NET *76 0.0101847

*CONN
*I *645:A0N I *C 102.63 92.68 *L 0.00247 *D AOI2BB1XL
*I *643:A0N I *C 99.33 92.68 *L 0.00247 *D AOI2BB1XL
*I *631:A0 I *C 92.73 93.8 *L 0.00465 *D AOI22X1
*I *630:A0 I *C 96.69 93.8 *L 0.00465 *D AOI22X1
*I *617:A0 I *C 91.41 77.56 *L 0.0034 *D AOI22XL
*I *450:B0 I *C 101.31 73.08 *L 0.00343 *D OAI2BB1X1
*I *449:A1 I *C 103.29 63 *L 0.00456 *D OAI22X1
*I *429:A I *C 90.09 73.64 *L 0.0026 *D MXI2XL
*I *425:QN O *C 93.39 89.32 *L 0 *D DFFRX1

*CAP
1 *645:A0N 6.32997e-05
2 *643:A0N 0.000139837
3 *631:A0 6.32997e-05
4 *630:A0 6.32997e-05
5 *617:A0 6.32997e-05
6 *450:B0 0.000139837
7 *449:A1 6.32997e-05
8 *429:A 0.000139837
9 *425:QN 6.32997e-05
10 *76:9 0.000387377
11 *76:10 0.000332489
12 *76:11 8.45072e-05
13 *76:12 0.000139548
14 *76:13 0.00014643
15 *76:14 0.000198175
16 *76:15 8.80418e-05
17 *76:16 0.000178973
18 *76:17 0.00027478
19 *76:18 0.000274202
20 *76:19 0.000523442
21 *76:20 0.00042811
22 *76:21 0.00070306
23 *76:22 0.000186568
24 *76:23 0.000529899
25 *76:24 0.00025986
26 *76:25 0.000447448
27 *76:26 0.000630873
28 *76:27 0.000411117
29 *76:28 0.000154774
30 *76:29 8.5085e-05
31 *76:30 0.000153483
32 *76:31 0.000153483
33 *76:32 0.00111365
34 *76:33 0.00111365
35 *76:34 6.57127e-05
36 *76:35 0.000120601
37 *76:19 *292:5 8.357e-05
38 *76:20 *292:4 8.357e-05
39 *76:17 *292:5 1.649e-05
40 *76:18 *292:4 1.64900056e-05

*RES
1 *76:29 *645:A0N 6.4000001
2 *76:31 *643:A0N 3.2
3 *76:29 *76:28 0.312012
4 *76:20 *449:A1 6.4000001
5 *76:31 *76:30 0.312012
6 *76:24 *76:28 3.2
7 *76:34 *425:QN 6.4000001
8 *76:20 *76:19 1.87197
9 *76:35 *630:A0 6.4000001
10 *76:25 *76:30 3.2
11 *76:25 *76:24 0.919238
12 *76:10 *76:34 0.183887
13 *76:18 *76:19 0.551562
14 *76:26 *76:35 3.2
15 *76:26 *76:25 0.735449
16 *76:9 *631:A0 6.4000001
17 *76:10 *76:9 1.24805
18 *76:17 *450:B0 3.2
19 *76:18 *76:17 0.936035
20 *76:27 *76:26 1.10312
21 *76:27 *76:9 3.2
22 *76:17 *76:16 0.467969
23 *76:33 *76:27 3.2
24 *76:11 *617:A0 6.4000001
25 *76:23 *76:16 3.2
26 *76:32 *76:33 5.304
27 *76:12 *76:11 0.312012
28 *76:21 *76:23 2.39014
29 *76:21 *76:32 3.2
30 *76:13 *76:12 0.367676
31 *76:22 *76:21 0.735449
32 *76:14 *76:13 0.467969
33 *76:14 *76:22 3.2
34 *76:15 *76:14 0.312012
35 *429:A *76:15 3.2
*END

*D_NET *77 0.00474654

*CONN
*I *638:A1 I *C 98.01 37.8 *L 0.00472 *D AOI22X1
*I *587:B1 I *C 91.41 37.8 *L 0.00419 *D OAI22X1
*I *586:B I *C 88.11 37.8 *L 0.00385 *D NOR2X1
*I *396:A I *C 103.95 33.32 *L 0.00377 *D MXI2X1
*I *378:QN O *C 98.01 28.84 *L 0 *D DFFRX1

*CAP
1 *638:A1 6.3303e-05
2 *587:B1 7.45866e-05
3 *586:B 7.45866e-05
4 *396:A 0.000139847
5 *378:QN 6.3303e-05
6 *77:5 0.000232051
7 *77:6 0.00073726
8 *77:7 0.000486444
9 *77:8 0.000317044
10 *77:9 0.000343863
11 *77:10 0.000288098
12 *77:11 0.000302824
13 *77:12 0.000120599
14 *77:13 0.00020657
15 *77:14 0.000326921
16 *77:15 0.00023339
17 *77:16 0.000105974
18 *77:17 0.000160862
19 *77:18 0.000326921
20 *77:19 0.000142097

*RES
1 *77:19 *396:A 3.2
2 *77:16 *77:19 0.183887
3 *77:16 *77:17 0.467969
4 *77:18 *77:17 3.2
5 *77:14 *77:18 1.4709
6 *77:7 *378:QN 6.4000001
7 *77:6 *77:14 3.2
8 *77:7 *77:6 1.71602
9 *77:5 *638:A1 6.4000001
10 *77:6 *77:5 0.77998
11 *77:15 *77:5 3.2
12 *77:13 *77:15 0.919238
13 *77:13 *77:8 0.312012
14 *77:9 *77:8 0.919238
15 *77:12 *77:9 3.2
16 *587:B1 *77:11 0.379785
17 *77:11 *77:12 3.2
18 *77:10 *77:11 1.11914
19 *586:B *77:10 0.379785
*END

*D_NET *78 0.0172102

*CONN
*I *646:A0N I *C 78.87 37.8 *L 0.00236 *D AOI2BB1X1
*I *644:A0N I *C 84.15 42.28 *L 0.00247 *D AOI2BB1XL
*I *638:A0 I *C 97.35 37.24 *L 0.00465 *D AOI22X1
*I *637:A0 I *C 84.81 37.24 *L 0.00465 *D AOI22X1
*I *636:A0 I *C 81.51 47.32 *L 0.00465 *D AOI22X1
*I *449:B1 I *C 100.65 63 *L 0.00419 *D OAI22X1
*I *444:B1 I *C 105.27 63.56 *L 0.00434 *D AOI22X1
*I *440:A1 I *C 103.29 57.96 *L 0.00472 *D AOI211X1
*I *428:A I *C 111.21 43.4 *L 0.0026 *D MXI2XL
*I *426:QN O *C 115.17 38.92 *L 0 *D DFFRX1

*CAP
1 *646:A0N 0.000139832
2 *644:A0N 0.000139832
3 *638:A0 6.33064e-05
4 *637:A0 6.33064e-05
5 *636:A0 6.33064e-05
6 *449:B1 7.45815e-05
7 *444:B1 3.98602e-05
8 *440:A1 0.000139832
9 *428:A 0.000139832
10 *426:QN 6.33064e-05
11 *78:10 0.000330884
12 *78:11 0.000261204
13 *78:12 0.00021607
14 *78:13 0.00061288
15 *78:14 0.000486589
16 *78:15 0.000278295
17 *78:16 0.000233836
18 *78:17 0.000152189
19 *78:18 0.000152189
20 *78:19 6.9916e-05
21 *78:20 0.000724685
22 *78:21 0.000578261
23 *78:22 0.000454961
24 *78:23 0.000327232
25 *78:24 0.000647754
26 *78:25 0.00110782
27 *78:26 0.000441302
28 *78:27 0.000448909
29 *78:28 0.000518589
30 *78:29 0.000656189
31 *78:30 0.000656189
32 *78:31 9.01335e-05
33 *78:32 0.000133003
34 *78:33 0.000211388
35 *78:34 0.000125987
36 *78:35 0.000446374
37 *78:36 0.000446374
38 *78:37 0.000225604
39 *78:38 0.000175821
40 *78:39 0.000799757
41 *78:40 0.000869436
42 *78:41 6.98315e-05
43 *78:42 0.000120612
44 *78:43 0.000130805
45 *78:44 0.00011789
46 *78:45 0.000147118
47 *78:46 8.05995e-05
48 *78:47 0.000145157
49 *78:48 0.000142097
50 *78:49 0.000120612
51 *78:50 0.000151733
52 *78:51 0.000142097
53 *78:52 0.000226754
54 *78:24 *37:8 0.00010032
55 *78:25 *37:9 0.00010032
56 *78:24 *37:28 0.00020701
57 *78:25 *37:26 0.00020701
58 *78:24 *37:27 2.377e-05
59 *78:25 *37:25 2.377e-05
60 *78:25 *37:24 0.00029737
61 *78:26 *37:23 0.000297370004
62 *78:24 *348:6 5.895e-05
63 *78:25 *348:4 5.895e-05
64 *78:25 *348:6 0.00011604
65 *78:26 *348:4 0.000116039998
66 *78:12 *119:7 0.00010052
67 *78:13 *119:6 0.000100519997

*RES
1 *78:44 *449:B1 0.379785
2 *78:50 *444:B1 0.223828
3 *78:44 *78:46 0.223828
4 *78:51 *78:50 3.2
5 *78:45 *78:46 0.189941
6 *78:17 *78:51 0.183887
7 *78:45 *78:47 0.447656
8 *78:18 *78:17 0.467969
9 *78:48 *78:47 3.2
10 *78:19 *78:18 0.183887
11 *78:48 *78:15 0.183887
12 *78:15 *78:19 0.155957
13 *78:16 *440:A1 3.2
14 *78:16 *78:15 0.936035
15 *78:49 *78:16 3.2
16 *78:39 *78:49 3.2
17 *78:40 *78:39 3.58799
18 *78:36 *78:40 3.2
19 *78:36 *78:35 2.20625
20 *78:37 *78:35 3.2
21 *78:22 *428:A 3.2
22 *78:22 *78:37 0.467969
23 *78:23 *78:22 1.24805
24 *78:52 *426:QN 6.4000001
25 *78:23 *78:20 0.183887
26 *78:20 *78:52 0.919238
27 *78:29 *638:A0 6.4000001
28 *78:21 *78:20 2.34004
29 *78:30 *78:29 1.87197
30 *78:24 *78:21 3.2
31 *78:25 *78:30 3.2
32 *78:25 *78:24 4.04482
33 *78:26 *78:25 3.49326
34 *78:14 *78:26 3.2
35 *78:13 *637:A0 6.4000001
36 *78:14 *78:13 1.87197
37 *78:13 *78:12 0.936035
38 *78:42 *644:A0N 3.2
39 *78:31 *78:12 6.4000001
40 *78:43 *78:42 3.2
41 *78:27 *636:A0 6.4000001
42 *78:32 *78:31 0.367676
43 *78:41 *78:43 0.183887
44 *78:28 *78:27 1.55996
45 *78:32 *78:38 0.312012
46 *78:38 *78:41 0.155957
47 *78:33 *78:28 3.2
48 *78:33 *78:38 0.551562
49 *78:34 *78:33 0.735449
50 *78:10 *78:34 3.2
51 *78:11 *78:10 1.09199
52 *646:A0N *78:11 3.2
*END

*D_NET *79 0.0111969

*CONN
*I *664:A I *C 84.15 73.64 *L 0.00346 *D INVX1
*I *639:B0 I *C 87.45 68.04 *L 0.00433 *D AOI22X1
*I *635:B0 I *C 80.85 73.08 *L 0.00433 *D AOI22X1
*I *634:B1 I *C 74.91 67.48 *L 0.00307 *D AOI22XL
*I *633:B0 I *C 76.89 73.08 *L 0.00433 *D AOI22X1
*I *463:C I *C 92.07 53.48 *L 0.00437 *D NAND3X1
*I *394:A0N I *C 86.79 53.48 *L 0.00186 *D OAI2BB2X1
*I *383:Q O *C 95.37 33.88 *L 0 *D DFFRHQX1

*CAP
1 *664:A 0.00013984
2 *639:B0 0.00013984
3 *635:B0 0.00013984
4 *634:B1 6.33062e-05
5 *633:B0 0.00013984
6 *463:C 6.33062e-05
7 *394:A0N 6.33062e-05
8 *383:Q 8.32053e-05
9 *79:8 0.000271965
10 *79:9 0.000202285
11 *79:10 0.000256072
12 *79:11 0.000256072
13 *79:12 0.000238292
14 *79:13 0.000175317
15 *79:14 0.000572189
16 *79:15 0.000430164
17 *79:16 0.000378678
18 *79:17 0.000343665
19 *79:18 8.21954e-05
20 *79:19 0.00012951
21 *79:20 0.000195895
22 *79:21 0.000328136
23 *79:22 0.000113219
24 *79:23 0.000113219
25 *79:24 0.000150435
26 *79:25 0.000172354
27 *79:26 0.000372619
28 *79:27 0.000372619
29 *79:28 0.000222615
30 *79:29 0.000124791
31 *79:30 5.51281e-05
32 *79:31 0.000840827
33 *79:32 0.000840827
34 *79:33 9.79392e-05
35 *79:34 9.79392e-05
36 *79:35 0.000136281
37 *79:36 0.00019116
38 *79:37 0.000120603
39 *79:38 0.000142091
40 *79:39 0.00108493
41 *79:40 5.09231e-05
42 *79:41 0.00108493
43 *79:42 0.000118534

*RES
1 *383:Q *79:42 0.447656
2 *79:13 *79:42 6.4000001
3 *79:13 *79:12 0.467969
4 *79:10 *79:12 3.2
5 *79:11 *79:10 1.28701
6 *79:39 *79:11 3.2
7 *79:40 *463:C 6.4000001
8 *79:39 *79:41 4.99199
9 *79:37 *394:A0N 6.4000001
10 *79:26 *79:40 6.4000001
11 *79:26 *79:41 3.2
12 *79:27 *79:37 3.2
13 *79:27 *79:26 1.4709
14 *79:38 *79:27 3.2
15 *79:33 *79:38 0.183887
16 *79:33 *79:34 0.312012
17 *79:31 *79:34 0.183887
18 *79:9 *639:B0 3.2
19 *79:31 *79:32 3.9
20 *79:9 *79:8 0.624023
21 *79:32 *79:35 0.183887
22 *79:18 *79:8 3.2
23 *79:35 *79:36 0.467969
24 *79:19 *79:18 0.367676
25 *79:19 *79:36 3.2
26 *79:22 *664:A 3.2
27 *79:25 *79:19 0.183887
28 *79:30 *635:B0 3.2
29 *79:23 *79:22 0.312012
30 *79:25 *79:20 0.624023
31 *79:29 *79:30 0.155957
32 *79:21 *79:23 3.2
33 *79:21 *79:20 0.367676
34 *79:28 *633:B0 3.2
35 *79:14 *79:29 3.2
36 *79:14 *79:21 0.919238
37 *79:24 *79:28 0.551562
38 *79:15 *79:14 1.65469
39 *79:16 *79:24 0.155957
40 *79:16 *79:15 3.2
41 *79:17 *79:16 1.404
42 *634:B1 *79:17 6.4000001
*END

*D_NET *80 0.00801571

*CONN
*I *639:A1 I *C 88.77 68.04 *L 0.00472 *D AOI22X1
*I *608:A1 I *C 76.23 63.56 *L 0.00324 *D OAI21XL
*I *556:B1 I *C 82.17 68.04 *L 0.00419 *D OAI22X1
*I *553:A1 I *C 78.87 67.48 *L 0.00324 *D OAI21XL
*I *472:C I *C 97.35 63 *L 0.00425 *D NOR3X1
*I *446:A1 I *C 99.33 68.04 *L 0.00472 *D AOI211X1
*I *431:B I *C 86.79 57.4 *L 0.002 *D MXI2XL
*I *423:QN O *C 80.85 59.08 *L 0 *D DFFRX1

*CAP
1 *639:A1 6.32943e-05
2 *608:A1 0.000139848
3 *556:B1 0.000139848
4 *553:A1 0.000139848
5 *472:C 0.000139848
6 *446:A1 0.000139848
7 *431:B 0.000139848
8 *423:QN 6.32943e-05
9 *80:8 0.000236594
10 *80:9 0.000306265
11 *80:10 0.000393516
12 *80:11 0.000323845
13 *80:12 0.000211033
14 *80:13 0.000379494
15 *80:14 0.000224952
16 *80:15 0.000216582
17 *80:16 0.000189986
18 *80:17 0.000453926
19 *80:18 0.000225314
20 *80:19 0.000577876
21 *80:20 0.00084774
22 *80:21 0.000206156
23 *80:22 0.000120599
24 *80:23 0.000120599
25 *80:24 0.000577966
26 *80:25 0.000577966
27 *80:26 0.000120599
28 *80:27 6.68775e-05
29 *80:28 6.68775e-05
30 *80:29 0.000120599
31 *80:30 0.000120599
32 *80:31 0.000127404
33 *80:12 *310:7 3.765e-05
34 *80:13 *310:5 3.765e-05
35 *80:13 *310:7 5.271e-05
36 *80:14 *310:5 5.271e-05
37 *80:15 *310:7 2.799e-05
38 *80:16 *310:5 2.79900053e-05

*RES
1 *80:11 *472:C 3.2
2 *80:30 *446:A1 3.2
3 *80:11 *80:10 1.404
4 *80:31 *80:30 3.2
5 *80:29 *639:A1 6.4000001
6 *80:19 *80:10 3.2
7 *80:19 *80:31 0.551562
8 *80:22 *553:A1 3.2
9 *80:26 *556:B1 3.2
10 *80:20 *80:29 3.2
11 *80:20 *80:19 2.39014
12 *80:27 *431:B 3.2
13 *80:21 *80:22 3.2
14 *80:17 *80:26 3.2
15 *80:17 *80:20 1.83857
16 *80:27 *80:28 0.155957
17 *80:21 *80:18 0.551562
18 *80:18 *80:17 0.367676
19 *80:15 *80:28 3.2
20 *80:25 *80:18 3.2
21 *80:16 *80:15 0.735449
22 *80:24 *80:25 2.496
23 *80:16 *80:12 0.312012
24 *80:23 *423:QN 6.4000001
25 *80:13 *80:24 3.2
26 *80:13 *80:12 0.919238
27 *80:13 *80:23 3.2
28 *80:8 *608:A1 3.2
29 *80:14 *80:13 1.28701
30 *80:9 *80:8 1.09199
31 *80:9 *80:14 3.2
*END

*D_NET *81 0.0121733

*CONN
*I *632:A0 I *C 121.11 87.64 *L 0.00465 *D AOI22X1
*I *629:A0 I *C 123.09 83.72 *L 0.0034 *D AOI22XL
*I *627:A0 I *C 116.49 87.64 *L 0.00465 *D AOI22X1
*I *625:A0 I *C 125.07 73.64 *L 0.00465 *D AOI22X1
*I *461:D I *C 112.53 67.48 *L 0.00307 *D NAND4BXL
*I *393:A I *C 120.45 67.48 *L 0.00377 *D MXI2X1
*I *384:QN O *C 142.23 79.24 *L 0 *D DFFRX1

*CAP
1 *632:A0 6.3302e-05
2 *629:A0 6.3302e-05
3 *627:A0 6.3302e-05
4 *625:A0 6.3302e-05
5 *461:D 0.000139844
6 *393:A 0.000139844
7 *384:QN 0.000139844
8 *81:7 0.000112373
9 *81:8 0.000182052
10 *81:9 0.000154206
11 *81:10 0.000223904
12 *81:11 8.80992e-05
13 *81:12 0.000157797
14 *81:13 0.000230524
15 *81:14 0.000230524
16 *81:15 0.000526707
17 *81:16 0.000596386
18 *81:17 0.000682559
19 *81:18 0.000591748
20 *81:19 0.000123107
21 *81:20 0.000192786
22 *81:21 0.000190243
23 *81:22 0.000176498
24 *81:23 0.000410238
25 *81:24 0.000354323
26 *81:25 0.00105988
27 *81:26 0.00122555352
28 *81:27 0.000117796
29 *81:28 0.000172664
30 *81:29 0.000427349
31 *81:30 0.000427349
32 *81:31 0.00117448
33 *81:32 0.00117448
34 *81:33 0.00026987
35 *81:34 0.000120956
36 *81:35 0.000106164

*RES
1 *81:35 *384:QN 3.2
2 *81:9 *627:A0 6.4000001
3 *81:34 *81:35 0.624023
4 *81:7 *632:A0 6.4000001
5 *81:10 *81:9 0.467969
6 *81:14 *629:A0 6.4000001
7 *81:29 *81:34 0.183887
8 *81:8 *81:7 0.467969
9 *81:24 *81:10 3.2
10 *81:14 *81:13 0.624023
11 *81:30 *81:29 1.87197
12 *81:23 *81:8 3.2
13 *81:24 *81:23 1.28701
14 *81:21 *81:13 3.2
15 *81:30 *81:27 0.183887
16 *81:23 *81:22 0.183887
17 *81:22 *81:21 0.367676
18 *81:15 *625:A0 6.4000001
19 *81:28 *81:27 0.467969
20 *81:31 *81:22 3.2
21 *81:16 *81:15 2.02803
22 *81:25 *81:28 3.2
23 *81:11 *393:A 3.2
24 *81:32 *81:31 5.45996
25 *81:26 *81:16 3.2
26 *81:26 *81:25 4.78027
27 *81:12 *81:11 0.312012
28 *81:33 *81:32 3.2
29 *81:33 *81:26 0.919238
30 *81:17 *81:12 3.2
31 *81:17 *81:33 0.367676
32 *81:19 *461:D 3.2
33 *81:18 *81:17 2.20625
34 *81:20 *81:19 0.312012
35 *81:20 *81:18 3.2
*END

*D_NET *82 0.0124833

*CONN
*I *625:A1 I *C 125.73 73.08 *L 0.00472 *D AOI22X1
*I *607:A1 I *C 116.49 77.56 *L 0.00324 *D OAI21XL
*I *555:B1 I *C 117.81 83.16 *L 0.00419 *D OAI22X1
*I *554:A1 I *C 115.17 83.72 *L 0.00324 *D OAI21XL
*I *455:C0 I *C 117.81 68.04 *L 0.00317 *D AOI211XL
*I *444:A1 I *C 107.25 63 *L 0.00472 *D AOI22X1
*I *432:A I *C 130.35 67.48 *L 0.0026 *D MXI2XL
*I *424:QN O *C 142.89 71.96 *L 0 *D DFFRX1

*CAP
1 *625:A1 6.32966e-05
2 *607:A1 5.1928e-05
3 *555:B1 6.32966e-05
4 *554:A1 0.00013983
5 *455:C0 6.32966e-05
6 *444:A1 6.32966e-05
7 *432:A 0.00013983
8 *424:QN 6.32966e-05
9 *82:8 0.000382936
10 *82:9 0.000382936
11 *82:10 8.72585e-05
12 *82:11 0.000717869
13 *82:12 0.00044105
14 *82:13 0.000788341
15 *82:14 0.000718654
16 *82:15 0.000402831
17 *82:16 0.000342659
18 *82:17 0.0003599
19 *82:18 0.000498443
20 *82:19 0.000610668
21 *82:20 0.000157872
22 *82:21 0.00022756
23 *82:22 0.000133753
24 *82:23 0.000203425
25 *82:24 0.00066671
26 *82:25 0.00102906
27 *82:26 0.00012562
28 *82:27 0.000445431
29 *82:28 0.000120595
30 *82:29 0.000120595
31 *82:30 5.09073e-05
32 *82:31 0.000120595
33 *82:32 0.000152047
34 *82:33 0.000540761
35 *82:34 0.000111205
36 *82:35 0.000540761
37 *82:36 0.000314175
38 *82:37 0.000172083
39 *82:38 0.000314175
40 *82:20 *337:6 0.00012393
41 *82:21 *337:5 0.000123929996
42 *82:8 *143:6 0.00014293
43 *82:9 *143:5 0.00014293
44 *607:A1 *607:B0 1.028e-05
45 *82:10 *143:3 1.0279994e-05

*RES
1 *82:38 *424:QN 6.4000001
2 *82:36 *82:38 1.24805
3 *82:37 *82:36 3.2
4 *82:34 *82:37 0.367676
5 *82:34 *82:35 0.155957
6 *82:33 *82:35 2.57402
7 *82:31 *432:A 3.2
8 *82:32 *82:33 0.155957
9 *82:30 *555:B1 6.4000001
10 *82:15 *82:31 3.2
11 *82:15 *82:32 0.551562
12 *82:20 *82:30 6.4000001
13 *82:16 *82:15 1.28701
14 *82:21 *82:20 0.735449
15 *82:12 *82:16 3.2
16 *82:10 *607:A1 0.447656
17 *82:8 *554:A1 3.2
18 *82:8 *82:21 3.2
19 *82:11 *625:A1 6.4000001
20 *82:12 *82:11 1.55996
21 *82:9 *82:10 3.2
22 *82:9 *82:8 1.55996
23 *82:11 *82:17 1.24805
24 *82:26 *82:9 3.2
25 *82:18 *82:17 3.2
26 *82:28 *455:C0 6.4000001
27 *82:26 *82:19 0.735449
28 *82:19 *82:18 2.20625
29 *82:29 *82:28 3.2
30 *82:24 *82:19 3.2
31 *82:25 *82:29 3.2
32 *82:25 *82:24 2.65195
33 *82:27 *82:25 1.87197
34 *82:13 *82:27 3.2
35 *82:22 *444:A1 6.4000001
36 *82:14 *82:13 2.9417
37 *82:23 *82:22 0.467969
38 *82:23 *82:14 3.2
*END

*D_NET *83 0.00560553

*CONN
*I *624:S0 I *C 143.55 57.96 *L 0.00672 *D MXI2X1
*I *508:B I *C 128.37 57.4 *L 0.00391 *D NAND2BX1
*I *505:A1 I *C 131.67 57.4 *L 0.00324 *D OAI21XL
*I *503:B I *C 135.63 57.4 *L 0.00389 *D MXI2X1
*I *453:A1 I *C 125.07 63.56 *L 0.00314 *D AOI21XL
*I *443:Q O *C 144.21 64.12 *L 0 *D DFFRHQX1

*CAP
1 *624:S0 0.000139839
2 *508:B 0.000139839
3 *505:A1 8.06291e-05
4 *503:B 0.000139839
5 *453:A1 0.000139839
6 *443:Q 0.000139839
7 *83:6 0.000100485
8 *83:7 0.000276328
9 *83:8 0.000218782
10 *83:9 0.000186441
11 *83:10 0.000454706
12 *83:11 0.000380889
13 *83:12 0.000192494
14 *83:13 0.000142329
15 *83:14 0.000142329
16 *83:15 0.000304358
17 *83:16 0.000177942
18 *83:17 0.000404798
19 *83:18 0.00073186
20 *83:19 0.000410136
21 *83:20 0.000224299
22 *83:21 7.2421e-05
23 *83:17 *241:9 0.00010894
24 *83:18 *241:10 0.00010894
25 *83:18 *241:10 9.36e-05
26 *83:19 *241:11 9.35999944e-05

*RES
1 *83:21 *443:Q 3.20000005
2 *83:20 *83:21 0.183838
3 *83:15 *624:S0 3.20000005
4 *83:15 *83:20 0.935986
5 *83:13 *503:B 3.20000005
6 *83:16 *83:15 0.468018
7 *83:14 *83:13 0.312012
8 *83:17 *83:16 3.20000005
9 *83:18 *83:14 3.20000005
10 *83:18 *83:17 2.2063
11 *83:19 *83:18 1.47085
12 *83:12 *505:A1 0.447656
13 *83:9 *83:19 3.20000005
14 *83:8 *83:12 3.20000005
15 *83:9 *83:8 0.312012
16 *83:11 *508:B 3.20000005
17 *83:11 *83:8 0.551562
18 *83:6 *453:A1 3.20000005
19 *83:11 *83:10 1.248
20 *83:7 *83:6 0.468018
21 *83:7 *83:10 0.919287
*END

*D_NET *84 0.00911082

*CONN
*I *624:A I *C 140.25 57.4 *L 0.00377 *D MXI2X1
*I *516:A1 I *C 121.11 53.48 *L 0.00443 *D AOI21X1
*I *515:A1 I *C 123.75 57.96 *L 0.00472 *D AOI22X1
*I *513:B1 I *C 118.47 57.4 *L 0.00434 *D AOI22X1
*I *512:A1 I *C 117.81 53.48 *L 0.00443 *D AOI21X1
*I *496:B1 I *C 119.13 47.88 *L 0.00444 *D OAI2BB2X1
*I *496:A0N I *C 117.15 47.32 *L 0.00186 *D OAI2BB2X1
*I *491:B1 I *C 121.77 48.44 *L 0.00309 *D OAI22XL
*I *476:QN O *C 142.23 49 *L 0 *D DFFRX1

*CAP
1 *624:A 0.00013984
2 *516:A1 0.00013984
3 *515:A1 6.32985e-05
4 *513:B1 0.00013984
5 *512:A1 0.00013984
6 *496:B1 6.32985e-05
7 *496:A0N 0.00013984
8 *491:B1 0.00013984
9 *476:QN 6.32985e-05
10 *84:9 6.22155e-05
11 *84:10 6.22155e-05
12 *84:11 0.000509276
13 *84:12 0.000500577
14 *84:13 0.000158171
15 *84:14 0.000227853
16 *84:15 0.00022368
17 *84:16 0.000507762
18 *84:17 0.000367341
19 *84:18 0.000142102
20 *84:19 0.000126949
21 *84:20 0.000296092
22 *84:21 0.000149322
23 *84:22 0.000289162
24 *84:23 0.000279679
25 *84:24 0.000154456
26 *84:25 0.000142102
27 *84:26 0.000482756
28 *84:27 0.000347178
29 *84:28 0.000577029844
30 *84:29 0.000182359
31 *84:30 0.000102762
32 *84:31 0.000143018
33 *84:32 0.000560538
34 *84:33 0.000568331
35 *84:34 0.000505657
36 *84:11 *243:3 8.069e-05
37 *84:12 *243:4 8.069e-05
38 *84:11 *243:5 3.67e-05
39 *84:12 *243:6 3.67e-05
40 *84:22 *243:7 1.773e-05
41 *84:21 *243:8 1.773e-05
42 *84:20 *243:7 6.267e-05
43 *84:19 *243:8 6.267e-05
44 *84:9 *243:9 8.86e-06
45 *84:10 *243:10 8.86000522e-06

*RES
1 *84:29 *624:A 3.2
2 *84:29 *84:31 0.367676
3 *84:30 *84:31 0.312012
4 *84:30 *84:34 0.183887
5 *84:32 *84:34 2.02803
6 *84:32 *476:QN 6.4000001
7 *84:33 *84:32 3.2
8 *84:28 *84:33 2.75781
9 *84:11 *84:28 0.155957
10 *84:18 *513:B1 3.2
11 *84:12 *84:11 2.9417
12 *84:27 *515:A1 6.4000001
13 *84:17 *84:18 0.183887
14 *84:25 *491:B1 3.2
15 *84:25 *84:12 3.2
16 *84:26 *84:27 1.71602
17 *84:24 *516:A1 3.2
18 *84:16 *512:A1 3.2
19 *84:16 *84:17 1.24805
20 *84:21 *84:25 0.183887
21 *84:23 *84:26 0.735449
22 *84:23 *84:24 0.312012
23 *84:15 *84:16 0.624023
24 *84:21 *84:22 0.624023
25 *84:22 *84:23 0.312012
26 *84:15 *84:20 0.367676
27 *84:20 *84:22 0.551562
28 *84:19 *496:B1 6.4000001
29 *84:19 *84:20 0.77998
30 *84:13 *84:19 6.4000001
31 *84:14 *84:13 0.551562
32 *84:9 *84:14 3.2
33 *84:10 *84:9 0.155957
34 *496:A0N *84:10 3.2
*END

*D_NET *85 0.00381746

*CONN
*I *610:Q O *C 35.31 46.76 *L 0 *D DFFRHQX1
*I *603:B0 I *C 46.53 32.2 *L 0.00302 *D OAI21XL
*I *573:AN I *C 46.53 37.24 *L 0.0022 *D NOR2BXL

*CAP
1 *610:Q 0.000324155
2 *603:B0 6.32997e-05
3 *573:AN 7.97301e-05
4 *85:3 0.00061041
5 *85:4 0.00055553
6 *85:5 0.000359484
7 *85:6 0.000315306
8 *85:7 0.000209263
9 *85:8 0.000154384
10 *85:9 0.000329119
11 *85:10 0.000367056
12 *85:11 0.000343743
13 *85:12 0.000105987

*RES
1 *85:12 *603:B0 6.4000001
2 *85:9 *85:12 0.367676
3 *85:9 *85:11 1.404
4 *85:10 *85:11 3.2
5 *85:10 *573:AN 0.447656
6 *85:6 *85:10 1.5668
7 *85:7 *85:6 3.2
8 *85:7 *85:8 0.624023
9 *85:4 *85:8 0.183887
10 *85:4 *85:3 2.65195
11 *85:5 *85:3 3.2
12 *610:Q *85:5 1.5668
*END

*D_NET *86 0.0112486

*CONN
*I *640:Q O *C 66.99 124.6 *L 0 *D DFFRHQX1
*I *600:B0 I *C 76.23 38.36 *L 0.00302 *D OAI21XL
*I *580:AN I *C 71.61 47.32 *L 0.0022 *D NOR2BXL

*CAP
1 *640:Q 0.000139886
2 *600:B0 0.000161331
3 *580:AN 0.000139886
4 *86:3 0.00015067
5 *86:4 0.00015067
6 *86:5 0.000404226
7 *86:6 0.000404226
8 *86:7 0.000120611
9 *86:8 0.000205584
10 *86:9 0.00406178
11 *86:10 0.000205584
12 *86:11 0.00406178
13 *86:12 0.00018011
14 *86:13 9.95379e-05
15 *86:14 0.000105984
16 *86:15 0.000160897
17 *86:16 0.000273203
18 *86:17 0.000222628

*RES
1 *86:16 *600:B0 0.895315
2 *86:17 *86:16 3.20009
3 *86:12 *86:17 0.551499
4 *86:12 *86:13 0.312157
5 *86:6 *86:13 0.183938
6 *86:6 *86:5 1.71591
7 *86:5 *86:14 0.183938
8 *86:15 *580:AN 3.20009
9 *86:14 *86:15 0.467919
10 *86:3 *86:15 3.20009
11 *86:4 *86:3 0.36756
12 *86:9 *86:4 3.20009
13 *86:9 *86:11 20.7479992
14 *86:10 *86:11 3.20009
15 *86:8 *86:10 0.919375
16 *86:7 *86:8 3.20009
17 *640:Q *86:7 3.20009
*END

*D_NET *87 0.00847442

*CONN
*I *614:Q O *C 50.49 107.24 *L 0 *D DFFRHQX1
*I *598:B0 I *C 44.55 48.44 *L 0.00302 *D OAI21XL
*I *581:AN I *C 47.19 53.48 *L 0.0022 *D NOR2BXL

*CAP
1 *614:Q 6.33107e-05
2 *598:B0 0.000139839
3 *581:AN 0.000159468
4 *87:3 0.000367242
5 *87:4 0.000194782
6 *87:5 0.000748269
7 *87:6 0.000501635
8 *87:7 0.000114992
9 *87:8 0.0018589
10 *87:9 0.0018589
11 *87:10 0.000114992
12 *87:11 0.00017955
13 *87:12 0.000124664
14 *87:13 0.000110028
15 *87:14 0.000171665
16 *87:15 0.000164914
17 *87:16 0.000289295
18 *87:17 0.000241329
19 *87:18 0.000289295
20 *87:15 *100:16 2.624e-05
21 *87:13 *100:17 2.624e-05
22 *87:12 *100:16 2.204e-05
23 *87:11 *100:17 2.204e-05
24 *87:9 *100:16 0.00032106
25 *87:8 *100:17 0.00032106
26 *87:17 *100:14 2.131e-05
27 *87:14 *100:15 2.13099763e-05

*RES
1 *87:18 *614:Q 6.39999
2 *87:16 *87:18 1.24794
3 *87:17 *87:16 3.2
4 *87:14 *87:17 1.10307
5 *87:15 *87:14 3.2
6 *87:13 *87:15 0.467936
7 *87:9 *87:13 0.183791
8 *87:8 *87:9 10.7639999
9 *87:8 *87:12 0.183791
10 *87:11 *87:12 0.467936
11 *87:10 *87:11 3.2
12 *87:7 *87:10 0.551537
13 *87:4 *581:AN 0.895303
14 *87:6 *87:7 3.2
15 *87:5 *87:4 3.2
16 *87:5 *87:6 2.02794
17 *87:3 *87:5 1.40397
18 *598:B0 *87:3 3.2
*END

*D_NET *88 0.00833581

*CONN
*I *611:Q O *C 66.99 117.32 *L 0 *D DFFRHQX1
*I *601:B0 I *C 61.05 58.52 *L 0.00302 *D OAI21XL
*I *575:AN I *C 63.69 57.4 *L 0.0022 *D NOR2BXL

*CAP
1 *611:Q 0.000139834
2 *601:B0 0.000139834
3 *575:AN 8.06708e-05
4 *88:3 0.000739017
5 *88:4 0.000768335
6 *88:5 0.000282235
7 *88:6 0.000282235
8 *88:7 0.000182358
9 *88:8 0.000115988
10 *88:9 0.00013908
11 *88:10 0.00247276
12 *88:11 0.0024179
13 *88:12 0.000156436
14 *88:13 0.000120591
15 *88:14 7.24075e-05
16 *88:15 0.000226127

*RES
1 *88:15 *611:Q 3.20007
2 *88:12 *88:15 0.623933
3 *88:13 *88:12 3.20007
4 *88:14 *88:13 3.20007
5 *88:11 *88:14 0.183941
6 *88:10 *88:11 12.6359997
7 *88:5 *88:10 3.20007
8 *88:8 *575:AN 0.447705
9 *88:6 *88:5 1.10307
10 *88:9 *88:8 3.20007
11 *88:3 *88:6 3.20007
12 *88:9 *88:4 0.311967
13 *88:4 *88:3 3.12005
14 *88:7 *88:4 0.367689
15 *601:B0 *88:7 3.20007
*END

*D_NET *89 0.0059104

*CONN
*I *622:Q O *C 50.49 104.44 *L 0 *D DFFRHQX1
*I *579:B0 I *C 48.51 68.6 *L 0.00302 *D OAI21XL
*I *578:AN I *C 43.23 67.48 *L 0.0022 *D NOR2BXL

*CAP
1 *622:Q 0.000139847
2 *579:B0 6.33028e-05
3 *578:AN 0.000139847
4 *89:3 0.000143459
5 *89:4 7.37633e-05
6 *89:5 0.000104211
7 *89:6 0.000455137
8 *89:7 0.000364334
9 *89:8 6.1082e-05
10 *89:9 6.1082e-05
11 *89:10 0.00136018
12 *89:11 0.00136018
13 *89:12 0.000120607
14 *89:13 0.000232913
15 *89:14 0.000232913
16 *89:10 *17:198 8.677e-05
17 *89:11 *17:199 8.677e-05
18 *89:10 *17:199 0.00014295
19 *89:11 *17:194 0.000142950003
20 *89:10 *100:16 0.00026905
21 *89:11 *100:17 0.000269049989

*RES
1 *89:14 *622:Q 3.19996
2 *89:13 *89:14 0.623967
3 *89:8 *89:13 3.19996
4 *89:9 *89:8 0.183812
5 *89:10 *89:9 3.19996
6 *89:11 *89:10 8.57999992
7 *89:12 *579:B0 6.40004
8 *89:5 *89:11 3.19996
9 *89:6 *89:12 3.19996
10 *89:6 *89:5 0.367755
11 *89:7 *89:6 1.47089
12 *89:3 *89:7 3.19996
13 *89:4 *89:3 0.311983
14 *578:AN *89:4 3.19996
*END

*D_NET *90 0.0045279

*CONN
*I *623:Q O *C 34.65 77 *L 0 *D DFFRHQX1
*I *602:B0 I *C 60.39 72.52 *L 0.00302 *D OAI21XL
*I *572:AN I *C 54.45 73.64 *L 0.0022 *D NOR2BXL

*CAP
1 *623:Q 6.33038e-05
2 *602:B0 8.21458e-05
3 *572:AN 3.9864e-05
4 *90:3 0.000202151
5 *90:4 0.000271844
6 *90:5 0.00082102
7 *90:6 0.000820907
8 *90:7 0.000203204
9 *90:8 0.000194497
10 *90:9 0.000198092
11 *90:10 0.000128412
12 *90:11 0.000142355
13 *90:12 7.51803e-05
14 *90:13 0.000185226
15 *90:14 0.000185226
16 *90:15 0.000423733
17 *90:16 0.000117475
18 *90:17 0.000373271

*RES
1 *90:16 *602:B0 0.671484
2 *90:12 *572:AN 0.223828
3 *90:4 *90:16 3.2
4 *90:13 *90:12 3.2
5 *90:4 *90:3 0.77998
6 *90:13 *90:14 0.467969
7 *90:17 *90:3 3.2
8 *90:15 *90:14 3.2
9 *90:15 *90:17 1.28701
10 *90:11 *90:15 0.551562
11 *90:11 *90:5 0.155957
12 *90:6 *90:5 3.86104
13 *90:7 *90:6 0.155957
14 *90:8 *90:7 0.919238
15 *90:10 *623:Q 6.4000001
16 *90:9 *90:8 3.2
17 *90:9 *90:10 0.467969
*END

*D_NET *91 0.00372632

*CONN
*I *620:Q O *C 49.83 84.28 *L 0 *D DFFRHQX1
*I *597:AN I *C 62.37 73.64 *L 0.0022 *D NOR2BXL
*I *589:B0 I *C 66.99 72.52 *L 0.00302 *D OAI21XL

*CAP
1 *620:Q 0.000139833
2 *597:AN 0.000139833
3 *589:B0 8.37288e-05
4 *91:3 0.000542367
5 *91:4 0.000169069
6 *91:5 0.000511444
7 *91:6 0.000120598
8 *91:7 0.00070857
9 *91:8 0.00070857
10 *91:9 0.000149369
11 *91:10 0.00010598
12 *91:11 0.000188638
13 *91:12 0.000158321

*RES
1 *91:12 *589:B0 0.671484
2 *91:11 *91:12 0.379785
3 *91:9 *91:11 0.447656
4 *91:10 *91:9 6.4000001
5 *91:4 *91:10 0.367676
6 *91:3 *597:AN 3.2
7 *91:4 *91:3 0.624023
8 *91:3 *91:5 2.18398
9 *91:8 *91:5 3.2
10 *91:7 *91:8 3.49326
11 *91:6 *91:7 3.2
12 *620:Q *91:6 3.2
*END

*D_NET *92 0.00415316

*CONN
*I *618:Q O *C 49.83 94.36 *L 0 *D DFFRHQX1
*I *596:B0 I *C 76.89 92.68 *L 0.00302 *D OAI21XL
*I *577:AN I *C 70.95 93.8 *L 0.0022 *D NOR2BXL

*CAP
1 *618:Q 0.000139831
2 *596:B0 6.32923e-05
3 *577:AN 0.000139831
4 *92:3 0.000582378
5 *92:4 0.000309705
6 *92:5 0.00036342
7 *92:6 7.27703e-05
8 *92:7 0.000142453
9 *92:8 0.000120592
10 *92:9 0.00101045
11 *92:10 0.00108782
12 *92:11 0.000120592

*RES
1 *92:6 *577:AN 3.2
2 *92:11 *596:B0 6.4000001
3 *92:7 *92:6 0.312012
4 *92:5 *92:11 3.2
5 *92:3 *92:7 3.2
6 *92:3 *92:5 1.65469
7 *92:4 *92:3 1.10312
8 *92:4 *92:10 0.467969
9 *92:9 *92:10 4.78027
10 *92:8 *92:9 3.2
11 *618:Q *92:8 3.2
*END

*D_NET *93 0.0130899

*CONN
*I *612:Q O *C 49.17 87.08 *L 0 *D DFFRHQX1
*I *592:B0 I *C 140.91 88.76 *L 0.00302 *D OAI21XL
*I *571:AN I *C 134.31 87.64 *L 0.0022 *D NOR2BXL

*CAP
1 *612:Q 6.32869e-05
2 *592:B0 6.32869e-05
3 *571:AN 0.000139837
4 *93:3 0.000185195
5 *93:4 0.000185195
6 *93:5 0.00012061
7 *93:6 0.000109717
8 *93:7 0.00123291
9 *93:8 0.000118522
10 *93:9 0.00123291
11 *93:10 0.00105641
12 *93:11 0.00105641
13 *93:12 0.000429049
14 *93:13 0.000796843
15 *93:14 0.000429049
16 *93:15 0.000788039
17 *93:16 0.000392627
18 *93:17 9.3764e-05
19 *93:18 0.000401451
20 *93:19 5.0908e-05
21 *93:20 8.49595e-05
22 *93:14 *94:3 0.00014563
23 *93:12 *94:4 0.00014563
24 *93:15 *94:5 8.27e-05
25 *93:13 *94:6 8.27e-05
26 *93:15 *94:6 3.678e-05
27 *93:13 *94:7 3.678e-05
28 *93:11 *94:8 7.5e-05
29 *93:10 *94:9 7.5e-05
30 *93:11 *94:3 0.00023024
31 *93:10 *94:4 0.000230240019
32 *93:15 *135:5 0.00031112
33 *93:13 *135:6 0.000311119994
34 *93:8 *18:104 3.67e-05
35 *93:6 *18:105 3.67e-05
36 *93:9 *18:104 0.00027603
37 *93:7 *18:105 0.000276029989
38 *93:15 *44:12 0.00019023
39 *93:13 *44:13 0.00019023
40 *93:15 *44:14 1.263e-05
41 *93:13 *44:15 1.263e-05
42 *93:15 *44:16 2.527e-05
43 *93:13 *44:17 2.527e-05
44 *93:15 *44:18 2.377e-05
45 *93:13 *44:19 2.377e-05
46 *93:11 *44:20 0.00048544
47 *93:10 *44:21 0.00048544
48 *93:15 *44:10 9.788e-05
49 *93:13 *44:11 9.78800231e-05

*RES
1 *93:19 *592:B0 6.39999
2 *93:20 *93:19 6.39999
3 *93:17 *93:20 0.183846
4 *93:17 *93:18 0.15598
5 *93:16 *93:18 1.65473
6 *93:3 *93:16 3.20005
7 *93:4 *571:AN 3.20005
8 *93:4 *93:3 0.468059
9 *93:15 *93:4 3.20005
10 *93:13 *93:15 5.88343
11 *93:13 *93:14 0.15598
12 *93:12 *93:14 2.20627
13 *93:11 *93:12 0.15598
14 *93:10 *93:11 7.90585709
15 *93:9 *93:10 0.15598
16 *93:7 *93:9 7.17047
17 *93:7 *93:8 0.15598
18 *93:6 *93:8 0.551538
19 *93:5 *93:6 3.20005
20 *612:Q *93:5 6.39999
*END

*D_NET *94 0.00902761

*CONN
*I *613:Q O *C 63.69 87.08 *L 0 *D DFFRHQX1
*I *594:B0 I *C 129.69 88.76 *L 0.00302 *D OAI21XL
*I *585:AN I *C 125.07 87.64 *L 0.0022 *D NOR2BXL

*CAP
1 *613:Q 0.000139834
2 *594:B0 6.32792e-05
3 *585:AN 0.000139834
4 *94:3 0.00199088
5 *94:4 0.00199088
6 *94:5 0.000281187
7 *94:6 0.000307677
8 *94:7 0.000118386
9 *94:8 0.000734987
10 *94:9 0.000734987
11 *94:10 0.000120604
12 *94:11 0.000143571
13 *94:12 0.00015238
14 *94:13 0.000310077
15 *94:14 0.000310077
16 *94:15 7.89851e-05
17 *94:16 0.000148674
18 *94:17 0.000120604
19 *94:3 *93:14 0.00014563
20 *94:4 *93:12 0.00014563
21 *94:5 *93:15 8.27e-05
22 *94:6 *93:13 8.27e-05
23 *94:6 *93:15 3.678e-05
24 *94:7 *93:13 3.678e-05
25 *94:8 *93:11 7.5e-05
26 *94:9 *93:10 7.5e-05
27 *94:3 *93:11 0.00023024
28 *94:4 *93:10 0.000230240019

*RES
1 *94:15 *585:AN 3.20001
2 *94:17 *594:B0 6.40003
3 *94:15 *94:16 0.312007
4 *94:5 *94:17 3.20001
5 *94:6 *94:16 3.20001
6 *94:6 *94:5 1.28692
7 *94:7 *94:6 0.551515
8 *94:7 *94:3 0.155921
9 *94:4 *94:3 10.8475714
10 *94:4 *94:8 0.155921
11 *94:9 *94:8 3.67721
12 *94:9 *94:14 0.155921
13 *94:13 *94:14 1.47082
14 *94:12 *94:13 0.155921
15 *94:11 *94:12 0.551515
16 *94:10 *94:11 3.20001
17 *613:Q *94:10 3.20001
*END

*D_NET *95 0.0106107

*CONN
*I *615:Q O *C 65.01 94.36 *L 0 *D DFFRHQX1
*I *591:B0 I *C 125.07 112.84 *L 0.00302 *D OAI21XL
*I *582:AN I *C 119.79 113.96 *L 0.0022 *D NOR2BXL

*CAP
1 *615:Q 8.24116e-05
2 *591:B0 7.9746e-05
3 *582:AN 0.000239193
4 *95:3 0.000156714
5 *95:4 0.000156714
6 *95:5 0.000489071
7 *95:6 0.000863541
8 *95:7 0.000457419
9 *95:8 0.000472047
10 *95:9 0.00145933
11 *95:10 0.000117715
12 *95:11 0.00018299
13 *95:12 0.000128131
14 *95:13 0.000420257
15 *95:14 0.00046051
16 *95:15 0.000479506
17 *95:16 0.00146802
18 *95:17 0.000479506
19 *95:18 0.000396557
20 *95:19 0.000209266
21 *95:20 0.000274519
22 *95:21 0.000209266
23 *95:22 0.000115049
24 *95:6 *98:5 2.131e-05
25 *95:18 *98:6 2.131e-05
26 *95:16 *98:7 2.259e-05
27 *95:9 *98:8 2.259e-05
28 *95:16 *98:9 0.00018879
29 *95:9 *98:10 0.000188790001
30 *95:17 *170:4 9.559e-05
31 *95:15 *170:5 9.55899968e-05
32 *95:16 *18:132 7.671e-05
33 *95:9 *18:133 7.671e-05
34 *95:17 *18:132 5.464e-05
35 *95:15 *18:133 5.464e-05
36 *95:14 *18:135 1.034e-05
37 *95:13 *18:136 1.034e-05
38 *95:14 *18:136 3.283e-05
39 *95:13 *18:137 3.283e-05
40 *95:14 *18:137 2.585e-05
41 *95:13 *18:138 2.585e-05
42 *95:12 *18:137 1.427e-05
43 *95:11 *18:138 1.427e-05
44 *95:8 *18:139 6.369e-05
45 *95:7 *18:140 6.36899974e-05

*RES
1 *95:22 *591:B0 0.447613
2 *95:20 *582:AN 1.34297
3 *95:3 *95:22 3.19995
4 *95:21 *95:20 3.19995
5 *95:4 *95:3 0.31201
6 *95:19 *95:21 0.624019
7 *95:5 *95:4 3.19995
8 *95:6 *95:19 3.19995
9 *95:6 *95:5 2.20629
10 *95:18 *95:6 2.02247
11 *95:17 *95:18 0.155937
12 *95:15 *95:17 3.12562
13 *95:15 *95:16 0.155937
14 *95:9 *95:16 8.82514286
15 *95:8 *95:9 3.19995
16 *95:7 *95:8 2.18407
17 *95:7 *95:14 0.367759
18 *95:13 *95:14 2.18407
19 *95:12 *95:13 0.183812
20 *95:11 *95:12 0.467947
21 *95:10 *95:11 3.19995
22 *615:Q *95:10 0.447613
*END

*D_NET *96 0.008704

*CONN
*I *621:Q O *C 66.33 104.44 *L 0 *D DFFRHQX1
*I *590:B0 I *C 125.73 102.76 *L 0.00302 *D OAI21XL
*I *570:AN I *C 119.79 103.88 *L 0.0022 *D NOR2BXL

*CAP
1 *621:Q 0.000629629
2 *590:B0 0.000139846
3 *570:AN 0.000240122
4 *96:3 0.000489153
5 *96:4 0.000497849
6 *96:5 0.000736308438
7 *96:6 0.000647909
8 *96:7 5.72441e-05
9 *96:8 0.000126914
10 *96:9 0.000697389
11 *96:10 0.000714467
12 *96:11 5.54127e-05
13 *96:12 4.67166e-05
14 *96:13 0.000664964
15 *96:14 0.000290928
16 *96:15 0.000290928
17 *96:16 0.0001206
18 *96:17 0.000351981
19 *96:18 0.000102118
20 *96:19 0.0001206
21 *96:14 *100:9 0.00015439
22 *96:15 *100:10 0.00015439
23 *96:14 *100:10 3.413e-05
24 *96:15 *100:11 3.413e-05
25 *96:9 *100:12 0.00032907
26 *96:10 *100:13 0.00032907
27 *96:11 *100:12 7.53e-06
28 *96:12 *100:13 7.53000627e-06
29 *96:5 *339:8 3.678e-05
30 *96:6 *339:9 3.678e-05
31 *96:14 *339:12 5.327e-05
32 *96:15 *339:11 5.327e-05
33 *96:14 *339:6 6.886e-05
34 *96:15 *339:7 6.88600062e-05
35 *96:9 *97:15 0.00011397
36 *96:10 *97:12 0.00011397
37 *96:11 *97:15 1.263e-05
38 *96:12 *97:12 1.263e-05
39 *96:13 *583:AN 3.083e-05
40 *621:Q *97:13 3.08299924e-05

*RES
1 *96:19 *590:B0 3.2
2 *96:17 *570:AN 1.34299
3 *96:3 *96:19 3.2
4 *96:7 *96:17 3.2
5 *96:4 *96:3 2.39011
6 *96:8 *96:7 0.155963
7 *96:4 *96:18 0.155963
8 *96:5 *96:8 3.2
9 *96:5 *96:18 0.367751
10 *96:6 *96:5 3.30945
11 *96:14 *96:6 0.0780192
12 *96:15 *96:14 2.39011
13 *96:15 *96:9 0.0780192
14 *96:10 *96:9 4.9641428
15 *96:11 *96:10 0.155963
16 *96:12 *96:11 0.183838
17 *96:16 *96:12 3.2
18 *96:13 *96:16 3.2
19 *621:Q *96:13 3.58123
*END

*D_NET *97 0.0043179

*CONN
*I *626:Q O *C 65.67 97.16 *L 0 *D DFFRHQX1
*I *595:B0 I *C 88.11 102.76 *L 0.00302 *D OAI21XL
*I *583:AN I *C 78.87 103.88 *L 0.0022 *D NOR2BXL

*CAP
1 *626:Q 8.23999e-05
2 *595:B0 6.33031e-05
3 *583:AN 0.000215526
4 *97:3 8.70429e-05
5 *97:4 0.000156723
6 *97:5 0.000396087
7 *97:6 0.000119704
8 *97:7 0.000396087
9 *97:8 0.000160904
10 *97:9 0.000158929
11 *97:10 0.000223362
12 *97:11 0.000314523
13 *97:12 0.00058291
14 *97:13 0.000250864
15 *97:14 0.000211764
16 *97:15 0.00058291
17 *97:15 *96:9 0.00011397
18 *97:12 *96:10 0.00011397
19 *97:15 *96:11 1.263e-05
20 *97:12 *96:12 1.263e-05
21 *583:AN *96:13 3.083e-05
22 *97:13 *621:Q 3.08299924e-05

*RES
1 *97:3 *595:B0 6.4000001
2 *97:4 *97:3 0.312012
3 *97:15 *97:4 3.2
4 *97:13 *583:AN 1.34297
5 *97:12 *97:15 3.67715
6 *97:14 *97:13 3.2
7 *97:11 *97:12 3.2
8 *97:11 *97:14 0.624023
9 *97:10 *97:11 0.624023
10 *97:9 *97:10 3.2
11 *97:8 *97:9 0.671484
12 *97:7 *97:8 0.189941
13 *97:5 *97:7 2.01445
14 *97:5 *97:6 0.189941
15 *626:Q *97:6 0.447656
*END

*D_NET *98 0.00637623

*CONN
*I *616:Q O *C 66.33 114.52 *L 0 *D DFFRHQX1
*I *593:B0 I *C 110.55 112.84 *L 0.00302 *D OAI21XL
*I *584:AN I *C 105.27 113.96 *L 0.0022 *D NOR2BXL

*CAP
1 *616:Q 8.23944e-05
2 *593:B0 6.33023e-05
3 *584:AN 7.97341e-05
4 *98:3 0.000110173
5 *98:4 0.000110173
6 *98:5 0.000413135
7 *98:6 0.000409002
8 *98:7 0.00026776
9 *98:8 0.000259062
10 *98:9 0.00081089
11 *98:10 0.00081089
12 *98:11 0.000270569
13 *98:12 0.000270569
14 *98:13 8.76407e-05
15 *98:14 0.000396085
16 *98:15 0.0001197
17 *98:16 0.000396085
18 *98:17 0.000163304
19 *98:18 0.000161324
20 *98:19 0.000120603
21 *98:20 0.00011506
22 *98:21 0.000120603
23 *98:11 *170:4 4.871e-05
24 *98:12 *170:5 4.871e-05
25 *98:5 *170:4 6.242e-05
26 *98:6 *170:5 6.242e-05
27 *98:6 *170:4 2.527e-05
28 *98:13 *170:5 2.52700066e-05
29 *98:5 *95:6 2.131e-05
30 *98:6 *95:18 2.131e-05
31 *98:7 *95:16 2.259e-05
32 *98:8 *95:9 2.259e-05
33 *98:9 *95:16 0.00018879
34 *98:10 *95:9 0.000188790001

*RES
1 *98:4 *593:B0 6.4000001
2 *98:20 *584:AN 0.447656
3 *98:4 *98:3 0.312012
4 *98:21 *98:20 3.2
5 *98:5 *98:3 3.2
6 *98:6 *98:21 3.2
7 *98:6 *98:5 1.83857
8 *98:13 *98:6 0.367676
9 *98:13 *98:11 0.155957
10 *98:12 *98:11 1.4709
11 *98:9 *98:12 0.155957
12 *98:10 *98:9 4.78027
13 *98:10 *98:7 0.155957
14 *98:8 *98:7 1.28701
15 *98:19 *98:8 3.2
16 *98:18 *98:19 3.2
17 *98:17 *98:18 0.671484
18 *98:16 *98:17 0.189941
19 *98:14 *98:16 2.01445
20 *98:14 *98:15 0.189941
21 *616:Q *98:15 0.447656
*END

*D_NET *99 0.00791978

*CONN
*I *619:Q O *C 50.49 114.52 *L 0 *D DFFRHQX1
*I *599:B0 I *C 88.11 129.08 *L 0.00302 *D OAI21XL
*I *574:AN I *C 83.49 117.88 *L 0.0022 *D NOR2BXL

*CAP
1 *619:Q 8.33977e-05
2 *599:B0 0.000139833
3 *574:AN 0.000558105
4 *99:3 0.000681063
5 *99:4 0.00068977
6 *99:5 0.000497019
7 *99:6 0.000497019
8 *99:7 0.000195275
9 *99:8 0.000120598
10 *99:9 0.000167996
11 *99:10 0.000107021
12 *99:11 0.000336157
13 *99:12 0.000593443
14 *99:13 0.00090428
15 *99:14 0.000688721
16 *99:15 0.000769745
17 *99:16 0.000120598
18 *99:17 0.000769745

*RES
1 *99:16 *599:B0 3.19998
2 *99:17 *99:16 3.19998
3 *99:15 *99:17 3.86100006
4 *99:12 *574:AN 3.13359
5 *99:14 *99:15 3.19998
6 *99:13 *99:12 3.19998
7 *99:13 *99:14 3.11998
8 *99:11 *99:13 1.24798
9 *99:3 *99:11 3.19998
10 *99:4 *99:3 3.30945
11 *99:5 *99:4 0.156005
12 *99:6 *99:5 2.57402
13 *99:6 *99:10 0.156005
14 *99:9 *99:10 0.367742
15 *99:8 *99:9 3.19998
16 *99:7 *99:8 3.19998
17 *619:Q *99:7 0.44763
*END

*D_NET *100 0.0163568

*CONN
*I *628:Q O *C 35.31 43.96 *L 0 *D DFFRHQX1
*I *604:B0 I *C 103.29 102.76 *L 0.00302 *D OAI21XL
*I *576:AN I *C 97.35 103.88 *L 0.0022 *D NOR2BXL

*CAP
1 *628:Q 0.000139858
2 *604:B0 0.000139858
3 *576:AN 0.000139858
4 *100:3 0.000196257
5 *100:4 0.000196257
6 *100:5 0.000759869
7 *100:6 0.000759869
8 *100:7 0.000188147
9 *100:8 0.000188147
10 *100:9 0.000326267
11 *100:10 0.000325564
12 *100:11 9.1032e-05
13 *100:12 0.00209833
14 *100:13 0.00209833
15 *100:14 0.000109321
16 *100:15 0.000100632
17 *100:16 0.00271172
18 *100:17 0.00271172
19 *100:18 0.000292792
20 *100:19 0.000292792
21 *100:20 0.000120617
22 *100:16 *89:10 0.00026905
23 *100:17 *89:11 0.000269049989
24 *100:16 *87:15 2.624e-05
25 *100:17 *87:13 2.624e-05
26 *100:16 *87:12 2.204e-05
27 *100:17 *87:11 2.204e-05
28 *100:16 *87:9 0.00032106
29 *100:17 *87:8 0.00032106
30 *100:14 *87:17 2.131e-05
31 *100:15 *87:14 2.13099763e-05
32 *100:9 *96:14 0.00015439
33 *100:10 *96:15 0.00015439
34 *100:10 *96:14 3.413e-05
35 *100:11 *96:15 3.413e-05
36 *100:12 *96:9 0.00032907
37 *100:13 *96:10 0.00032907
38 *100:12 *96:11 7.53e-06
39 *100:13 *96:12 7.53000627e-06

*RES
1 *100:8 *604:B0 3.19997
2 *100:8 *100:7 0.311924
3 *100:20 *576:AN 3.19997
4 *100:9 *100:7 3.19997
5 *100:10 *100:20 3.19997
6 *100:10 *100:9 1.6546
7 *100:11 *100:10 0.36766
8 *100:11 *100:12 0.155962
9 *100:13 *100:12 11.5829
10 *100:13 *100:19 0.155962
11 *100:18 *100:19 1.28694
12 *100:14 *100:18 0.155962
13 *100:15 *100:14 0.551615
14 *100:16 *100:15 3.19997
15 *100:17 *100:16 16.3799992
16 *100:5 *100:17 3.19997
17 *100:6 *100:5 3.4934
18 *100:3 *100:6 3.19997
19 *100:4 *100:3 0.467886
20 *628:Q *100:4 3.19997
*END

*D_NET *101 0.00860187

*CONN
*I *355:A I *C 35.97 47.32 *L 0.00446 *D BUFX3
*I *661:Q O *C 34.65 117.32 *L 0 *D DFFRHQX1

*CAP
1 *355:A 0.000139845
2 *661:Q 6.32986e-05
3 *101:2 0.000406974
4 *101:3 0.000337301
5 *101:4 0.00104335
6 *101:5 0.00104335
7 *101:6 0.000128635
8 *101:7 0.00155308
9 *101:8 0.00149819
10 *101:9 0.000790013
11 *101:10 5.94358e-05
12 *101:11 0.000844898
13 *101:12 0.000120602
14 *101:13 5.94358e-05
15 *101:14 0.000128635
16 *101:5 *107:6 0.00019241
17 *101:4 *107:7 0.000192409993

*RES
1 *101:3 *355:A 3.20003
2 *101:12 *661:Q 6.39995
3 *101:3 *101:2 1.56002
4 *101:13 *101:12 3.20003
5 *101:14 *101:2 3.20003
6 *101:10 *101:13 0.183815
7 *101:6 *101:14 0.551556
8 *101:11 *101:10 3.20003
9 *101:7 *101:6 3.20003
10 *101:9 *101:11 4.056
11 *101:7 *101:8 7.33199978
12 *101:5 *101:9 0.183815
13 *101:4 *101:8 0.183815
14 *101:4 *101:5 6.55199
*END

*D_NET *102 0.00114248

*CONN
*I *369:A I *C 55.11 127.96 *L 0.00446 *D BUFX3
*I *655:Q O *C 51.15 124.6 *L 0 *D DFFRHQX1

*CAP
1 *369:A 7.97309e-05
2 *655:Q 0.000123602
3 *102:2 0.0001609
4 *102:3 9.22088e-05
5 *102:4 9.02392e-05
6 *102:5 0.00024037
7 *102:6 0.000115059
8 *102:7 0.00024037

*RES
1 *102:6 *369:A 0.447656
2 *102:7 *102:6 3.20000005
3 *102:5 *102:7 0.77998
4 *102:4 *102:5 3.20000005
5 *102:3 *102:4 0.223828
6 *102:2 *102:3 0.189893
7 *655:Q *102:2 0.671484
*END

*D_NET *103 0.00419478

*CONN
*I *364:A I *C 51.15 107.8 *L 0.00446 *D BUFX3
*I *663:Q O *C 35.31 124.6 *L 0 *D DFFRHQX1

*CAP
1 *364:A 0.000139839
2 *663:Q 8.23987e-05
3 *103:2 0.000265845
4 *103:3 0.000265845
5 *103:4 0.000257146
6 *103:5 0.000262473
7 *103:6 0.000255426
8 *103:7 0.000189237
9 *103:8 0.000117728
10 *103:9 0.000255426
11 *103:10 0.00045283
12 *103:11 0.000197937
13 *103:12 0.00045283
14 *103:13 8.89422e-05
15 *103:14 0.000102375
16 *103:15 0.000107709
17 *103:16 0.000149921
18 *103:16 *18:150 2.489e-05
19 *103:13 *18:151 2.489e-05
20 *103:11 *18:152 3.304e-05
21 *103:7 *18:153 3.304e-05
22 *103:12 *18:151 0.00010498
23 *103:10 *18:154 0.00010498
24 *103:15 *18:155 8.86e-06
25 *103:14 *18:156 8.86e-06
26 *103:2 *18:156 2.479e-05
27 *103:3 *18:157 2.479e-05
28 *103:2 *18:158 3.822e-05
29 *103:3 *18:159 3.822e-05
30 *103:4 *18:159 2.766e-05
31 *103:5 *18:160 2.766e-05
32 *103:9 *18:161 1.299e-05
33 *103:6 *18:162 1.29900011e-05

*RES
1 *103:5 *364:A 3.20000005
2 *103:5 *103:4 1.248
3 *103:3 *103:4 0.0919434
4 *103:3 *103:2 1.404
5 *103:2 *103:14 0.0919434
6 *103:14 *103:15 0.624023
7 *103:16 *103:15 3.20000005
8 *103:13 *103:16 0.367725
9 *103:12 *103:13 0.156006
10 *103:10 *103:12 2.75786
11 *103:10 *103:11 0.156006
12 *103:7 *103:11 0.919287
13 *103:6 *103:7 3.20000005
14 *103:6 *103:9 0.77998
15 *103:8 *103:9 3.20000005
16 *663:Q *103:8 0.447656
*END

*D_NET *104 0.00202742

*CONN
*I *370:A I *C 55.11 107.8 *L 0.00446 *D BUFX3
*I *653:Q O *C 51.15 117.32 *L 0 *D DFFRHQX1

*CAP
1 *370:A 7.97344e-05
2 *653:Q 8.34606e-05
3 *104:2 0.000145788
4 *104:3 0.00044807
5 *104:4 0.000118795
6 *104:5 0.00044807
7 *104:6 0.000228913
8 *104:7 0.000259639
9 *104:5 *17:88 5.86e-05
10 *104:3 *17:89 5.86e-05
11 *104:5 *17:89 4.888e-05
12 *104:3 *17:90 4.88800029e-05

*RES
1 *104:6 *370:A 0.447656
2 *104:6 *104:7 0.759668
3 *104:2 *104:7 0.447656
4 *104:3 *104:2 3.20000005
5 *104:3 *104:5 2.02798
6 *104:4 *104:5 3.20000005
7 *653:Q *104:4 0.447656
*END

*D_NET *105 0.00284892

*CONN
*I *365:A I *C 40.59 97.72 *L 0.00446 *D BUFX3
*I *657:Q O *C 34.65 114.52 *L 0 *D DFFRHQX1

*CAP
1 *365:A 0.000139841
2 *657:Q 0.0001236
3 *105:2 0.000460781
4 *105:3 0.000460781
5 *105:4 0.00047687
6 *105:5 0.00040719
7 *105:6 0.000193266
8 *105:7 0.000158928
9 *105:8 0.000193266
10 *105:2 *17:166 5.86e-05
11 *105:3 *17:83 5.86e-05
12 *105:2 *17:83 5.86e-05
13 *105:3 *17:84 5.86000038e-05

*RES
1 *105:5 *365:A 3.20000005
2 *105:5 *105:4 1.87202
3 *105:8 *105:4 3.20000005
4 *105:6 *105:8 1.10312
5 *105:3 *105:6 3.20000005
6 *105:3 *105:2 2.18398
7 *105:7 *105:2 3.20000005
8 *657:Q *105:7 0.671484
*END

*D_NET *106 0.00381446

*CONN
*I *359:A I *C 35.31 77.56 *L 0.00446 *D BUFX3
*I *648:Q O *C 34.65 107.24 *L 0 *D DFFRHQX1

*CAP
1 *359:A 0.000139847
2 *648:Q 4.1213e-05
3 *106:2 0.00162411
4 *106:3 0.00155442
5 *106:4 7.65278e-05
6 *106:2 *18:55 3.8e-05
7 *106:3 *18:56 3.8e-05
8 *106:2 *18:56 3.283e-05
9 *106:3 *18:57 3.283e-05
10 *106:2 *18:57 3.2e-05
11 *106:3 *18:58 3.2e-05
12 *106:2 *18:59 1.034e-05
13 *106:3 *18:60 1.034e-05
14 *106:2 *18:60 4.317e-05
15 *106:3 *18:61 4.317e-05
16 *106:2 *18:61 3.283e-05
17 *106:3 *18:62 3.28300023e-05

*RES
1 *106:3 *359:A 3.20004
2 *106:3 *106:2 8.26799965
3 *106:4 *106:2 3.20004
4 *648:Q *106:4 0.223807
*END

*D_NET *107 0.00391621

*CONN
*I *362:A I *C 37.95 77.56 *L 0.00446 *D BUFX3
*I *647:Q O *C 34.65 104.44 *L 0 *D DFFRHQX1

*CAP
1 *362:A 0.000139835
2 *647:Q 0.000139835
3 *107:2 0.000228302
4 *107:3 0.000158619
5 *107:4 0.000184827
6 *107:5 0.000184827
7 *107:6 0.00090447
8 *107:7 0.00090447
9 *107:8 0.000120596
10 *107:9 0.000129125
11 *107:10 5.94423e-05
12 *107:6 *17:187 7.556e-05
13 *107:7 *17:188 7.556e-05
14 *107:6 *17:188 4.557e-05
15 *107:7 *17:189 4.557e-05
16 *107:6 *17:189 4.557e-05
17 *107:7 *17:190 4.557e-05
18 *107:6 *17:190 2.181e-05
19 *107:7 *17:191 2.18100085e-05
20 *107:6 *101:5 0.00019241
21 *107:7 *101:4 0.000192409993

*RES
1 *107:3 *362:A 3.19999
2 *107:3 *107:2 0.779986
3 *107:4 *107:2 3.19999
4 *107:5 *107:4 0.735392
5 *107:7 *107:5 3.19999
6 *107:7 *107:6 5.92799997
7 *107:10 *107:6 3.19999
8 *107:9 *107:10 0.183893
9 *107:8 *107:9 3.19999
10 *647:Q *107:8 3.19999
*END

*D_NET *108 0.00040418

*CONN
*I *367:A I *C 37.95 97.72 *L 0.00446 *D BUFX3
*I *662:Q O *C 34.65 97.16 *L 0 *D DFFRHQX1

*CAP
1 *367:A 0.00020209
2 *662:Q 0.00020209

*RES
1 *662:Q *367:A 1.11913
*END

*D_NET *109 0.00118449

*CONN
*I *368:A I *C 33.99 93.8 *L 0.00446 *D BUFX3
*I *658:Q O *C 34.65 87.08 *L 0 *D DFFRHQX1

*CAP
1 *368:A 7.97258e-05
2 *658:Q 0.000139843
3 *109:2 0.00036128
4 *109:3 0.000115057
5 *109:4 0.00033564
6 *109:5 0.000152941

*RES
1 *109:3 *368:A 0.447656
2 *109:4 *109:3 3.20000005
3 *109:5 *658:Q 3.20000005
4 *109:2 *109:4 1.09199
5 *109:2 *109:5 0.551562
*END

*D_NET *110 0.0031612

*CONN
*I *366:A I *C 51.81 77.56 *L 0.00446 *D BUFX3
*I *649:Q O *C 34.65 84.28 *L 0 *D DFFRHQX1

*CAP
1 *366:A 0.000584042
2 *649:Q 0.000139837
3 *110:2 0.00061937
4 *110:3 0.000329197
5 *110:4 0.000329197
6 *110:5 0.000120595
7 *110:6 0.000554319
8 *110:7 0.000484637

*RES
1 *110:2 *366:A 3.13354
2 *110:4 *110:2 3.20000005
3 *110:4 *110:3 1.09199
4 *110:7 *110:3 3.20000005
5 *110:6 *110:7 2.2063
6 *110:5 *110:6 3.20000005
7 *649:Q *110:5 3.20000005
*END

*D_NET *111 0.0053769

*CONN
*I *361:A I *C 49.83 97.72 *L 0.00446 *D BUFX3
*I *660:Q O *C 34.65 74.2 *L 0 *D DFFRHQX1

*CAP
1 *361:A 3.98663e-05
2 *660:Q 0.000139825
3 *111:2 0.0012782
4 *111:3 0.0012782
5 *111:4 0.000433459
6 *111:5 0.000356886
7 *111:6 0.000120594
8 *111:7 0.000582099
9 *111:8 0.000582099
10 *111:9 0.000151742
11 *111:2 *113:13 0.00018144
12 *111:3 *113:11 0.00018144
13 *111:2 *113:9 5.17e-06
14 *111:3 *113:8 5.17e-06
15 *111:2 *113:7 9.34e-06
16 *111:3 *113:5 9.34e-06
17 *111:4 *360:A 1.101e-05
18 *111:5 *113:12 1.10099954e-05

*RES
1 *111:9 *361:A 0.223874
2 *111:9 *111:4 0.569754
3 *111:5 *111:4 1.79056
4 *111:2 *111:5 3.2
5 *111:3 *111:2 7.01999998
6 *111:8 *111:3 3.2
7 *111:7 *111:8 2.57401
8 *111:6 *111:7 3.2
9 *660:Q *111:6 3.2
*END

*D_NET *112 0.00759404

*CONN
*I *358:A I *C 57.75 107.8 *L 0.00446 *D BUFX3
*I *656:Q O *C 34.65 66.92 *L 0 *D DFFRHQX1

*CAP
1 *358:A 0.000139836
2 *656:Q 0.000139836
3 *112:2 0.00231711
4 *112:3 0.00226224
5 *112:4 0.00130583
6 *112:5 0.00123618
7 *112:6 0.000120602
8 *112:7 7.24108e-05

*RES
1 *112:2 *358:A 3.20008
2 *112:3 *112:2 10.6079998
3 *112:7 *112:3 0.183879
4 *112:4 *112:7 3.20008
5 *112:5 *112:4 6.25107
6 *112:6 *112:5 3.20008
7 *656:Q *112:6 3.20008
*END

*D_NET *113 0.00591926

*CONN
*I *360:A I *C 47.19 97.72 *L 0.00446 *D BUFX3
*I *650:Q O *C 35.31 64.12 *L 0 *D DFFRHQX1

*CAP
1 *360:A 6.8723e-05
2 *650:Q 0.00037457
3 *113:2 0.000409896
4 *113:3 0.000395938
5 *113:4 0.000341048
6 *113:5 0.000137876
7 *113:6 0.000406622
8 *113:7 0.000192752
9 *113:8 0.000237832
10 *113:9 0.000237832
11 *113:10 0.000406622
12 *113:11 0.0009093
13 *113:12 0.000104049
14 *113:13 0.0009093
15 *113:13 *18:63 2.864e-05
16 *113:11 *18:64 2.864e-05
17 *113:13 *18:65 3.283e-05
18 *113:11 *18:66 3.283e-05
19 *113:13 *18:66 5.351e-05
20 *113:11 *18:67 5.351e-05
21 *113:13 *18:68 3.458e-05
22 *113:11 *18:69 3.458e-05
23 *113:13 *18:70 2.659e-05
24 *113:11 *18:71 2.659e-05
25 *113:9 *18:72 1.034e-05
26 *113:8 *18:73 1.03399952e-05
27 *113:13 *111:2 0.00018144
28 *113:11 *111:3 0.00018144
29 *113:9 *111:2 5.17e-06
30 *113:8 *111:3 5.17e-06
31 *113:7 *111:2 9.34e-06
32 *113:5 *111:3 9.34e-06
33 *360:A *111:4 1.101e-05
34 *113:12 *111:5 1.10099954e-05

*RES
1 *113:12 *360:A 0.447657
2 *113:13 *113:12 3.19999
3 *113:11 *113:13 5.92799997
4 *113:10 *113:11 3.19999
5 *113:6 *113:10 1.56676
6 *113:7 *113:6 3.19999
7 *113:5 *113:7 0.46801
8 *113:5 *113:9 0.183893
9 *113:8 *113:9 1.248
10 *113:4 *113:8 0.183893
11 *113:3 *113:4 1.716
12 *113:2 *113:3 3.19999
13 *650:Q *113:2 2.01441
*END

*D_NET *114 0.00876573

*CONN
*I *356:A I *C 60.39 107.8 *L 0.00446 *D BUFX3
*I *659:Q O *C 35.31 56.84 *L 0 *D DFFRHQX1

*CAP
1 *356:A 0.000139813
2 *659:Q 0.000139813
3 *114:2 0.00118841
4 *114:3 0.00118841
5 *114:4 0.000120621
6 *114:5 0.00269332
7 *114:6 0.000240708
8 *114:7 0.00269332
9 *114:8 0.000120621
10 *114:9 0.000240708

*RES
1 *114:8 *356:A 3.20006
2 *114:9 *114:8 3.20006
3 *114:6 *114:9 1.10319
4 *114:7 *114:6 3.20006
5 *114:5 *114:7 13.4160004
6 *114:2 *114:5 3.20006
7 *114:3 *114:2 5.88342
8 *114:4 *114:3 3.20006
9 *659:Q *114:4 3.20006
*END

*D_NET *115 0.00874727

*CONN
*I *357:A I *C 35.31 117.88 *L 0.00446 *D BUFX3
*I *651:Q O *C 35.31 54.04 *L 0 *D DFFRHQX1

*CAP
1 *357:A 0.00013983
2 *651:Q 0.000329593
3 *115:2 0.000258855
4 *115:3 0.000258855
5 *115:4 0.000176365
6 *115:5 0.000176365
7 *115:6 0.000364939
8 *115:7 0.000120579
9 *115:8 0.000120579
10 *115:9 0.00292696
11 *115:10 0.00299665
12 *115:10 *17:187 9.114e-05
13 *115:9 *17:188 9.114e-05
14 *115:10 *17:188 4.557e-05
15 *115:9 *17:189 4.557e-05
16 *115:10 *17:189 4.557e-05
17 *115:9 *17:190 4.557e-05
18 *115:10 *17:190 8.298e-05
19 *115:9 *17:191 8.298e-05
20 *115:10 *17:191 0.00013062
21 *115:9 *17:192 0.00013062
22 *115:10 *17:192 3.544e-05
23 *115:9 *17:193 3.544e-05
24 *115:2 *17:176 7.53e-06
25 *115:3 *17:177 7.53001332e-06

*RES
1 *115:4 *357:A 3.19998
2 *115:5 *115:4 0.467936
3 *115:3 *115:5 3.19998
4 *115:3 *115:2 1.47092
5 *115:10 *115:2 3.19998
6 *115:9 *115:10 17.316
7 *115:8 *115:9 3.19998
8 *115:7 *115:8 3.19998
9 *115:6 *115:7 3.19998
10 *651:Q *115:6 1.79063
*END

*D_NET *116 0.00340724

*CONN
*I *363:A I *C 23.43 27.16 *L 0.00446 *D BUFX3
*I *652:Q O *C 35.31 36.68 *L 0 *D DFFRHQX1

*CAP
1 *363:A 3.98589e-05
2 *652:Q 0.000139839
3 *116:2 0.000151752
4 *116:3 0.00036177
5 *116:4 0.00043594
6 *116:5 0.000287181
7 *116:6 0.00043594
8 *116:7 0.000161691
9 *116:8 0.000159722
10 *116:9 0.000197266
11 *116:10 0.000142386
12 *116:11 0.000141987
13 *116:12 0.000196866
14 *116:13 0.000277522
15 *116:14 0.000277522

*RES
1 *116:12 *652:Q 3.20000005
2 *116:11 *116:12 0.468018
3 *116:11 *116:14 0.183838
4 *116:13 *116:14 1.248
5 *116:10 *116:13 0.183838
6 *116:9 *116:10 0.468018
7 *116:8 *116:9 3.20000005
8 *116:7 *116:8 0.671484
9 *116:6 *116:7 0.189893
10 *116:4 *116:6 2.23828
11 *116:4 *116:5 0.189893
12 *116:3 *116:5 1.34297
13 *116:2 *363:A 0.223828
14 *116:2 *116:3 0.569727
*END

*D_NET *117 0.00332931

*CONN
*I *630:A1 I *C 97.35 93.24 *L 0.00472 *D AOI22X1
*I *388:Q O *C 111.21 98.84 *L 0 *D JKFFRXL

*CAP
1 *630:A1 6.33047e-05
2 *388:Q 0.000139841
3 *117:2 0.000436610469
4 *117:3 0.00036693
5 *117:4 0.00042268
6 *117:5 6.42307e-05
7 *117:6 0.000133911
8 *117:7 0.00042268
9 *117:7 *74:7 6.242e-05
10 *117:4 *74:8 6.242e-05
11 *117:7 *74:9 6.338e-05
12 *117:4 *74:10 6.338e-05
13 *117:7 *74:10 0.00021951
14 *117:4 *74:11 0.00021951
15 *117:6 *74:5 4.41e-06
16 *117:5 *74:6 4.41e-06
17 *117:2 *74:3 2.531e-05
18 *117:3 *74:4 2.53100139e-05
19 *117:7 *17:162 0.00025457
20 *117:4 *17:163 0.00025457
21 *117:2 *17:99 9.96e-06
22 *117:3 *17:156 9.95997633e-06

*RES
1 *117:5 *388:Q 3.2
2 *117:5 *117:6 0.155957
3 *117:7 *117:6 3.2
4 *117:4 *117:7 3.86104
5 *117:2 *117:4 3.2
6 *117:3 *117:2 1.71602
7 *630:A1 *117:3 6.4000001
*END

*D_NET *118 0.000695842

*CONN
*I *636:A1 I *C 82.17 47.88 *L 0.00472 *D AOI22X1
*I *392:Q O *C 82.17 52.36 *L 0 *D JKFFRXL

*CAP
1 *636:A1 6.33026e-05
2 *392:Q 0.000139841
3 *118:2 0.00024635
4 *118:3 0.00024635

*RES
1 *118:3 *392:Q 3.2
2 *118:2 *118:3 1.24805
3 *636:A1 *118:2 6.4000001
*END

*D_NET *119 0.0014209

*CONN
*I *637:A1 I *C 85.47 37.8 *L 0.00472 *D AOI22X1
*I *375:Q O *C 80.85 42.28 *L 0 *D JKFFRXL

*CAP
1 *637:A1 6.32996e-05
2 *375:Q 9.91284e-05
3 *119:2 0.000190289
4 *119:3 0.000173719
5 *119:4 0.000151029
6 *119:5 0.000105979
7 *119:6 0.000190679
8 *119:7 0.00024574
9 *119:7 *78:12 0.00010052
10 *119:6 *78:13 0.000100519997

*RES
1 *119:6 *637:A1 6.4000001
2 *119:6 *119:7 0.936035
3 *119:5 *119:7 0.367676
4 *119:4 *119:5 6.4000001
5 *119:2 *119:4 0.447656
6 *119:2 *119:3 0.379785
7 *375:Q *119:3 0.671484
*END

*D_NET *120 0.00513816

*CONN
*I *631:A1 I *C 93.39 93.24 *L 0.00472 *D AOI22X1
*I *376:Q O *C 111.21 108.92 *L 0 *D JKFFRXL

*CAP
1 *631:A1 6.33017e-05
2 *376:Q 0.000139843
3 *120:2 0.00074479
4 *120:3 0.00074479
5 *120:4 0.000295245
6 *120:5 0.000295245
7 *120:6 0.00045567
8 *120:7 0.000525348
9 *120:8 7.14957e-05
10 *120:9 0.000141173
11 *120:10 0.000579864
12 *120:11 0.000579864
13 *120:6 *327:8 0.00025076
14 *120:7 *327:9 0.00025076

*RES
1 *120:8 *376:Q 3.2
2 *120:9 *120:8 0.312012
3 *120:11 *120:9 3.2
4 *120:10 *120:11 2.75781
5 *120:2 *120:10 3.2
6 *120:3 *120:2 2.96396
7 *120:6 *120:3 3.2
8 *120:7 *120:6 2.20625
9 *120:4 *120:7 3.2
10 *120:5 *120:4 1.09199
11 *631:A1 *120:5 6.4000001
*END

*D_NET *121 0.0045316

*CONN
*I *646:B0 I *C 80.19 38.36 *L 0.00406 *D AOI2BB1X1
*I *636:B1 I *C 80.19 47.32 *L 0.00434 *D AOI22X1
*I *391:Q O *C 65.01 48.44 *L 0 *D JKFFRXL

*CAP
1 *646:B0 0.000139839
2 *636:B1 0.000139839
3 *391:Q 0.000139839
4 *121:3 0.000481662
5 *121:4 0.00048523
6 *121:5 0.000149187
7 *121:6 0.00059842
8 *121:7 0.0006681
9 *121:8 7.16779e-05
10 *121:9 7.16779e-05
11 *121:6 *334:17 7.402e-05
12 *121:7 *334:18 7.402e-05
13 *121:6 *334:10 4.896e-05
14 *121:7 *334:11 4.896e-05
15 *121:6 *334:11 2.489e-05
16 *121:7 *334:19 2.489e-05
17 *121:6 *334:20 7.045e-05
18 *121:7 *334:21 7.045e-05
19 *121:5 *334:12 1.437e-05
20 *121:3 *334:13 1.437e-05
21 *121:9 *334:6 4.151e-05
22 *121:8 *334:7 4.15100118e-05
23 *121:6 *340:11 9.911e-05
24 *121:7 *340:9 9.911e-05
25 *121:6 *340:9 0.00011252
26 *121:7 *340:10 0.000112519996
27 *121:5 *130:8 2.089e-05
28 *121:3 *130:9 2.089e-05
29 *121:3 *130:8 0.00028635
30 *121:4 *130:9 0.000286350002

*RES
1 *121:4 *646:B0 3.19999
2 *121:3 *636:B1 3.19999
3 *121:4 *121:3 2.49602
4 *121:3 *121:5 0.624022
5 *121:6 *121:5 3.19999
6 *121:7 *121:6 4.22871447
7 *121:9 *121:7 3.19999
8 *121:8 *121:9 0.311979
9 *391:Q *121:8 3.19999
*END

*D_NET *122 0.00462169

*CONN
*I *645:B0 I *C 103.95 92.68 *L 0.00314 *D AOI2BB1XL
*I *630:B1 I *C 95.37 93.8 *L 0.00434 *D AOI22X1
*I *387:Q O *C 93.39 112.84 *L 0 *D JKFFRXL

*CAP
1 *645:B0 6.33011e-05
2 *630:B1 0.000139842
3 *387:Q 0.000139842
4 *122:3 0.000782673
5 *122:4 0.00079747
6 *122:5 0.000306625
7 *122:6 0.000202388
8 *122:7 0.000127454
9 *122:8 0.000197132
10 *122:9 0.000502259
11 *122:10 0.000571937
12 *122:11 0.000329161
13 *122:12 0.000288907
14 *122:13 0.000172685

*RES
1 *122:7 *645:B0 6.4000001
2 *122:8 *122:7 0.467969
3 *122:9 *122:8 3.2
4 *122:10 *122:9 2.39014
5 *122:6 *122:10 3.2
6 *122:5 *630:B1 3.2
7 *122:6 *122:5 0.77998
8 *122:5 *122:13 0.467969
9 *122:11 *122:13 0.367676
10 *122:11 *122:12 1.24805
11 *122:3 *387:Q 3.2
12 *122:4 *122:12 0.183887
13 *122:4 *122:3 3.58799
*END

*D_NET *123 0.00371526

*CONN
*I *644:B0 I *C 85.47 42.28 *L 0.00314 *D AOI2BB1XL
*I *637:B1 I *C 83.49 37.24 *L 0.00434 *D AOI22X1
*I *374:Q O *C 66.99 38.36 *L 0 *D JKFFRXL

*CAP
1 *644:B0 6.3298e-05
2 *637:B1 0.000139841
3 *374:Q 0.000139841
4 *123:3 9.22936e-05
5 *123:4 0.000161971
6 *123:5 0.000481680391
7 *123:6 0.000386359
8 *123:7 0.000423785
9 *123:8 0.000454258
10 *123:9 0.00043248
11 *123:10 0.000454258
12 *123:11 0.000108603
13 *123:12 9.99008e-05
14 *123:13 9.06913e-05
15 *123:14 0.000186013

*RES
1 *123:13 *644:B0 6.4000001
2 *123:13 *123:14 0.312012
3 *123:5 *123:14 0.551562
4 *123:6 *637:B1 3.2
5 *123:6 *123:5 1.71602
6 *123:12 *123:6 6.4000001
7 *123:11 *123:12 0.367676
8 *123:10 *123:11 0.155957
9 *123:8 *123:10 2.20625
10 *123:8 *123:9 0.155957
11 *123:7 *123:9 2.02246
12 *123:3 *374:Q 3.2
13 *123:4 *123:7 3.2
14 *123:4 *123:3 0.312012
*END

*D_NET *124 0.00329526

*CONN
*I *643:B0 I *C 100.65 92.68 *L 0.00314 *D AOI2BB1XL
*I *631:B1 I *C 91.41 93.8 *L 0.00434 *D AOI22X1
*I *373:Q O *C 92.73 98.84 *L 0 *D JKFFRXL

*CAP
1 *643:B0 6.32976e-05
2 *631:B1 0.000139843
3 *373:Q 0.000139843
4 *124:3 0.000212005
5 *124:4 0.000273755
6 *124:5 0.0004567
7 *124:6 0.0004567
8 *124:7 0.000187307
9 *124:8 0.000172694
10 *124:9 0.000185063
11 *124:10 0.000254737
12 *124:5 *342:28 0.00037666
13 *124:6 *342:26 0.000376660002

*RES
1 *124:9 *643:B0 6.4000001
2 *124:9 *124:10 0.77998
3 *124:5 *124:10 3.2
4 *124:6 *124:5 2.20625
5 *124:3 *373:Q 3.2
6 *124:4 *124:6 3.2
7 *124:4 *124:3 0.936035
8 *124:8 *124:4 0.367676
9 *124:7 *124:8 0.467969
10 *631:B1 *124:7 3.2
*END

*D_NET *125 0.00445334

*CONN
*I *642:B I *C 72.27 68.04 *L 0.00385 *D NOR2X1
*I *634:B0 I *C 75.57 68.04 *L 0.00325 *D AOI22XL
*I *382:Q O *C 53.13 72.52 *L 0 *D JKFFRXL

*CAP
1 *642:B 3.73076e-05
2 *634:B0 0.000118737
3 *382:Q 0.000139834
4 *125:3 0.00011444
5 *125:4 0.00018412
6 *125:5 0.000161258
7 *125:6 0.000123983
8 *125:7 0.00107094
9 *125:8 0.00107094
10 *125:9 0.000152384
11 *125:10 0.000143576
12 *125:11 0.000188107
13 *125:12 0.000127235
14 *125:13 7.71645e-05
15 *125:14 7.71645e-05
16 *125:15 0.00015799
17 *125:16 0.000254078
18 *125:17 0.000254078

*RES
1 *642:B *125:13 0.189941
2 *125:13 *125:14 0.223828
3 *125:14 *125:6 0.189941
4 *125:6 *125:5 0.447656
5 *125:15 *125:5 0.379785
6 *125:15 *634:B0 0.447656
7 *125:16 *634:B0 6.4000001
8 *125:16 *125:17 0.77998
9 *125:11 *125:17 3.2
10 *125:12 *125:11 0.551562
11 *125:12 *125:7 0.155957
12 *125:8 *125:7 5.14805
13 *125:9 *125:8 0.155957
14 *125:10 *125:9 0.551562
15 *125:3 *382:Q 3.2
16 *125:4 *125:10 3.2
17 *125:4 *125:3 0.467969
*END

*D_NET *126 0.00263796

*CONN
*I *642:A I *C 72.93 67.48 *L 0.0043 *D NOR2X1
*I *634:A1 I *C 76.89 68.04 *L 0.00344 *D AOI22XL
*I *389:Q O *C 66.99 62.44 *L 0 *D JKFFRXL

*CAP
1 *642:A 6.33014e-05
2 *634:A1 6.33014e-05
3 *389:Q 7.5612e-05
4 *126:3 0.000318781
5 *126:4 0.000319429
6 *126:5 0.00020197
7 *126:6 0.000216592
8 *126:7 0.000112911
9 *126:8 0.000189644
10 *126:9 0.00019161
11 *126:10 6.78123e-05
12 *126:11 0.0003482
13 *126:12 0.000120599
14 *126:13 0.0003482

*RES
1 *126:12 *634:A1 6.4000001
2 *126:13 *126:12 3.2
3 *126:11 *126:13 1.10312
4 *126:10 *126:11 3.2
5 *126:3 *642:A 6.4000001
6 *126:3 *126:10 0.155957
7 *126:4 *126:3 0.77998
8 *126:5 *126:4 0.367676
9 *126:6 *126:5 0.77998
10 *126:8 *126:6 3.2
11 *126:9 *126:8 1.11914
12 *126:9 *126:7 0.189941
13 *389:Q *126:7 0.447656
*END

*D_NET *127 0.00410375

*CONN
*I *641:B I *C 123.75 78.12 *L 0.00385 *D NOR2X1
*I *629:B0 I *C 122.43 83.16 *L 0.00325 *D AOI22XL
*I *380:Q O *C 143.55 82.6 *L 0 *D JKFFRXL

*CAP
1 *641:B 3.98426e-05
2 *629:B0 6.32957e-05
3 *380:Q 0.00013984
4 *127:3 0.000252158
5 *127:4 0.000403374
6 *127:5 0.000147261
7 *127:6 0.00106662
8 *127:7 0.00102354
9 *127:8 0.000151705
10 *127:9 0.000142102
11 *127:10 0.000212657
12 *127:11 0.000180724
13 *127:12 0.000169575
14 *127:13 0.000111032

*RES
1 *127:13 *380:Q 3.2
2 *127:11 *127:13 0.467969
3 *127:12 *127:11 3.2
4 *127:10 *127:12 0.735449
5 *127:6 *127:10 0.312012
6 *127:8 *641:B 0.223828
7 *127:3 *629:B0 6.4000001
8 *127:7 *127:6 5.14805
9 *127:9 *127:8 3.2
10 *127:4 *127:3 0.936035
11 *127:4 *127:7 3.2
12 *127:5 *127:9 0.183887
13 *127:5 *127:4 0.467969
*END

*D_NET *128 0.00507994

*CONN
*I *641:A I *C 124.41 77.56 *L 0.0043 *D NOR2X1
*I *629:A1 I *C 123.75 83.16 *L 0.00344 *D AOI22XL
*I *386:Q O *C 129.03 108.92 *L 0 *D JKFFRXL

*CAP
1 *641:A 6.32955e-05
2 *629:A1 6.32955e-05
3 *386:Q 0.000139822
4 *128:3 0.00055062
5 *128:4 0.000620305
6 *128:5 0.00112202
7 *128:6 0.00140995
8 *128:7 0.000385819
9 *128:8 0.000329558
10 *128:9 6.57052e-05
11 *128:10 0.000329558

*RES
1 *128:3 *386:Q 3.2
2 *128:4 *128:3 2.496
3 *128:10 *128:4 3.2
4 *128:8 *128:10 1.4709
5 *128:5 *128:8 3.2
6 *128:9 *641:A 6.4000001
7 *128:6 *629:A1 6.4000001
8 *128:6 *128:5 4.67998
9 *128:7 *128:9 0.183887
10 *128:7 *128:6 1.55996
*END

*D_NET *129 0.00227205

*CONN
*I *639:B1 I *C 86.79 67.48 *L 0.00434 *D AOI22X1
*I *556:A1 I *C 84.81 68.04 *L 0.00456 *D OAI22X1
*I *423:Q O *C 82.17 56.84 *L 0 *D DFFRX1

*CAP
1 *639:B1 3.98625e-05
2 *556:A1 6.32993e-05
3 *423:Q 0.000164789
4 *129:3 0.000202096
5 *129:4 9.22081e-05
6 *129:5 0.000105974
7 *129:6 9.02416e-05
8 *129:7 0.000142103
9 *129:8 0.000543559
10 *129:9 7.51934e-05
11 *129:10 0.00062259
12 *129:11 0.000130133

*RES
1 *129:5 *556:A1 6.4000001
2 *129:9 *639:B1 0.223828
3 *129:5 *129:11 0.367676
4 *129:10 *129:9 3.2
5 *129:10 *129:11 0.312012
6 *129:8 *129:10 2.18398
7 *129:7 *129:8 0.183887
8 *129:6 *129:7 3.2
9 *129:4 *129:6 0.223828
10 *129:3 *129:4 0.189941
11 *423:Q *129:3 0.895312
*END

*D_NET *130 0.00779254

*CONN
*I *638:B0 I *C 96.69 37.8 *L 0.00433 *D AOI22X1
*I *637:B0 I *C 84.15 37.8 *L 0.00433 *D AOI22X1
*I *636:B0 I *C 80.85 47.88 *L 0.00433 *D AOI22X1
*I *426:Q O *C 116.49 36.68 *L 0 *D DFFRX1

*CAP
1 *638:B0 0.00013984
2 *637:B0 0.00013984
3 *636:B0 0.00013984
4 *426:Q 0.00013984
5 *130:4 0.000122899
6 *130:5 0.00019258
7 *130:6 0.000194297
8 *130:7 0.000194297
9 *130:8 0.000501418
10 *130:9 0.000571098906
11 *130:10 0.000299732
12 *130:11 0.000498177
13 *130:12 0.000171308
14 *130:13 0.000316873
15 *130:14 0.000419355
16 *130:15 0.000436243
17 *130:16 0.000436243
18 *130:17 0.00031703
19 *130:18 0.00031703
20 *130:19 0.000278356
21 *130:20 0.00012683
22 *130:21 9.58237e-05
23 *130:22 0.000147064
24 *130:23 5.64171e-05
25 *130:24 0.000126098
26 *130:25 0.000318956
27 *130:26 0.000244622
28 *130:27 0.000235917
29 *130:8 *121:5 2.089e-05
30 *130:9 *121:3 2.089e-05
31 *130:8 *121:3 0.00028635
32 *130:9 *121:4 0.000286350002

*RES
1 *130:4 *426:Q 3.20000005
2 *130:5 *130:4 0.468018
3 *130:27 *130:5 3.20000005
4 *130:26 *130:27 1.10312
5 *130:26 *130:15 0.156006
6 *130:16 *130:15 2.2063
7 *130:16 *130:13 0.156006
8 *130:23 *638:B0 3.20000005
9 *130:14 *130:13 1.28701
10 *130:23 *130:24 0.156006
11 *130:14 *130:25 0.624023
12 *130:19 *130:24 3.20000005
13 *130:19 *130:25 0.919287
14 *130:20 *130:19 0.183838
15 *130:20 *130:22 0.312012
16 *130:21 *130:22 0.367725
17 *130:21 *130:17 0.0779785
18 *130:7 *637:B0 3.20000005
19 *130:18 *130:17 1.28701
20 *130:7 *130:6 0.468018
21 *130:10 *130:18 0.0779785
22 *130:11 *130:6 3.20000005
23 *130:11 *130:10 1.65474
24 *130:8 *636:B0 3.20000005
25 *130:12 *130:11 0.919287
26 *130:9 *130:8 2.33999
27 *130:9 *130:12 3.20000005
*END

*D_NET *131 0.00282923

*CONN
*I *635:B1 I *C 80.19 73.64 *L 0.00434 *D AOI22X1
*I *633:A1 I *C 78.21 73.08 *L 0.00472 *D AOI22X1
*I *379:Q O *C 67.65 68.6 *L 0 *D JKFFRXL

*CAP
1 *635:B1 3.98529e-05
2 *633:A1 6.32963e-05
3 *379:Q 0.000139839
4 *131:3 0.000161753
5 *131:4 9.20693e-05
6 *131:5 0.0002954
7 *131:6 0.000324502
8 *131:7 0.00067296
9 *131:8 0.00067296
10 *131:9 0.000109043
11 *131:10 7.51875e-05
12 *131:11 0.000182362

*RES
1 *131:10 *635:B1 0.223828
2 *131:11 *131:10 3.2
3 *131:9 *131:11 0.367676
4 *131:5 *633:A1 6.4000001
5 *131:5 *131:9 0.155957
6 *131:6 *131:5 0.936035
7 *131:7 *131:6 3.2
8 *131:8 *131:7 2.9417
9 *131:3 *131:8 3.2
10 *131:4 *131:3 0.312012
11 *379:Q *131:4 3.2
*END

*D_NET *132 0.002327

*CONN
*I *635:A1 I *C 82.17 73.08 *L 0.00472 *D AOI22X1
*I *633:B1 I *C 76.23 73.64 *L 0.00434 *D AOI22X1
*I *390:Q O *C 80.19 78.68 *L 0 *D JKFFRXL

*CAP
1 *635:A1 6.33011e-05
2 *633:B1 6.33011e-05
3 *390:Q 0.000139841
4 *132:3 0.000281801
5 *132:4 0.000307439
6 *132:5 0.00038238
7 *132:6 0.0003194
8 *132:7 0.000251641
9 *132:8 0.000251641
10 *132:9 8.54673e-05
11 *132:10 0.00018079

*RES
1 *132:9 *635:A1 6.4000001
2 *132:9 *132:10 0.467969
3 *132:4 *132:10 0.551562
4 *132:4 *132:3 1.09199
5 *132:3 *390:Q 3.2
6 *132:8 *132:3 3.2
7 *132:7 *132:8 1.10312
8 *132:5 *132:7 3.2
9 *132:6 *132:5 1.404
10 *633:B1 *132:6 6.4000001
*END

*D_NET *133 0.00516711

*CONN
*I *664:Y O *C 84.81 73.08 *L 0 *D INVX1
*I *639:A0 I *C 88.11 67.48 *L 0.00465 *D AOI22X1
*I *635:A0 I *C 81.51 73.64 *L 0.00465 *D AOI22X1
*I *634:A0 I *C 76.23 67.48 *L 0.0034 *D AOI22XL
*I *633:A0 I *C 77.55 73.64 *L 0.00465 *D AOI22X1
*I *457:D I *C 90.75 57.4 *L 0.00447 *D NAND4X1

*CAP
1 *664:Y 0.000139837
2 *639:A0 6.33033e-05
3 *635:A0 6.33033e-05
4 *634:A0 6.33033e-05
5 *633:A0 6.33033e-05
6 *457:D 3.98395e-05
7 *133:6 0.00074682
8 *133:7 0.00054401
9 *133:8 0.000202639
10 *133:9 0.000187847
11 *133:10 0.000135587
12 *133:11 0.000311423
13 *133:12 0.000447112
14 *133:13 0.00012794
15 *133:14 0.000142743
16 *133:15 0.000178036
17 *133:16 0.000178036
18 *133:17 0.000336459
19 *133:18 5.09162e-05
20 *133:19 0.000458246
21 *133:20 0.000274546
22 *133:21 7.51891e-05
23 *133:22 0.000182355
24 *133:23 7.71378e-05
25 *133:24 7.71606e-05

*RES
1 *133:23 *457:D 0.223828
2 *133:23 *133:24 0.189941
3 *133:21 *133:24 0.223828
4 *133:22 *133:21 3.2
5 *133:7 *133:22 0.367676
6 *133:6 *639:A0 6.4000001
7 *133:7 *133:6 2.496
8 *133:6 *133:12 1.09199
9 *133:11 *133:12 0.919238
10 *133:11 *133:10 0.624023
11 *133:10 *664:Y 3.2
12 *133:18 *635:A0 6.4000001
13 *133:20 *133:10 3.2
14 *133:19 *133:18 6.4000001
15 *133:19 *133:20 0.919238
16 *133:17 *133:19 1.10312
17 *133:13 *633:A0 6.4000001
18 *133:13 *133:17 3.2
19 *133:14 *133:13 0.467969
20 *133:15 *133:14 0.183887
21 *133:16 *133:15 0.624023
22 *133:8 *133:16 0.183887
23 *133:9 *133:8 0.624023
24 *634:A0 *133:9 6.4000001
*END

*D_NET *134 0.00268557

*CONN
*I *632:B1 I *C 119.79 87.64 *L 0.00434 *D AOI22X1
*I *627:A1 I *C 117.15 88.2 *L 0.00472 *D AOI22X1
*I *381:Q O *C 129.03 92.68 *L 0 *D JKFFRXL

*CAP
1 *632:B1 3.98578e-05
2 *627:A1 6.33059e-05
3 *381:Q 0.000139842
4 *134:3 0.00044056
5 *134:4 0.000431747
6 *134:5 0.000112683
7 *134:6 7.51644e-05
8 *134:7 0.00034071
9 *134:8 0.000278951
10 *134:9 7.71543e-05
11 *134:10 7.71409e-05
12 *134:11 0.000156144
13 *134:12 0.000120602
14 *134:13 0.000147331
15 *134:3 *169:4 9.219e-05
16 *134:4 *169:5 9.21900009e-05

*RES
1 *134:12 *381:Q 3.2
2 *134:13 *134:12 3.2
3 *134:11 *134:13 0.551562
4 *134:9 *632:B1 0.223828
5 *134:3 *134:11 0.155957
6 *134:9 *134:10 0.189941
7 *134:4 *134:3 2.39014
8 *134:6 *134:10 0.223828
9 *134:8 *134:4 3.2
10 *134:7 *134:6 3.2
11 *134:7 *134:8 1.09199
12 *134:5 *134:7 0.367676
13 *627:A1 *134:5 6.4000001
*END

*D_NET *135 0.00442835

*CONN
*I *632:A1 I *C 121.77 88.2 *L 0.00472 *D AOI22X1
*I *627:B1 I *C 115.17 87.64 *L 0.00434 *D AOI22X1
*I *385:Q O *C 129.03 98.84 *L 0 *D JKFFRXL

*CAP
1 *632:A1 6.32991e-05
2 *627:B1 0.000139837
3 *385:Q 0.000139837
4 *135:3 0.000247513
5 *135:4 0.000317188
6 *135:5 0.000416883
7 *135:6 0.000416883
8 *135:7 0.000346878
9 *135:8 0.000346878
10 *135:9 6.93126e-05
11 *135:10 0.000138987
12 *135:11 0.000446147
13 *135:12 0.00051583
14 *135:7 *169:4 0.00010032
15 *135:8 *169:5 0.000100319999
16 *135:5 *93:15 0.00031112
17 *135:6 *93:13 0.000311119994

*RES
1 *135:3 *385:Q 3.2
2 *135:4 *135:3 1.09199
3 *135:7 *135:4 3.2
4 *135:8 *135:7 2.02246
5 *135:12 *135:8 3.2
6 *135:11 *632:A1 6.4000001
7 *135:11 *135:12 1.87197
8 *135:5 *135:11 3.2
9 *135:6 *135:5 1.83857
10 *135:10 *135:6 3.2
11 *135:9 *135:10 0.155957
12 *627:B1 *135:9 3.2
*END

*D_NET *136 0.00429218

*CONN
*I *631:B0 I *C 92.07 93.24 *L 0.00433 *D AOI22X1
*I *630:B0 I *C 96.03 93.24 *L 0.00433 *D AOI22X1
*I *617:B1 I *C 90.09 77.56 *L 0.00307 *D AOI22XL
*I *425:Q O *C 94.71 87.08 *L 0 *D DFFRX1

*CAP
1 *631:B0 0.000139835
2 *630:B0 0.000139835
3 *617:B1 0.000139835
4 *425:Q 8.42722e-05
5 *136:4 0.000342727
6 *136:5 0.000356421
7 *136:6 0.000119613
8 *136:7 6.9391e-05
9 *136:8 0.00097232
10 *136:9 0.000876995
11 *136:10 0.000363528
12 *136:11 0.000363528
13 *136:12 0.00021295
14 *136:13 0.000110919

*RES
1 *425:Q *136:6 0.447648
2 *136:5 *136:6 3.2
3 *136:7 *630:B0 3.2
4 *136:5 *136:4 0.779995
5 *136:4 *136:7 0.311986
6 *136:10 *136:4 3.2
7 *136:13 *631:B0 3.2
8 *136:11 *136:10 1.10312
9 *136:12 *136:13 0.311986
10 *136:12 *136:11 3.2
11 *136:8 *136:12 0.551561
12 *136:9 *136:8 4.05600023
13 *617:B1 *136:9 3.2
*END

*D_NET *137 0.00555861

*CONN
*I *625:B1 I *C 123.75 73.64 *L 0.00434 *D AOI22X1
*I *555:A1 I *C 120.45 83.16 *L 0.00456 *D OAI22X1
*I *424:Q O *C 144.21 74.2 *L 0 *D DFFRX1

*CAP
1 *625:B1 0.000139839
2 *555:A1 0.000139839
3 *424:Q 0.000139839
4 *137:3 0.000138987
5 *137:4 0.000138987
6 *137:5 0.000225726
7 *137:6 0.000225726
8 *137:7 0.000909948
9 *137:8 0.00096183
10 *137:9 6.52815e-05
11 *137:10 0.000148953
12 *137:11 0.000218622
13 *137:12 0.000446256
14 *137:13 0.000446256
15 *137:14 0.000154486
16 *137:15 8.48013e-05
17 *137:12 *138:31 3.054e-05
18 *137:13 *138:32 3.054e-05
19 *137:12 *138:33 2.518e-05
20 *137:13 *138:29 2.518e-05
21 *137:12 *138:29 1.615e-05
22 *137:13 *138:30 1.615e-05
23 *137:7 *138:34 9.703e-05
24 *137:8 *138:35 9.703e-05
25 *137:7 *138:25 0.0001954
26 *137:8 *138:26 0.000195399996
27 *137:10 *337:6 0.00012231
28 *137:11 *337:5 0.000122310003

*RES
1 *137:15 *424:Q 3.20001
2 *137:6 *625:B1 3.20001
3 *137:15 *137:14 0.312043
4 *137:6 *137:5 0.467978
5 *137:7 *137:14 3.20001
6 *137:8 *137:5 3.20001
7 *137:8 *137:7 5.69957161
8 *137:9 *137:8 0.183852
9 *137:13 *137:9 3.20001
10 *137:13 *137:12 1.872
11 *137:10 *137:12 3.20001
12 *137:3 *555:A1 3.20001
13 *137:11 *137:10 0.735406
14 *137:4 *137:3 0.156022
15 *137:4 *137:11 3.20001
*END

*D_NET *138 0.0109963

*CONN
*I *632:B0 I *C 120.45 88.2 *L 0.00433 *D AOI22X1
*I *629:B1 I *C 121.77 83.72 *L 0.00307 *D AOI22XL
*I *627:B0 I *C 115.83 88.2 *L 0.00433 *D AOI22X1
*I *625:B0 I *C 124.41 73.08 *L 0.00433 *D AOI22X1
*I *462:B2 I *C 109.89 77.56 *L 0.00464 *D AOI33X1
*I *384:Q O *C 143.55 77 *L 0 *D DFFRX1

*CAP
1 *632:B0 0.000139837
2 *629:B1 0.000139837
3 *627:B0 0.000139837
4 *625:B0 0.000139837
5 *462:B2 0.000139837
6 *384:Q 0.000139837
7 *138:6 0.000218554
8 *138:7 0.000324433
9 *138:8 0.000151534
10 *138:9 0.000423822
11 *138:10 7.86932e-05
12 *138:11 0.00014167
13 *138:12 0.000194263
14 *138:13 0.000124577
15 *138:14 0.00028813
16 *138:15 0.00028813
17 *138:16 0.000410426
18 *138:17 0.000102512
19 *138:18 0.000432561
20 *138:19 0.000413124
21 *138:20 0.000315489
22 *138:21 0.000315489
23 *138:22 0.000234601
24 *138:23 0.000164914
25 *138:24 0.000244025
26 *138:25 0.00051551
27 *138:26 0.0005067
28 *138:27 0.000197252
29 *138:28 0.00014237
30 *138:29 0.000333361
31 *138:30 0.000285259
32 *138:31 0.000268559
33 *138:32 0.000268559
34 *138:33 0.000113824
35 *138:34 0.000468392
36 *138:35 0.000477194
37 *138:36 0.000120596
38 *138:37 0.000120596
39 *138:38 0.000120596
40 *138:31 *137:12 3.054e-05
41 *138:32 *137:13 3.054e-05
42 *138:33 *137:12 2.518e-05
43 *138:29 *137:13 2.518e-05
44 *138:29 *137:12 1.615e-05
45 *138:30 *137:13 1.615e-05
46 *138:34 *137:7 9.703e-05
47 *138:35 *137:8 9.703e-05
48 *138:25 *137:7 0.0001954
49 *138:26 *137:8 0.000195399996
50 *138:17 *199:5 0.00012393
51 *138:18 *199:6 0.00012393
52 *138:18 *199:5 0.00018752
53 *138:19 *199:6 0.000187519997

*RES
1 *138:38 *384:Q 3.2
2 *138:34 *138:38 3.2
3 *138:36 *625:B0 3.2
4 *138:35 *138:34 2.39014
5 *138:37 *138:36 3.2
6 *138:25 *138:35 0.155957
7 *138:30 *138:37 3.2
8 *138:26 *138:25 2.9417
9 *138:30 *138:29 0.936035
10 *138:29 *138:26 3.2
11 *138:23 *632:B0 3.2
12 *138:29 *138:33 0.467969
13 *138:23 *138:22 0.624023
14 *138:33 *138:32 0.183887
15 *138:20 *138:22 3.2
16 *138:32 *138:31 1.24805
17 *138:21 *138:20 1.28701
18 *138:28 *138:31 0.183887
19 *138:6 *138:21 3.2
20 *138:11 *629:B1 3.2
21 *138:28 *138:27 0.467969
22 *138:7 *627:B0 3.2
23 *138:7 *138:6 0.624023
24 *138:11 *138:10 0.155957
25 *138:17 *138:27 3.2
26 *138:24 *138:7 0.624023
27 *138:18 *138:10 6.4000001
28 *138:18 *138:17 0.735449
29 *138:8 *138:24 0.367676
30 *138:19 *138:18 2.02246
31 *138:9 *138:8 0.467969
32 *138:9 *138:19 3.2
33 *138:16 *138:9 1.24805
34 *138:14 *138:16 3.2
35 *138:15 *138:14 1.28701
36 *138:12 *138:15 3.2
37 *138:13 *138:12 0.624023
38 *462:B2 *138:13 3.2
*END

*D_NET *139 0.00408324

*CONN
*I *639:Y O *C 88.77 68.6 *L 0 *D AOI22X1
*I *609:A I *C 90.75 73.64 *L 0.00346 *D INVX1
*I *430:B1 I *C 95.37 56.84 *L 0.00468 *D AOI221X1

*CAP
1 *639:Y 0.000139842
2 *609:A 0.000139842
3 *430:B1 0.000139842
4 *139:3 8.90281e-05
5 *139:4 0.000103834
6 *139:5 0.00045468
7 *139:6 0.000385002
8 *139:7 7.24186e-05
9 *139:8 7.10587e-05
10 *139:9 0.000262241
11 *139:10 0.000331628
12 *139:11 0.00020202
13 *139:12 0.000331628
14 *139:5 *282:6 0.00020202
15 *139:6 *282:5 0.00020202
16 *139:5 *282:5 0.00013802
17 *139:6 *282:3 0.000138019994
18 *139:5 *253:5 0.00012399
19 *139:6 *253:6 0.00012399
20 *139:5 *253:6 0.00018143
21 *139:6 *253:7 0.00018143
22 *139:5 *253:10 3.463e-05
23 *139:6 *253:11 3.46299876e-05

*RES
1 *139:6 *430:B1 3.20001
2 *139:6 *139:5 3.43199992
3 *139:3 *609:A 3.20001
4 *139:12 *139:5 3.20001
5 *139:4 *139:3 0.31201
6 *139:10 *139:12 1.47086
7 *139:11 *139:4 0.183865
8 *139:9 *139:10 3.20001
9 *139:9 *139:11 0.935976
10 *139:8 *139:9 0.156005
11 *139:7 *139:8 0.183865
12 *639:Y *139:7 3.20001
*END

*D_NET *140 0.00148622

*CONN
*I *609:Y O *C 91.41 73.08 *L 0 *D INVX1
*I *448:A1 I *C 94.05 73.08 *L 0.00472 *D AOI22X1

*CAP
1 *609:Y 0.00013984
2 *448:A1 6.32992e-05
3 *140:2 0.00016045
4 *140:3 0.000230129434
5 *140:4 0.000100922
6 *140:5 0.000170598
7 *140:6 0.00022128
8 *140:7 0.000151597
9 *140:6 *312:3 0.00012405
10 *140:7 *312:4 0.000124050001

*RES
1 *140:2 *448:A1 6.4000001
2 *140:3 *140:2 0.467969
3 *140:6 *140:3 3.2
4 *140:7 *140:6 0.735449
5 *140:4 *609:Y 3.2
6 *140:5 *140:7 3.2
7 *140:5 *140:4 0.312012
*END

*D_NET *141 0.00222191

*CONN
*I *633:Y O *C 78.21 72.52 *L 0 *D AOI22X1
*I *608:B0 I *C 77.55 62.44 *L 0.00302 *D OAI21XL
*I *553:A0 I *C 79.53 67.48 *L 0.00336 *D OAI21XL

*CAP
1 *633:Y 0.000139839
2 *608:B0 0.000139839
3 *553:A0 0.000139839
4 *141:3 0.00047679
5 *141:4 0.000171458
6 *141:5 0.000333531
7 *141:6 0.000120596
8 *141:7 5.94396e-05
9 *141:8 0.000171065
10 *141:9 0.000219519
11 *141:10 7.24188e-05
12 *141:11 0.000177569

*RES
1 *141:10 *633:Y 3.20000005
2 *141:10 *141:5 0.183838
3 *141:3 *553:A0 3.20000005
4 *141:3 *141:5 1.404
5 *141:4 *141:3 0.77998
6 *141:11 *141:4 3.20000005
7 *141:9 *141:11 0.367725
8 *141:8 *141:9 0.624023
9 *141:7 *141:8 0.183838
10 *141:6 *141:7 3.20000005
11 *608:B0 *141:6 3.20000005
*END

*D_NET *142 0.00192621

*CONN
*I *642:Y O *C 73.59 68.04 *L 0 *D NOR2X1
*I *608:A0 I *C 76.89 63.56 *L 0.00336 *D OAI21XL
*I *544:C I *C 80.19 62.44 *L 0.00444 *D NAND3BX1

*CAP
1 *642:Y 4.22884e-05
2 *608:A0 6.33e-05
3 *544:C 0.000139839
4 *142:3 0.000154162
5 *142:4 0.000142101
6 *142:5 0.0002257
7 *142:6 0.00014518
8 *142:7 8.478e-05
9 *142:8 0.000209761
10 *142:9 0.000150439
11 *142:10 0.000173021
12 *142:11 0.000213278
13 *142:12 0.000182358

*RES
1 *142:12 *544:C 3.2
2 *142:10 *142:12 0.367676
3 *142:7 *608:A0 6.4000001
4 *142:10 *142:11 0.624023
5 *142:7 *142:8 0.312012
6 *142:8 *142:11 0.551562
7 *142:8 *142:9 0.155957
8 *142:5 *142:9 0.551562
9 *142:5 *142:6 0.467969
10 *142:4 *142:6 0.183887
11 *142:3 *142:4 3.2
12 *642:Y *142:3 0.223828
*END

*D_NET *143 0.00214292

*CONN
*I *627:Y O *C 117.15 88.76 *L 0 *D AOI22X1
*I *607:B0 I *C 117.81 78.68 *L 0.00302 *D OAI21XL
*I *554:A0 I *C 115.83 83.72 *L 0.00336 *D OAI21XL

*CAP
1 *627:Y 0.000139843
2 *607:B0 0.00010954
3 *554:A0 0.000139843
4 *143:3 0.000146841
5 *143:4 0.000156531
6 *143:5 0.000231821
7 *143:6 0.00030904
8 *143:7 0.000185938
9 *143:8 0.000221371
10 *143:9 0.000195732
11 *143:6 *82:8 0.00014293
12 *143:5 *82:9 0.00014293
13 *607:B0 *607:A1 1.028e-05
14 *143:3 *82:10 1.0279994e-05

*RES
1 *143:9 *627:Y 3.20000005
2 *143:8 *143:9 0.624023
3 *143:7 *143:8 0.551562
4 *143:6 *554:A0 3.20000005
5 *143:6 *143:7 0.312012
6 *143:5 *143:6 1.248
7 *143:4 *143:5 3.20000005
8 *143:3 *607:B0 0.671484
9 *143:3 *143:4 0.189893
*END

*D_NET *144 0.00182372

*CONN
*I *641:Y O *C 125.07 78.12 *L 0 *D NOR2X1
*I *607:A0 I *C 117.15 77.56 *L 0.00336 *D OAI21XL
*I *543:C I *C 120.45 78.68 *L 0.00444 *D NAND3BX1

*CAP
1 *641:Y 0.000139842
2 *607:A0 0.000139842
3 *543:C 0.000139842
4 *144:3 0.000139837
5 *144:4 0.000180099
6 *144:5 0.00022262
7 *144:6 0.000112681
8 *144:7 0.00034902
9 *144:8 0.000120601
10 *144:9 0.000279338

*RES
1 *144:8 *641:Y 3.20000005
2 *144:9 *144:8 3.20000005
3 *144:7 *144:9 1.28701
4 *144:6 *543:C 3.20000005
5 *144:6 *144:7 3.20000005
6 *144:3 *144:6 0.367725
7 *144:4 *144:3 0.312012
8 *144:5 *144:4 0.551562
9 *607:A0 *144:5 3.20000005
*END

*D_NET *145 0.00244182

*CONN
*I *631:Y O *C 93.39 92.68 *L 0 *D AOI22X1
*I *606:B I *C 96.03 87.64 *L 0.00375 *D NAND2X1
*I *557:B0 I *C 94.71 77.56 *L 0.00457 *D OAI22X1

*CAP
1 *631:Y 0.000139842
2 *606:B 3.98622e-05
3 *557:B0 3.98622e-05
4 *145:3 7.51942e-05
5 *145:4 0.00047732
6 *145:5 0.000422439
7 *145:6 7.24192e-05
8 *145:7 0.000168422
9 *145:8 0.000458667
10 *145:9 0.000330508
11 *145:10 7.51869e-05
12 *145:11 0.0001421

*RES
1 *145:10 *606:B 0.223828
2 *145:6 *631:Y 3.20000005
3 *145:11 *145:10 3.20000005
4 *145:6 *145:9 0.183838
5 *145:8 *145:11 0.183838
6 *145:8 *145:9 1.404
7 *145:7 *145:8 0.624023
8 *145:5 *145:7 0.183838
9 *145:4 *145:5 2.18398
10 *145:3 *557:B0 0.223828
11 *145:3 *145:4 3.20000005
*END

*D_NET *146 0.00276855

*CONN
*I *630:Y O *C 97.35 92.68 *L 0 *D AOI22X1
*I *606:A I *C 96.69 88.2 *L 0.00403 *D NAND2X1
*I *557:A0 I *C 96.03 78.12 *L 0.00456 *D OAI22X1

*CAP
1 *630:Y 6.32954e-05
2 *606:A 0.000139837
3 *557:A0 0.000139837
4 *146:3 0.0007204
5 *146:4 0.000436021
6 *146:5 0.000360711
7 *146:6 0.000375507
8 *146:7 0.000367648
9 *146:8 0.000110179
10 *146:9 5.51169e-05

*RES
1 *146:9 *630:Y 6.4000001
2 *146:8 *146:9 0.155957
3 *146:7 *146:8 0.367676
4 *146:3 *606:A 3.2
5 *146:3 *146:7 1.09199
6 *146:4 *146:3 1.55996
7 *146:6 *146:4 0.183887
8 *146:5 *146:6 1.24805
9 *557:A0 *146:5 3.2
*END

*D_NET *147 0.00138766

*CONN
*I *637:Y O *C 85.47 38.36 *L 0 *D AOI22X1
*I *605:B I *C 88.11 43.4 *L 0.00375 *D NAND2X1
*I *586:A I *C 88.77 37.24 *L 0.0043 *D NOR2X1

*CAP
1 *637:Y 8.23984e-05
2 *605:B 0.00013984
3 *586:A 6.32965e-05
4 *147:3 0.000327669
5 *147:4 0.00037213
6 *147:5 0.000194267
7 *147:6 7.24215e-05
8 *147:7 6.99174e-05
9 *147:8 6.57211e-05

*RES
1 *147:8 *586:A 6.4000001
2 *147:3 *605:B 3.2
3 *147:4 *147:8 0.183887
4 *147:4 *147:3 1.71602
5 *147:7 *147:4 0.155957
6 *147:6 *147:7 0.183887
7 *147:5 *147:6 3.2
8 *637:Y *147:5 0.447656
*END

*D_NET *148 0.00213064

*CONN
*I *636:Y O *C 82.17 48.44 *L 0 *D AOI22X1
*I *605:A I *C 88.77 42.84 *L 0.00403 *D NAND2X1
*I *537:A0 I *C 89.43 47.32 *L 0.00336 *D OAI21XL

*CAP
1 *636:Y 0.000139836
2 *605:A 0.000139836
3 *537:A0 6.3299e-05
4 *148:3 0.000287634
5 *148:4 0.000302433
6 *148:5 0.00041252
7 *148:6 0.000351544
8 *148:7 0.000120599
9 *148:8 8.10688e-05
10 *148:9 8.97743e-05
11 *148:10 0.000142102

*RES
1 *148:10 *605:A 3.2
2 *148:10 *148:4 0.183887
3 *148:3 *537:A0 6.4000001
4 *148:4 *148:3 1.24805
5 *148:5 *148:3 3.2
6 *148:6 *148:5 1.4709
7 *148:9 *148:6 0.155957
8 *148:8 *148:9 0.367676
9 *148:7 *148:8 3.2
10 *636:Y *148:7 3.2
*END

*D_NET *149 0.00208562

*CONN
*I *604:Y O *C 103.29 102.2 *L 0 *D OAI21XL
*I *547:A I *C 97.35 113.96 *L 0.0026 *D INVXL

*CAP
1 *604:Y 0.000220921
2 *547:A 6.3301e-05
3 *149:2 0.000146243
4 *149:3 0.000588146
5 *149:4 0.00066867
6 *149:5 0.000256244
7 *149:6 0.000142101

*RES
1 *149:5 *604:Y 0.895312
2 *149:6 *149:5 3.2
3 *149:3 *149:6 0.183887
4 *149:3 *149:4 2.496
5 *149:2 *149:4 0.551562
6 *547:A *149:2 6.4000001
*END

*D_NET *150 0.00130109

*CONN
*I *603:Y O *C 46.53 31.64 *L 0 *D OAI21XL
*I *568:A I *C 51.15 33.32 *L 0.0026 *D INVXL

*CAP
1 *603:Y 0.000139839
2 *568:A 0.000124772
3 *150:2 0.000120602
4 *150:3 0.000314159961
5 *150:4 0.00023664
6 *150:5 5.09195e-05
7 *150:6 0.000314159961

*RES
1 *150:4 *568:A 0.671484
2 *150:5 *150:4 3.2
3 *150:6 *150:5 6.4000001
4 *150:3 *150:6 0.919238
5 *150:2 *150:3 3.2
6 *603:Y *150:2 3.2
*END

*D_NET *151 0.00161472

*CONN
*I *602:Y O *C 60.39 71.96 *L 0 *D OAI21XL
*I *567:A I *C 56.43 77.56 *L 0.0026 *D INVXL

*CAP
1 *602:Y 0.000139841
2 *567:A 0.000139841
3 *151:2 0.00020477
4 *151:3 0.00020477
5 *151:4 0.00011668
6 *151:5 0.000186358
7 *151:6 0.00031123
8 *151:7 0.00031123

*RES
1 *151:3 *602:Y 3.20000005
2 *151:3 *151:2 0.468018
3 *151:6 *151:2 3.20000005
4 *151:4 *567:A 3.20000005
5 *151:7 *151:6 1.28701
6 *151:5 *151:4 0.312012
7 *151:5 *151:7 3.20000005
*END

*D_NET *152 0.00122444

*CONN
*I *601:Y O *C 61.05 59.08 *L 0 *D OAI21XL
*I *550:A I *C 56.43 57.4 *L 0.0026 *D INVXL

*CAP
1 *601:Y 0.000139842
2 *550:A 0.000139842
3 *152:2 0.000120599
4 *152:3 0.00035178
5 *152:4 0.000120599
6 *152:5 0.00035178

*RES
1 *152:4 *601:Y 3.20000005
2 *152:5 *152:4 3.20000005
3 *152:3 *152:5 1.47085
4 *152:2 *152:3 3.20000005
5 *550:A *152:2 3.20000005
*END

*D_NET *153 0.00109144

*CONN
*I *600:Y O *C 76.23 38.92 *L 0 *D OAI21XL
*I *566:A I *C 72.27 37.24 *L 0.0026 *D INVXL

*CAP
1 *600:Y 0.000139838
2 *566:A 0.000139838
3 *153:2 0.00018236
4 *153:3 0.00025836
5 *153:4 0.000137579
6 *153:5 0.00023346

*RES
1 *153:5 *600:Y 3.20000005
2 *153:3 *153:5 0.919287
3 *153:3 *153:4 0.312012
4 *153:2 *153:4 0.367725
5 *566:A *153:2 3.20000005
*END

*D_NET *154 0.000858812

*CONN
*I *599:Y O *C 88.11 129.64 *L 0 *D OAI21XL
*I *565:A I *C 83.49 127.96 *L 0.0026 *D INVXL

*CAP
1 *599:Y 0.000159461
2 *565:A 0.000139841
3 *154:2 0.00018236
4 *154:3 0.00019479
5 *154:4 0.00018236

*RES
1 *154:3 *599:Y 0.895312
2 *154:4 *154:3 3.20000005
3 *154:2 *154:4 0.367725
4 *565:A *154:2 3.20000005
*END

*D_NET *155 0.00102502

*CONN
*I *598:Y O *C 44.55 49 *L 0 *D OAI21XL
*I *558:A I *C 41.25 47.32 *L 0.0026 *D INVXL

*CAP
1 *598:Y 0.000139838
2 *558:A 0.000139838
3 *155:2 0.000120598
4 *155:3 0.00025207
5 *155:4 0.000120598
6 *155:5 0.00025207

*RES
1 *155:4 *598:Y 3.20000005
2 *155:5 *155:4 3.20000005
3 *155:3 *155:5 1.10312
4 *155:2 *155:3 3.20000005
5 *558:A *155:2 3.20000005
*END

*D_NET *156 0.00301172

*CONN
*I *597:Y O *C 63.69 74.2 *L 0 *D NOR2BXL
*I *389:J I *C 53.79 64.12 *L 0.00273 *D JKFFRXL

*CAP
1 *597:Y 0.000139839
2 *389:J 0.000139839
3 *156:2 0.000331566
4 *156:3 0.000401242
5 *156:4 0.000523556
6 *156:5 0.00059324
7 *156:6 0.000211388
8 *156:7 0.000281064
9 *156:4 *347:4 0.00019499
10 *156:5 *347:5 0.000194989997

*RES
1 *156:2 *597:Y 3.20000005
2 *156:3 *156:2 1.404
3 *156:4 *156:3 3.20000005
4 *156:5 *156:4 2.9417
5 *156:6 *156:5 3.20000005
6 *156:7 *156:6 0.935986
7 *389:J *156:7 3.20000005
*END

*D_NET *157 0.00142275

*CONN
*I *596:Y O *C 76.89 92.12 *L 0 *D OAI21XL
*I *551:A I *C 68.31 93.8 *L 0.0026 *D INVXL

*CAP
1 *596:Y 0.000122358
2 *551:A 0.000139844
3 *157:2 0.000120603
4 *157:3 0.00038083
5 *157:4 0.00015769
6 *157:5 0.000120603
7 *157:6 0.00038083

*RES
1 *157:4 *596:Y 0.671484
2 *157:5 *157:4 3.20000005
3 *157:6 *157:5 3.20000005
4 *157:3 *157:6 1.65474
5 *157:2 *157:3 3.20000005
6 *551:A *157:2 3.20000005
*END

*D_NET *158 0.000957551

*CONN
*I *595:Y O *C 88.11 102.2 *L 0 *D OAI21XL
*I *563:A I *C 83.49 103.88 *L 0.0026 *D INVXL

*CAP
1 *595:Y 0.000170561
2 *563:A 0.000139838
3 *158:2 0.000182361
4 *158:3 0.00028243
5 *158:4 0.000182361

*RES
1 *158:3 *595:Y 0.895312
2 *158:4 *158:3 3.20000005
3 *158:2 *158:4 0.367725
4 *563:A *158:2 3.20000005
*END

*D_NET *159 0.00023918

*CONN
*I *594:Y O *C 129.69 89.32 *L 0 *D OAI21XL
*I *562:A I *C 132.33 87.64 *L 0.0026 *D INVXL

*CAP
1 *594:Y 0.00011959
2 *562:A 0.00011959

*RES
1 *594:Y *562:A 0.671478
*END

*D_NET *160 0.000736102

*CONN
*I *593:Y O *C 110.55 112.28 *L 0 *D OAI21XL
*I *561:A I *C 110.55 117.88 *L 0.0026 *D INVXL

*CAP
1 *593:Y 0.00013984
2 *561:A 0.00013984
3 *160:2 0.0001994
4 *160:3 0.000184601
5 *160:4 7.24211e-05

*RES
1 *160:3 *561:A 3.20000005
2 *160:4 *593:Y 3.20000005
3 *160:2 *160:3 0.77998
4 *160:2 *160:4 0.183838
*END

*D_NET *161 0.000939138

*CONN
*I *592:Y O *C 140.91 89.32 *L 0 *D OAI21XL
*I *560:A I *C 137.61 87.64 *L 0.0026 *D INVXL

*CAP
1 *592:Y 6.32981e-05
2 *560:A 0.000139838
3 *161:2 0.00018236
4 *161:3 0.000183569
5 *161:4 0.00022383
6 *161:5 0.000146242

*RES
1 *161:5 *592:Y 6.4000001
2 *161:4 *161:5 0.551562
3 *161:3 *161:4 0.467969
4 *161:2 *161:3 0.367676
5 *560:A *161:2 3.2
*END

*D_NET *162 0.00032262

*CONN
*I *591:Y O *C 125.07 112.28 *L 0 *D OAI21XL
*I *559:A I *C 128.37 113.96 *L 0.0026 *D INVXL

*CAP
1 *591:Y 0.00016131
2 *559:A 0.00016131

*RES
1 *591:Y *559:A 0.895304
*END

*D_NET *163 0.00042434

*CONN
*I *590:Y O *C 125.73 102.2 *L 0 *D OAI21XL
*I *564:A I *C 129.69 103.88 *L 0.0026 *D INVXL

*CAP
1 *590:Y 0.00021217
2 *564:A 0.00021217

*RES
1 *590:Y *564:A 1.11913
*END

*D_NET *164 0.00035032

*CONN
*I *589:Y O *C 66.99 71.96 *L 0 *D OAI21XL
*I *569:A I *C 70.29 73.64 *L 0.0026 *D INVXL

*CAP
1 *589:Y 0.00017516
2 *569:A 0.00017516

*RES
1 *589:Y *569:A 0.895304
*END

*D_NET *165 0.00195957

*CONN
*I *643:Y O *C 101.97 92.12 *L 0 *D AOI2BB1XL
*I *588:B0 I *C 98.67 83.72 *L 0.00457 *D OAI22X1
*I *541:C I *C 102.63 88.76 *L 0.00444 *D NAND3BX1

*CAP
1 *643:Y 0.000139839
2 *588:B0 3.98605e-05
3 *541:C 0.000139839
4 *165:3 0.00039288
5 *165:4 0.000312362
6 *165:5 7.51888e-05
7 *165:6 0.000142099
8 *165:7 0.000355489
9 *165:8 0.000219913
10 *165:9 0.000142099

*RES
1 *165:9 *541:C 3.20000005
2 *165:8 *643:Y 3.20000005
3 *165:7 *165:9 0.183838
4 *165:7 *165:8 0.935986
5 *165:3 *165:7 0.551562
6 *165:4 *165:3 1.404
7 *165:6 *165:4 0.183838
8 *165:5 *165:6 3.20000005
9 *588:B0 *165:5 0.223828
*END

*D_NET *166 0.00220722

*CONN
*I *645:Y O *C 105.27 92.12 *L 0 *D AOI2BB1XL
*I *588:A0 I *C 99.99 83.16 *L 0.00456 *D OAI22X1
*I *541:B I *C 103.29 87.64 *L 0.00444 *D NAND3BX1

*CAP
1 *645:Y 0.000139839
2 *588:A0 6.33011e-05
3 *541:B 6.33011e-05
4 *166:3 0.0002787
5 *166:4 0.0002787
6 *166:5 0.000105979
7 *166:6 0.0001907
8 *166:7 0.000110178
9 *166:8 6.57179e-05
10 *166:9 0.00042461
11 *166:10 0.000344087
12 *166:11 0.0001421

*RES
1 *166:11 *645:Y 3.2
2 *166:3 *166:11 0.183887
3 *166:8 *541:B 6.4000001
4 *166:4 *166:3 1.24805
5 *166:8 *166:10 0.183887
6 *166:10 *166:4 0.183887
7 *166:9 *166:10 1.404
8 *166:6 *166:9 0.735449
9 *166:6 *166:7 0.155957
10 *166:5 *166:7 0.367676
11 *588:A0 *166:5 6.4000001
*END

*D_NET *167 0.00197078

*CONN
*I *644:Y O *C 86.79 41.72 *L 0 *D AOI2BB1XL
*I *587:B0 I *C 92.07 37.24 *L 0.00457 *D OAI22X1
*I *542:C I *C 92.73 42.28 *L 0.00444 *D NAND3BX1

*CAP
1 *644:Y 0.000302546
2 *587:B0 0.000139842
3 *542:C 0.000139842
4 *167:3 0.000337883
5 *167:4 0.000142103
6 *167:5 0.000358761914
7 *167:6 0.00033566
8 *167:7 7.20425e-05
9 *167:8 0.000142103

*RES
1 *167:8 *542:C 3.20000005
2 *167:5 *587:B0 3.20000005
3 *167:7 *167:8 0.183838
4 *167:5 *167:6 1.248
5 *167:6 *167:7 0.156006
6 *167:4 *167:6 0.183838
7 *167:3 *167:4 3.20000005
8 *644:Y *167:3 1.5668
*END

*D_NET *168 0.00294528

*CONN
*I *646:Y O *C 80.85 36.68 *L 0 *D AOI2BB1X1
*I *587:A0 I *C 93.39 37.8 *L 0.00456 *D OAI22X1
*I *542:B I *C 93.39 43.4 *L 0.00444 *D NAND3BX1

*CAP
1 *646:Y 7.96982e-05
2 *587:A0 0.000139838
3 *542:B 6.33034e-05
4 *168:3 0.000282928
5 *168:4 0.000352614
6 *168:5 0.000657765
7 *168:6 0.00072744
8 *168:7 0.00011503
9 *168:8 0.000120602
10 *168:3 *210:7 0.00020303
11 *168:4 *210:8 0.000203030005

*RES
1 *168:3 *542:B 6.4000001
2 *168:4 *587:A0 3.2
3 *168:4 *168:3 1.55996
4 *168:5 *168:4 3.2
5 *168:6 *168:5 2.9417
6 *168:8 *168:6 3.2
7 *168:7 *168:8 3.2
8 *646:Y *168:7 0.447656
*END

*D_NET *169 0.00260538

*CONN
*I *585:Y O *C 126.39 87.08 *L 0 *D NOR2BXL
*I *381:J I *C 115.83 94.36 *L 0.00273 *D JKFFRXL

*CAP
1 *585:Y 0.000139844
2 *381:J 0.000139844
3 *169:2 0.000493758672
4 *169:3 0.000424082
5 *169:4 0.000451122
6 *169:5 0.000451122
7 *169:6 0.000120601
8 *169:4 *135:7 0.00010032
9 *169:5 *135:8 0.000100319999
10 *169:4 *134:3 9.219e-05
11 *169:5 *134:4 9.21900009e-05

*RES
1 *169:3 *585:Y 3.20000005
2 *169:3 *169:2 1.404
3 *169:4 *169:2 3.20000005
4 *169:5 *169:4 3.12559
5 *169:6 *169:5 3.20000005
6 *381:J *169:6 3.20000005
*END

*D_NET *170 0.00248268

*CONN
*I *584:Y O *C 106.59 114.52 *L 0 *D NOR2BXL
*I *376:J I *C 98.01 107.24 *L 0.00273 *D JKFFRXL

*CAP
1 *584:Y 0.000139841
2 *376:J 0.000139841
3 *170:2 0.000409198
4 *170:3 0.000409198
5 *170:4 0.00043485
6 *170:5 0.000365172
7 *170:6 0.000120598
8 *170:4 *98:11 4.871e-05
9 *170:5 *98:12 4.871e-05
10 *170:4 *98:5 6.242e-05
11 *170:5 *98:6 6.242e-05
12 *170:4 *98:6 2.527e-05
13 *170:5 *98:13 2.52700066e-05
14 *170:4 *95:17 9.559e-05
15 *170:5 *95:15 9.55899968e-05

*RES
1 *170:6 *584:Y 3.20000005
2 *170:4 *170:6 3.20000005
3 *170:5 *170:4 2.57402
4 *170:2 *170:5 3.20000005
5 *170:3 *170:2 1.404
6 *376:J *170:3 3.20000005
*END

*D_NET *171 0.00106878

*CONN
*I *583:Y O *C 80.19 104.44 *L 0 *D NOR2BXL
*I *373:J I *C 79.53 97.16 *L 0.00273 *D JKFFRXL

*CAP
1 *583:Y 0.000139839
2 *373:J 0.000139839
3 *171:2 0.000112683
4 *171:3 0.00036574
5 *171:4 0.000310679

*RES
1 *171:4 *583:Y 3.20000005
2 *171:3 *171:4 1.404
3 *171:2 *171:3 0.367725
4 *373:J *171:2 3.20000005
*END

*D_NET *172 0.00183188

*CONN
*I *582:Y O *C 121.11 114.52 *L 0 *D NOR2BXL
*I *386:J I *C 115.83 107.24 *L 0.00273 *D JKFFRXL

*CAP
1 *582:Y 0.000139839
2 *386:J 0.000139839
3 *172:2 0.000237782
4 *172:3 0.000237782
5 *172:4 0.00038077
6 *172:5 0.000192392
7 *172:6 0.00038077
8 *172:7 0.000122711

*RES
1 *172:7 *582:Y 3.20000005
2 *172:5 *172:7 0.624023
3 *172:6 *172:5 3.20000005
4 *172:4 *172:6 1.65474
5 *172:3 *172:4 3.20000005
6 *172:2 *172:3 0.77998
7 *386:J *172:2 3.20000005
*END

*D_NET *173 0.00135605

*CONN
*I *581:Y O *C 48.51 54.04 *L 0 *D NOR2BXL
*I *391:J I *C 51.81 46.76 *L 0.00273 *D JKFFRXL

*CAP
1 *581:Y 7.45899e-05
2 *391:J 0.00013984
3 *173:2 0.000184411
4 *173:3 0.000145152
5 *173:4 0.0001421
6 *173:5 0.00026393
7 *173:6 0.00026393
8 *173:7 0.0001421

*RES
1 *173:7 *391:J 3.20000005
2 *173:5 *173:7 0.183838
3 *173:5 *173:6 1.09199
4 *173:4 *173:6 0.183838
5 *173:3 *173:4 3.20000005
6 *173:2 *173:3 0.447656
7 *173:2 *581:Y 0.379834
*END

*D_NET *174 0.0016826

*CONN
*I *580:Y O *C 72.93 46.76 *L 0 *D NOR2BXL
*I *375:J I *C 67.65 43.96 *L 0.00273 *D JKFFRXL

*CAP
1 *580:Y 0.000139841
2 *375:J 0.000139841
3 *174:2 0.000412330781
4 *174:3 0.000412330781
5 *174:4 0.000228831
6 *174:5 0.000228831
7 *174:6 0.000120601

*RES
1 *174:6 *580:Y 3.20000005
2 *174:2 *174:6 3.20000005
3 *174:3 *174:2 1.47085
4 *174:4 *174:3 3.20000005
5 *174:5 *174:4 0.77998
6 *375:J *174:5 3.20000005
*END

*D_NET *175 0.0016522

*CONN
*I *579:Y O *C 48.51 69.16 *L 0 *D OAI21XL
*I *548:A I *C 43.89 63.56 *L 0.0026 *D INVXL

*CAP
1 *579:Y 0.00013984
2 *548:A 0.00013984
3 *175:2 0.000156358
4 *175:3 8.66805e-05
5 *175:4 0.00036583
6 *175:5 0.00036583
7 *175:6 0.000198911
8 *175:7 0.000198911

*RES
1 *175:7 *579:Y 3.20000005
2 *175:6 *175:7 0.468018
3 *175:4 *175:6 3.20000005
4 *175:5 *175:4 1.47085
5 *175:2 *175:5 3.20000005
6 *175:3 *175:2 0.312012
7 *548:A *175:3 3.20000005
*END

*D_NET *176 0.00192844

*CONN
*I *578:Y O *C 44.55 66.92 *L 0 *D NOR2BXL
*I *382:J I *C 39.93 74.2 *L 0.00273 *D JKFFRXL

*CAP
1 *578:Y 0.000139837
2 *382:J 0.000139837
3 *176:2 0.000255511
4 *176:3 0.000185828
5 *176:4 0.000234658
6 *176:5 0.000234658
7 *176:6 0.000369049688
8 *176:7 0.000369049688

*RES
1 *176:3 *578:Y 3.20000005
2 *176:3 *176:2 0.77998
3 *176:6 *176:2 3.20000005
4 *176:4 *382:J 3.20000005
5 *176:7 *176:6 1.47085
6 *176:5 *176:4 0.624023
7 *176:5 *176:7 3.20000005
*END

*D_NET *177 0.00301303

*CONN
*I *577:Y O *C 72.27 94.36 *L 0 *D NOR2BXL
*I *390:J I *C 66.99 77 *L 0.00273 *D JKFFRXL

*CAP
1 *577:Y 0.000139841
2 *390:J 0.000139841
3 *177:2 0.000454016
4 *177:3 0.000384343
5 *177:4 0.000120601
6 *177:5 0.00078902
7 *177:6 0.00078902
8 *177:6 *330:8 1.437e-05
9 *177:5 *330:9 1.437e-05
10 *177:6 *330:17 4.21e-05
11 *177:5 *330:18 4.21e-05
12 *177:6 *330:10 4.171e-05
13 *177:5 *330:11 4.17100011e-05

*RES
1 *177:6 *577:Y 3.2
2 *177:5 *177:6 4.21199989
3 *177:2 *177:5 3.2
4 *177:3 *177:2 1.6547
5 *177:4 *177:3 3.2
6 *390:J *177:4 3.2
*END

*D_NET *178 0.00118836

*CONN
*I *576:Y O *C 98.67 104.44 *L 0 *D NOR2BXL
*I *388:J I *C 98.01 97.16 *L 0.00273 *D JKFFRXL

*CAP
1 *576:Y 0.000139843
2 *388:J 0.000139843
3 *178:2 0.000112676
4 *178:3 0.00042553
5 *178:4 0.000370474

*RES
1 *178:4 *576:Y 3.20000005
2 *178:3 *178:4 1.404
3 *178:2 *178:3 0.367725
4 *388:J *178:2 3.20000005
*END

*D_NET *179 0.00112063

*CONN
*I *575:Y O *C 65.01 56.84 *L 0 *D NOR2BXL
*I *392:J I *C 68.97 54.04 *L 0.00273 *D JKFFRXL

*CAP
1 *575:Y 8.3462e-05
2 *392:J 0.000139843
3 *179:2 0.000112818
4 *179:3 0.000118791
5 *179:4 0.000127439
6 *179:5 0.000177959
7 *179:6 0.00021822
8 *179:7 0.0001421

*RES
1 *179:7 *392:J 3.20000005
2 *179:5 *179:7 0.183838
3 *179:5 *179:6 0.624023
4 *179:2 *179:6 0.367725
5 *179:2 *179:4 0.156006
6 *179:3 *179:4 3.20000005
7 *575:Y *179:3 0.447656
*END

*D_NET *180 0.00135295

*CONN
*I *574:Y O *C 84.81 117.32 *L 0 *D NOR2BXL
*I *387:J I *C 80.19 114.52 *L 0.00273 *D JKFFRXL

*CAP
1 *574:Y 0.000139841
2 *387:J 0.000139841
3 *180:2 0.00027372
4 *180:3 0.00042937
5 *180:4 0.000228074
6 *180:5 0.000142101

*RES
1 *180:5 *574:Y 3.20000005
2 *180:4 *180:5 0.183838
3 *180:3 *180:4 0.935986
4 *180:2 *180:3 1.10312
5 *387:J *180:2 3.20000005
*END

*D_NET *181 0.00108999

*CONN
*I *573:Y O *C 47.85 36.68 *L 0 *D NOR2BXL
*I *374:J I *C 53.79 36.68 *L 0.00273 *D JKFFRXL

*CAP
1 *573:Y 4.12131e-05
2 *374:J 0.000139841
3 *181:2 0.0002956
4 *181:3 0.0002956
5 *181:4 7.65398e-05
6 *181:5 0.000120599
7 *181:6 0.000120599

*RES
1 *181:6 *374:J 3.20000005
2 *181:2 *181:6 3.20000005
3 *181:3 *181:2 1.28701
4 *181:5 *181:3 3.20000005
5 *181:4 *181:5 3.20000005
6 *573:Y *181:4 0.223828
*END

*D_NET *182 0.00118614

*CONN
*I *572:Y O *C 55.77 74.2 *L 0 *D NOR2BXL
*I *379:J I *C 54.45 66.92 *L 0.00273 *D JKFFRXL

*CAP
1 *572:Y 0.000139841
2 *379:J 0.000139841
3 *182:2 0.000152936
4 *182:3 0.00042442
5 *182:4 0.000329103

*RES
1 *182:4 *572:Y 3.20000005
2 *182:3 *182:4 1.404
3 *182:2 *182:3 0.551562
4 *379:J *182:2 3.20000005
*END

*D_NET *183 0.00158204

*CONN
*I *571:Y O *C 135.63 87.08 *L 0 *D NOR2BXL
*I *380:J I *C 130.35 84.28 *L 0.00273 *D JKFFRXL

*CAP
1 *571:Y 0.000139839
2 *380:J 0.000139839
3 *183:2 0.000120604
4 *183:3 0.000319858
5 *183:4 0.000201341
6 *183:5 0.00038954
7 *183:6 0.000271023

*RES
1 *183:6 *571:Y 3.20000005
2 *183:4 *183:6 0.77998
3 *183:5 *183:4 3.20000005
4 *183:3 *183:5 1.65474
5 *183:2 *183:3 3.20000005
6 *380:J *183:2 3.20000005
*END

*D_NET *184 0.00187112

*CONN
*I *570:Y O *C 121.11 104.44 *L 0 *D NOR2BXL
*I *385:J I *C 115.83 97.16 *L 0.00273 *D JKFFRXL

*CAP
1 *570:Y 6.32992e-05
2 *385:J 0.000139842
3 *184:2 0.000186618
4 *184:3 0.000186618
5 *184:4 0.000391498
6 *184:5 0.00021768
7 *184:6 0.00046118
8 *184:7 0.00022438

*RES
1 *184:7 *570:Y 6.4000001
2 *184:5 *184:7 0.936035
3 *184:6 *184:5 3.2
4 *184:4 *184:6 1.65469
5 *184:3 *184:4 3.2
6 *184:2 *184:3 0.467969
7 *385:J *184:2 3.2
*END

*D_NET *185 0.00208377

*CONN
*I *569:Y O *C 70.95 74.2 *L 0 *D INVXL
*I *528:D I *C 66.33 84.28 *L 0.00184 *D DFFRHQX1

*CAP
1 *569:Y 0.00010713
2 *528:D 6.33071e-05
3 *185:2 0.000218998
4 *185:3 0.0007781
5 *185:4 0.000697577
6 *185:5 0.00014624
7 *185:6 7.24256e-05

*RES
1 *185:2 *569:Y 0.671484
2 *185:6 *185:2 3.2
3 *185:4 *185:6 0.183887
4 *185:4 *185:3 3.27598
5 *185:5 *185:3 0.551562
6 *528:D *185:5 6.4000001
*END

*D_NET *186 0.000842438

*CONN
*I *568:Y O *C 51.81 33.88 *L 0 *D INVXL
*I *531:D I *C 53.79 33.88 *L 0.00184 *D DFFRHQX1

*CAP
1 *568:Y 0.00013984
2 *531:D 6.33001e-05
3 *186:2 0.000142099
4 *186:3 0.000110979
5 *186:4 0.000151240479
6 *186:5 8.99596e-05
7 *186:6 0.000145019

*RES
1 *186:5 *531:D 6.4000001
2 *186:5 *186:6 0.312012
3 *186:4 *186:6 0.367676
4 *186:3 *186:4 0.312012
5 *186:2 *186:3 0.183887
6 *568:Y *186:2 3.2
*END

*D_NET *187 0.00163585

*CONN
*I *567:Y O *C 57.09 77 *L 0 *D INVXL
*I *527:D I *C 51.81 84.28 *L 0.00184 *D DFFRHQX1

*CAP
1 *567:Y 0.000161314
2 *527:D 6.33019e-05
3 *187:2 0.000207627
4 *187:3 0.00043254
5 *187:4 0.000362856
6 *187:5 0.000198611
7 *187:6 0.000209601

*RES
1 *187:4 *527:D 6.4000001
2 *187:5 *567:Y 0.895312
3 *187:3 *187:4 1.404
4 *187:5 *187:6 0.189941
5 *187:2 *187:3 3.2
6 *187:2 *187:6 0.895312
*END

*D_NET *188 0.00133589

*CONN
*I *566:Y O *C 72.93 36.68 *L 0 *D INVXL
*I *539:D I *C 68.31 33.88 *L 0.00184 *D DFFRHQX1

*CAP
1 *566:Y 0.000291205
2 *539:D 6.32978e-05
3 *188:2 0.000292582
4 *188:3 0.000326539
5 *188:4 0.000362258594

*RES
1 *188:3 *566:Y 1.5668
2 *188:4 *188:3 3.2
3 *188:2 *188:4 1.24805
4 *539:D *188:2 6.4000001
*END

*D_NET *189 0.00093545

*CONN
*I *565:Y O *C 84.15 127.4 *L 0 *D INVXL
*I *532:D I *C 82.17 124.6 *L 0.00184 *D DFFRHQX1

*CAP
1 *565:Y 0.00011959
2 *532:D 6.33004e-05
3 *189:2 0.00026398
4 *189:3 0.000154919
5 *189:4 0.00033366

*RES
1 *189:3 *565:Y 0.671484
2 *189:4 *189:3 3.2
3 *189:2 *189:4 1.24805
4 *532:D *189:2 6.4000001
*END

*D_NET *190 0.00107939

*CONN
*I *564:Y O *C 130.35 104.44 *L 0 *D INVXL
*I *525:D I *C 132.33 107.24 *L 0.00184 *D DFFRHQX1

*CAP
1 *564:Y 0.000122319
2 *525:D 6.33009e-05
3 *190:2 0.000234192
4 *190:3 0.000329789805
5 *190:4 0.000329789805

*RES
1 *190:4 *525:D 6.4000001
2 *190:3 *190:4 1.09199
3 *190:2 *190:3 3.2
4 *564:Y *190:2 0.671484
*END

*D_NET *191 0.00131954

*CONN
*I *563:Y O *C 84.15 104.44 *L 0 *D INVXL
*I *535:D I *C 79.53 107.24 *L 0.00184 *D DFFRHQX1

*CAP
1 *563:Y 0.000119592
2 *535:D 6.33012e-05
3 *191:2 0.0001865
4 *191:3 0.000154919
5 *191:4 0.000364664
6 *191:5 0.00043056

*RES
1 *191:3 *563:Y 0.671484
2 *191:4 *191:3 3.2
3 *191:4 *191:5 1.24805
4 *191:2 *191:5 0.735449
5 *535:D *191:2 6.4000001
*END

*D_NET *192 0.00138856

*CONN
*I *562:Y O *C 132.99 87.08 *L 0 *D INVXL
*I *522:D I *C 132.33 97.16 *L 0.00184 *D DFFRHQX1

*CAP
1 *562:Y 0.000139844
2 *522:D 6.32949e-05
3 *192:2 6.57145e-05
4 *192:3 0.00058729
5 *192:4 0.00053241

*RES
1 *192:3 *562:Y 3.2
2 *192:3 *192:4 2.34004
3 *192:2 *192:4 0.183887
4 *522:D *192:2 6.4000001
*END

*D_NET *193 0.00237391

*CONN
*I *561:Y O *C 111.21 117.32 *L 0 *D INVXL
*I *538:D I *C 101.31 124.6 *L 0.00184 *D DFFRHQX1

*CAP
1 *561:Y 0.000139833
2 *538:D 6.32933e-05
3 *193:2 6.57202e-05
4 *193:3 0.000317499
5 *193:4 0.00057835
6 *193:5 0.000262616
7 *193:6 0.000184117
8 *193:7 0.000184117
9 *193:8 0.00057835

*RES
1 *193:6 *561:Y 3.2
2 *193:6 *193:7 0.467969
3 *193:8 *193:7 3.2
4 *193:4 *193:8 2.57402
5 *193:3 *193:4 3.2
6 *193:3 *193:5 1.09199
7 *193:2 *193:5 0.183887
8 *538:D *193:2 6.4000001
*END

*D_NET *194 0.00193862

*CONN
*I *560:Y O *C 138.27 87.08 *L 0 *D INVXL
*I *526:D I *C 132.33 94.36 *L 0.00184 *D DFFRHQX1

*CAP
1 *560:Y 0.000139844
2 *526:D 6.33005e-05
3 *194:2 0.000419751
4 *194:3 0.000419751
5 *194:4 0.000120598
6 *194:5 0.00042252957
7 *194:6 0.000352846

*RES
1 *194:3 *560:Y 3.2
2 *194:3 *194:2 1.55996
3 *194:6 *194:2 3.2
4 *194:5 *194:6 1.65469
5 *194:4 *194:5 3.2
6 *526:D *194:4 6.4000001
*END

*D_NET *195 0.00032208

*CONN
*I *559:Y O *C 129.03 114.52 *L 0 *D INVXL
*I *536:D I *C 131.67 114.52 *L 0.00184 *D DFFRHQX1

*CAP
1 *195:2 0.00016104
2 *195:3 0.00016104

*RES
1 *195:3 *536:D 6.4000001
2 *195:2 *195:3 0.735449
3 *559:Y *195:2 3.2
*END

*D_NET *196 0.00111757

*CONN
*I *558:Y O *C 41.91 46.76 *L 0 *D INVXL
*I *524:D I *C 38.61 43.96 *L 0.00184 *D DFFRHQX1

*CAP
1 *558:Y 0.000175912
2 *524:D 6.33024e-05
3 *196:2 0.000295289531
4 *196:3 0.000287778
5 *196:4 0.000295289531

*RES
1 *196:3 *558:Y 1.11914
2 *196:4 *196:3 3.2
3 *196:2 *196:4 1.24805
4 *524:D *196:2 6.4000001
*END

*D_NET *197 0.00094288

*CONN
*I *634:Y O *C 77.55 66.92 *L 0 *D AOI22XL
*I *556:B0 I *C 82.83 67.48 *L 0.00457 *D OAI22X1
*I *553:B0 I *C 80.19 68.6 *L 0.00302 *D OAI21XL

*CAP
1 *634:Y 0.00016224
2 *556:B0 8.16026e-05
3 *553:B0 0.00019757
4 *197:3 0.00010598
5 *197:4 0.00019347
6 *197:5 7.34809e-05
7 *197:6 0.000128542

*RES
1 *197:4 *556:B0 0.447656
2 *197:5 *197:4 3.2
3 *197:5 *197:6 0.312012
4 *197:3 *197:6 0.367676
5 *553:B0 *197:3 6.4000001
6 *634:Y *553:B0 0.895312
*END

*D_NET *198 0.00215786

*CONN
*I *635:Y O *C 82.17 72.52 *L 0 *D AOI22X1
*I *556:A0 I *C 84.15 68.04 *L 0.00456 *D OAI22X1
*I *544:B I *C 80.85 63.56 *L 0.00444 *D NAND3BX1

*CAP
1 *635:Y 0.00013984
2 *556:A0 0.00013984
3 *544:B 6.33012e-05
4 *198:3 0.000282679
5 *198:4 0.000213002
6 *198:5 0.000292
7 *198:6 0.000196012
8 *198:7 0.000193869
9 *198:8 0.000178617
10 *198:9 7.24174e-05
11 *198:10 0.00010383
12 *198:11 0.00010383
13 *198:12 0.000178617

*RES
1 *198:9 *635:Y 3.2
2 *198:9 *198:11 0.183887
3 *198:10 *198:11 0.312012
4 *198:10 *198:7 0.183887
5 *198:5 *556:A0 3.2
6 *198:5 *198:7 0.936035
7 *198:6 *198:5 0.467969
8 *198:12 *198:6 3.2
9 *198:8 *198:12 0.919238
10 *198:3 *198:8 3.2
11 *198:4 *198:3 0.77998
12 *544:B *198:4 6.4000001
*END

*D_NET *199 0.00227076

*CONN
*I *629:Y O *C 124.41 84.28 *L 0 *D AOI22XL
*I *555:B0 I *C 118.47 83.72 *L 0.00457 *D OAI22X1
*I *554:B0 I *C 116.49 82.6 *L 0.00302 *D OAI21XL

*CAP
1 *629:Y 7.97307e-05
2 *555:B0 3.98593e-05
3 *554:B0 6.33006e-05
4 *199:3 0.000153597
5 *199:4 9.85397e-05
6 *199:5 0.0002656
7 *199:6 0.0002656
8 *199:7 7.51915e-05
9 *199:8 0.000105981
10 *199:9 0.000115059
11 *199:10 0.000120599
12 *199:5 *138:17 0.00012393
13 *199:6 *138:18 0.00012393
14 *199:5 *138:18 0.00018752
15 *199:6 *138:19 0.000187519997
16 *199:5 *337:6 0.00012487
17 *199:6 *337:5 0.00012487
18 *199:5 *337:2 7.53e-06
19 *199:6 *337:3 7.5300018e-06

*RES
1 *629:Y *199:9 0.447656
2 *199:10 *199:9 3.2
3 *199:5 *199:10 3.2
4 *199:7 *555:B0 0.223828
5 *199:6 *199:5 2.20625
6 *199:8 *199:7 6.4000001
7 *199:8 *199:6 6.4000001
8 *199:3 *199:8 0.367676
9 *199:4 *199:3 0.312012
10 *554:B0 *199:4 6.4000001
*END

*D_NET *200 0.00205021

*CONN
*I *632:Y O *C 121.77 88.76 *L 0 *D AOI22X1
*I *555:A0 I *C 119.79 83.16 *L 0.00456 *D OAI22X1
*I *543:B I *C 121.11 77.56 *L 0.00444 *D NAND3BX1

*CAP
1 *632:Y 0.000139847
2 *555:A0 6.33004e-05
3 *543:B 6.33004e-05
4 *200:3 0.00013441
5 *200:4 0.000189466
6 *200:5 0.000446647
7 *200:6 0.00058223
8 *200:7 0.000208194
9 *200:8 0.000222808

*RES
1 *200:8 *632:Y 3.2
2 *200:5 *543:B 6.4000001
3 *200:7 *200:8 0.624023
4 *200:5 *200:6 2.02803
5 *200:6 *200:7 0.367676
6 *200:4 *200:6 0.367676
7 *200:3 *200:4 0.467969
8 *555:A0 *200:3 6.4000001
*END

*D_NET *201 0.0023798

*CONN
*I *587:Y O *C 92.73 38.92 *L 0 *D OAI22X1
*I *552:A I *C 102.63 43.4 *L 0.00346 *D INVX1
*I *475:B I *C 99.99 43.4 *L 0.00439 *D NOR3X1

*CAP
1 *587:Y 4.12092e-05
2 *552:A 3.72958e-05
3 *475:B 6.33013e-05
4 *201:3 0.000260081
5 *201:4 0.00042112
6 *201:5 7.65387e-05
7 *201:6 0.000142102
8 *201:7 6.96051e-05
9 *201:8 0.000230651
10 *201:9 9.08105e-05
11 *201:10 0.000138992
12 *201:11 0.000303751
13 *201:12 7.99894e-05
14 *201:13 0.000120601
15 *201:14 0.000303751

*RES
1 *552:A *201:12 0.189941
2 *201:13 *201:12 3.2
3 *201:14 *201:13 3.2
4 *201:11 *201:14 0.735449
5 *201:10 *201:11 3.2
6 *201:9 *475:B 6.4000001
7 *201:9 *201:10 0.155957
8 *201:3 *201:9 0.183887
9 *201:4 *201:3 1.09199
10 *201:8 *201:4 0.919238
11 *201:7 *201:8 0.155957
12 *201:6 *201:7 0.183887
13 *201:5 *201:6 3.2
14 *587:Y *201:5 0.223828
*END

*D_NET *202 0.00117595

*CONN
*I *551:Y O *C 68.97 94.36 *L 0 *D INVXL
*I *521:D I *C 66.33 87.08 *L 0.00184 *D DFFRHQX1

*CAP
1 *551:Y 0.000119591
2 *521:D 6.3302e-05
3 *202:2 6.57194e-05
4 *202:3 0.000358768
5 *202:4 0.000154919
6 *202:5 0.00041365

*RES
1 *202:4 *551:Y 0.671484
2 *202:5 *202:4 3.2
3 *202:3 *202:5 1.55996
4 *202:2 *202:3 0.183887
5 *521:D *202:2 6.4000001
*END

*D_NET *203 0.00135933

*CONN
*I *550:Y O *C 57.09 56.84 *L 0 *D INVXL
*I *523:D I *C 51.81 54.04 *L 0.00184 *D DFFRHQX1

*CAP
1 *550:Y 0.000279049
2 *523:D 6.32981e-05
3 *203:2 0.000272851
4 *203:3 0.00028765
5 *203:4 0.00031438
6 *203:5 0.000142101

*RES
1 *203:4 *550:Y 1.5668
2 *203:5 *203:4 3.2
3 *203:3 *203:5 0.183887
4 *203:2 *203:3 1.24805
5 *523:D *203:2 6.4000001
*END

*D_NET *204 0.00324523

*CONN
*I *586:Y O *C 89.43 37.8 *L 0 *D NOR2X1
*I *549:A I *C 86.79 47.32 *L 0.0026 *D INVXL
*I *507:B I *C 92.07 47.32 *L 0.0037 *D OR2X2

*CAP
1 *586:Y 0.000139842
2 *549:A 0.000139842
3 *507:B 0.000139842
4 *204:3 0.000304633
5 *204:4 0.000304633
6 *204:5 0.000374751719
7 *204:6 0.000370309
8 *204:7 0.000187699
9 *204:8 0.000187699
10 *204:9 0.000231519
11 *204:10 0.00018866
12 *204:11 8.47802e-05
13 *204:12 0.000142101
14 *204:13 0.000150747
15 *204:14 0.0001206
16 *204:15 0.000177566

*RES
1 *204:14 *507:B 3.20000005
2 *204:15 *204:14 3.20000005
3 *204:13 *204:15 0.367725
4 *204:9 *204:13 0.312012
5 *204:4 *586:Y 3.20000005
6 *204:10 *204:9 0.919287
7 *204:4 *204:3 0.935986
8 *204:12 *204:10 3.20000005
9 *204:11 *549:A 3.20000005
10 *204:7 *204:3 3.20000005
11 *204:5 *204:12 0.183838
12 *204:5 *204:11 0.312012
13 *204:8 *204:7 0.735449
14 *204:6 *204:5 1.248
15 *204:6 *204:8 3.20000005
*END

*D_NET *205 0.00032262

*CONN
*I *549:Y O *C 87.45 46.76 *L 0 *D INVXL
*I *537:B0 I *C 90.09 48.44 *L 0.00302 *D OAI21XL

*CAP
1 *549:Y 0.00016131
2 *537:B0 0.00016131

*RES
1 *549:Y *537:B0 0.895304
*END

*D_NET *206 0.00145385

*CONN
*I *548:Y O *C 44.55 64.12 *L 0 *D INVXL
*I *534:D I *C 39.27 56.84 *L 0.00184 *D DFFRHQX1

*CAP
1 *548:Y 0.000279046
2 *534:D 6.33007e-05
3 *206:2 6.57183e-05
4 *206:3 0.000338262
5 *206:4 0.00031438
6 *206:5 0.00039314

*RES
1 *206:4 *548:Y 1.5668
2 *206:5 *206:4 3.2
3 *206:3 *206:5 1.55996
4 *206:2 *206:3 0.183887
5 *534:D *206:2 6.4000001
*END

*D_NET *207 0.000574382

*CONN
*I *547:Y O *C 98.01 114.52 *L 0 *D INVXL
*I *533:D I *C 97.35 117.32 *L 0.00184 *D DFFRHQX1

*CAP
1 *547:Y 6.33002e-05
2 *533:D 6.33002e-05
3 *207:2 0.00019843
4 *207:3 0.00018363
5 *207:4 6.57194e-05

*RES
1 *207:3 *533:D 6.4000001
2 *207:4 *547:Y 6.4000001
3 *207:2 *207:3 0.77998
4 *207:2 *207:4 0.183887
*END

*D_NET *208 0.00141536

*CONN
*I *553:Y O *C 80.19 69.16 *L 0 *D OAI21XL
*I *545:A I *C 85.47 63.56 *L 0.00346 *D INVX1
*I *519:B I *C 83.49 63 *L 0.00385 *D NOR2X1

*CAP
1 *553:Y 9.55485e-05
2 *545:A 0.000111891
3 *519:B 0.000114428
4 *208:3 0.000130881
5 *208:4 0.000199820391
6 *208:5 0.00018502
7 *208:6 7.51716e-05
8 *208:7 0.000142102
9 *208:8 0.0001616
10 *208:9 0.0001989

*RES
1 *208:9 *545:A 0.569727
2 *208:8 *208:9 0.671484
3 *208:8 *519:B 0.379785
4 *208:6 *519:B 0.223828
5 *208:7 *208:6 3.2
6 *208:4 *208:7 0.183887
7 *208:4 *208:5 0.936035
8 *208:3 *208:5 6.4000001
9 *553:Y *208:3 0.447656
*END

*D_NET *209 0.00372284

*CONN
*I *606:Y O *C 96.69 88.76 *L 0 *D NAND2X1
*I *541:AN I *C 101.97 87.64 *L 0.0024 *D NAND3BX1
*I *540:B I *C 103.29 83.72 *L 0.00391 *D NAND2BX1
*I *465:C I *C 99.99 78.68 *L 0.00246 *D OR3XL

*CAP
1 *606:Y 0.000420738
2 *541:AN 0.000316227
3 *540:B 0.000139841
4 *465:C 0.000139841
5 *209:4 0.000403621
6 *209:5 0.000473300234
7 *209:6 0.000233064
8 *209:7 0.000233064
9 *209:8 0.000289151
10 *209:9 0.000289151
11 *209:10 0.00028515
12 *209:11 0.000215471
13 *209:12 0.000142102
14 *209:13 0.000142102

*RES
1 *209:13 *540:B 3.20000005
2 *209:9 *209:13 0.183838
3 *209:9 *209:8 1.09199
4 *209:12 *209:8 0.183838
5 *209:7 *465:C 3.20000005
6 *541:AN *209:12 3.20000005
7 *209:7 *209:6 0.77998
8 *606:Y *541:AN 1.5668
9 *209:10 *209:6 3.20000005
10 *209:11 *209:10 0.735449
11 *209:4 *606:Y 3.20000005
12 *209:5 *209:11 3.20000005
13 *209:5 *209:4 1.56001
*END

*D_NET *210 0.00510266

*CONN
*I *638:B1 I *C 96.03 37.24 *L 0.00434 *D AOI22X1
*I *587:A1 I *C 94.05 37.8 *L 0.00456 *D OAI22X1
*I *537:A1 I *C 88.77 47.32 *L 0.00324 *D OAI21XL
*I *511:C I *C 94.71 47.88 *L 0.00312 *D NOR3XL
*I *378:Q O *C 99.33 26.6 *L 0 *D DFFRX1

*CAP
1 *638:B1 3.98613e-05
2 *587:A1 0.000139839
3 *537:A1 0.000139839
4 *511:C 0.000139839
5 *378:Q 0.000139839
6 *210:5 0.000221275
7 *210:6 0.000236069
8 *210:7 0.000297399
9 *210:8 0.000304104
10 *210:9 0.000432199
11 *210:10 0.00051272
12 *210:11 6.99196e-05
13 *210:12 6.99196e-05
14 *210:13 0.000199166
15 *210:14 0.000138181
16 *210:15 0.000248916
17 *210:16 0.000240208
18 *210:17 0.00012366
19 *210:18 0.00012366
20 *210:19 0.000252906
21 *210:20 7.51848e-05
22 *210:21 0.00028902
23 *210:22 0.000262881
24 *210:7 *168:3 0.00020303
25 *210:8 *168:4 0.000203030005

*RES
1 *210:22 *378:Q 3.20000005
2 *210:10 *210:22 0.735449
3 *210:10 *210:9 1.56001
4 *210:20 *638:B1 0.223828
5 *210:19 *210:9 0.367725
6 *210:21 *210:20 3.20000005
7 *210:19 *210:21 1.09199
8 *210:12 *210:21 0.183838
9 *210:12 *210:11 0.156006
10 *210:8 *587:A1 3.20000005
11 *210:8 *210:11 0.183838
12 *210:8 *210:7 1.87202
13 *210:7 *210:6 0.183838
14 *210:5 *511:C 3.20000005
15 *210:6 *210:5 0.935986
16 *210:13 *210:5 3.20000005
17 *210:14 *210:13 0.551562
18 *210:14 *210:15 0.156006
19 *210:16 *210:15 1.10312
20 *210:18 *210:16 3.20000005
21 *210:17 *210:18 0.156006
22 *537:A1 *210:17 3.20000005
*END

*D_NET *211 0.00192548

*CONN
*I *605:Y O *C 88.77 42.28 *L 0 *D NAND2X1
*I *542:AN I *C 92.07 43.4 *L 0.0024 *D NAND3BX1
*I *530:B I *C 96.69 43.4 *L 0.00375 *D NAND2X1
*I *475:C I *C 99.33 42.84 *L 0.00425 *D NOR3X1

*CAP
1 *605:Y 0.000159433
2 *542:AN 0.000194763
3 *530:B 0.000191619
4 *475:C 3.98394e-05
5 *211:4 0.0001206
6 *211:5 0.000217732
7 *211:6 0.000115059
8 *211:7 0.0001206
9 *211:8 0.000217732
10 *211:9 0.00023549
11 *211:10 0.000198191
12 *211:11 0.00011443

*RES
1 *211:11 *475:C 0.223828
2 *211:10 *211:11 0.379834
3 *211:9 *211:10 0.671484
4 *211:9 *530:B 0.569727
5 *211:6 *530:B 0.447656
6 *211:7 *211:6 3.20000005
7 *211:8 *211:7 3.20000005
8 *211:5 *211:8 0.919287
9 *211:4 *211:5 3.20000005
10 *542:AN *211:4 3.20000005
11 *605:Y *542:AN 0.895312
*END

*D_NET *212 0.0022746

*CONN
*I *552:Y O *C 103.29 42.84 *L 0 *D INVX1
*I *530:A I *C 97.35 42.84 *L 0.00403 *D NAND2X1
*I *478:B I *C 105.27 47.32 *L 0.00439 *D NOR3X1

*CAP
1 *552:Y 0.000139842
2 *530:A 0.000139842
3 *478:B 6.32992e-05
4 *212:3 0.000201709
5 *212:4 0.000297029375
6 *212:5 0.000120602
7 *212:6 0.000203431
8 *212:7 0.000202248
9 *212:8 0.000212129
10 *212:9 0.000237637
11 *212:10 0.000193551
12 *212:11 0.000263281

*RES
1 *212:3 *478:B 6.4000001
2 *212:4 *212:3 0.624023
3 *212:11 *212:4 0.551562
4 *212:9 *212:11 0.77998
5 *212:9 *552:Y 3.2
6 *212:10 *212:9 3.2
7 *212:7 *212:10 0.735449
8 *212:7 *212:8 0.155957
9 *212:6 *212:8 0.919238
10 *212:5 *212:6 3.2
11 *530:A *212:5 3.2
*END

*D_NET *213 0.00169204

*CONN
*I *540:Y O *C 103.95 84.28 *L 0 *D NAND2BX1
*I *529:A I *C 105.27 83.72 *L 0.0026 *D INVXL
*I *460:B I *C 108.57 77.56 *L 0.00488 *D NOR4BX1

*CAP
1 *540:Y 3.98622e-05
2 *529:A 7.45905e-05
3 *460:B 0.000139839
4 *213:3 0.00016529
5 *213:4 0.000220169
6 *213:5 0.000129172
7 *213:6 0.000142103
8 *213:7 0.00015274
9 *213:8 0.000237768848
10 *213:9 0.000237768848
11 *213:10 0.00015274

*RES
1 *213:8 *460:B 3.20000005
2 *213:8 *213:9 0.624023
3 *213:10 *213:9 3.20000005
4 *213:7 *213:10 0.735449
5 *213:4 *213:7 3.20000005
6 *213:4 *213:3 0.77998
7 *213:6 *213:3 0.183838
8 *213:5 *213:6 3.20000005
9 *213:5 *529:A 0.379834
10 *540:Y *213:5 0.223828
*END

*D_NET *214 0.00040954

*CONN
*I *529:Y O *C 105.93 84.28 *L 0 *D INVXL
*I *477:A0 I *C 107.91 83.72 *L 0.00336 *D OAI21XL

*CAP
1 *529:Y 0.00013018
2 *477:A0 7.45902e-05
3 *214:2 0.00020477

*RES
1 *214:2 *477:A0 0.379827
2 *529:Y *214:2 0.671478271
*END

*D_NET *215 0.00205466

*CONN
*I *607:Y O *C 117.81 79.24 *L 0 *D OAI21XL
*I *543:AN I *C 119.79 77.56 *L 0.0024 *D NAND3BX1
*I *520:B I *C 117.15 73.64 *L 0.00391 *D NAND2BX1
*I *459:D I *C 121.77 72.52 *L 0.00407 *D OR4X2

*CAP
1 *607:Y 9.02419e-05
2 *543:AN 3.9856e-05
3 *520:B 0.00013984
4 *459:D 3.9856e-05
5 *215:4 0.000232642
6 *215:5 0.000177577
7 *215:6 0.000254956
8 *215:7 0.000129505
9 *215:8 0.000114448
10 *215:9 7.51911e-05
11 *215:10 0.000347323
12 *215:11 0.00041322

*RES
1 *215:9 *459:D 0.223828
2 *215:8 *543:AN 0.223828
3 *215:10 *215:9 3.20000005
4 *215:7 *215:8 0.379834
5 *215:10 *215:11 1.09199
6 *607:Y *215:7 0.223828
7 *215:6 *215:11 0.735449
8 *215:6 *607:Y 3.20000005
9 *215:4 *215:6 0.367725
10 *215:5 *215:4 0.77998
11 *520:B *215:5 3.20000005
*END

*D_NET *216 0.00341371

*CONN
*I *519:Y O *C 84.81 63 *L 0 *D NOR2X1
*I *518:A I *C 90.75 67.48 *L 0.00346 *D INVX1
*I *457:B I *C 92.73 57.96 *L 0.00465 *D NAND4X1

*CAP
1 *519:Y 4.22877e-05
2 *518:A 0.000139842
3 *457:B 6.3298e-05
4 *216:3 7.76209e-05
5 *216:4 0.000241299
6 *216:5 0.000241299
7 *216:6 8.70402e-05
8 *216:7 0.000156715
9 *216:8 0.000107947
10 *216:9 0.000419206
11 *216:10 0.000394335
12 *216:11 0.00056477
13 *216:12 0.00056477
14 *216:13 6.14883e-05
15 *216:14 0.000120607
16 *216:15 0.000131172

*RES
1 *216:14 *457:B 6.4000001
2 *216:15 *216:14 3.2
3 *216:13 *216:15 0.183887
4 *216:12 *216:13 3.2
5 *216:6 *518:A 3.2
6 *216:12 *216:11 2.34004
7 *216:7 *216:6 0.312012
8 *216:8 *216:11 3.2
9 *216:9 *216:7 3.2
10 *216:9 *216:8 0.367676
11 *216:10 *216:9 1.4709
12 *216:4 *216:10 3.2
13 *216:5 *216:4 0.624023
14 *216:3 *216:5 6.4000001
15 *519:Y *216:3 0.223828
*END

*D_NET *217 0.00016104

*CONN
*I *518:Y O *C 91.41 68.04 *L 0 *D INVX1
*I *480:B I *C 92.73 67.48 *L 0.00439 *D NOR3X1

*CAP
1 *217:2 8.052e-05
2 *217:3 8.052e-05

*RES
1 *217:3 *480:B 6.4000001
2 *217:2 *217:3 0.367676
3 *518:Y *217:2 3.2
*END

*D_NET *218 0.00135331

*CONN
*I *530:Y O *C 97.35 42.28 *L 0 *D NAND2X1
*I *517:A I *C 98.01 47.32 *L 0.0026 *D INVXL
*I *511:A I *C 96.03 48.44 *L 0.00348 *D NOR3XL

*CAP
1 *530:Y 0.000139841
2 *517:A 7.51884e-05
3 *511:A 7.45917e-05
4 *218:3 0.000184408
5 *218:4 0.00018904
6 *218:5 0.000259
7 *218:6 0.000180776
8 *218:7 0.00025046

*RES
1 *218:6 *530:Y 3.20000005
2 *218:6 *218:7 0.935986
3 *517:A *218:7 3.20000005
4 *218:4 *517:A 0.223828
5 *218:4 *218:5 0.759668
6 *218:3 *218:5 0.447656
7 *511:A *218:3 0.379834
*END

*D_NET *219 0.000938582

*CONN
*I *517:Y O *C 98.67 46.76 *L 0 *D INVXL
*I *466:A0 I *C 101.97 47.32 *L 0.00336 *D OAI21XL

*CAP
1 *517:Y 0.000139842
2 *466:A0 0.000139842
3 *219:2 0.00030314
4 *219:3 0.000230962
5 *219:4 0.000124799

*RES
1 *219:4 *466:A0 3.20000005
2 *219:3 *219:4 0.156006
3 *219:2 *219:3 0.919287
4 *517:Y *219:2 3.20000005
*END

*D_NET *220 0.00749873

*CONN
*I *541:Y O *C 103.29 89.32 *L 0 *D NAND3BX1
*I *516:B0 I *C 122.43 53.48 *L 0.00441 *D AOI21X1
*I *515:A0 I *C 123.09 57.4 *L 0.00465 *D AOI22X1

*CAP
1 *541:Y 8.23939e-05
2 *516:B0 6.33034e-05
3 *515:A0 6.33034e-05
4 *220:3 0.000131067
5 *220:4 0.000252251
6 *220:5 0.000149387
7 *220:6 0.000110163
8 *220:7 0.00012497
9 *220:8 0.000370436
10 *220:9 0.000300747
11 *220:10 0.000713086
12 *220:11 0.000713086
13 *220:12 0.000603789
14 *220:13 0.000563522
15 *220:14 0.00105134
16 *220:15 0.00103671
17 *220:16 0.000437974
18 *220:17 0.000492855
19 *220:18 0.000117735
20 *220:19 0.000120607

*RES
1 *220:6 *515:A0 6.4000001
2 *220:7 *220:6 0.312012
3 *220:5 *516:B0 6.4000001
4 *220:3 *220:7 0.183887
5 *220:5 *220:4 0.467969
6 *220:4 *220:3 0.312012
7 *220:8 *220:4 3.2
8 *220:9 *220:8 1.4709
9 *220:17 *220:9 3.2
10 *220:17 *220:16 1.87197
11 *220:13 *220:16 0.183887
12 *220:13 *220:12 2.34004
13 *220:15 *220:12 0.367676
14 *220:15 *220:14 4.67998
15 *220:10 *220:14 3.2
16 *220:11 *220:10 2.57402
17 *220:19 *220:11 3.2
18 *220:18 *220:19 3.2
19 *541:Y *220:18 0.447656
*END

*D_NET *221 0.00329237

*CONN
*I *543:Y O *C 121.11 79.24 *L 0 *D NAND3BX1
*I *516:A0 I *C 121.77 54.04 *L 0.00465 *D AOI21X1
*I *515:B0 I *C 122.43 57.96 *L 0.00433 *D AOI22X1

*CAP
1 *543:Y 5.49117e-05
2 *516:A0 0.000139837
3 *515:B0 6.3301e-05
4 *221:3 0.000456366
5 *221:4 0.000401489
6 *221:5 0.000270123
7 *221:6 0.000284919
8 *221:7 0.00076894
9 *221:8 0.00076224
10 *221:9 9.02406e-05

*RES
1 *543:Y *221:9 0.223828
2 *221:3 *221:9 3.2
3 *221:4 *221:3 1.71602
4 *221:8 *221:4 0.183887
5 *221:7 *515:B0 6.4000001
6 *221:7 *221:8 3.43203
7 *221:6 *221:7 0.183887
8 *221:5 *221:6 1.09199
9 *516:A0 *221:5 3.2
*END

*D_NET *222 0.00554396

*CONN
*I *624:B I *C 142.89 57.4 *L 0.00389 *D MXI2X1
*I *515:B1 I *C 121.77 57.4 *L 0.00434 *D AOI22X1
*I *513:A1 I *C 120.45 57.96 *L 0.00472 *D AOI22X1
*I *476:Q O *C 143.55 46.76 *L 0 *D DFFRX1

*CAP
1 *624:B 0.000139841
2 *515:B1 3.98628e-05
3 *513:A1 6.3301e-05
4 *476:Q 0.00013125
5 *222:4 5.72338e-05
6 *222:5 0.000126917
7 *222:6 0.000550571
8 *222:7 0.000550571
9 *222:8 0.000286274
10 *222:9 0.000269155
11 *222:10 0.000689108125
12 *222:11 0.000689108125
13 *222:12 0.000328892
14 *222:13 0.000152038
15 *222:14 0.000129557
16 *222:15 7.51936e-05
17 *222:16 5.09142e-05
18 *222:17 0.000217863
19 *222:18 9.33742e-05
20 *222:19 0.000120598
21 *222:20 0.00016658
22 *222:21 0.000199062
23 *222:10 *228:5 0.00020834
24 *222:11 *228:6 0.000208339997

*RES
1 *476:Q *222:20 0.895312
2 *222:7 *222:20 3.2
3 *222:7 *222:6 2.34004
4 *222:19 *624:B 3.2
5 *222:21 *222:6 3.2
6 *222:12 *222:19 3.2
7 *222:12 *222:21 0.919238
8 *222:13 *222:12 0.551562
9 *222:13 *222:8 0.155957
10 *222:9 *222:8 1.28701
11 *222:10 *222:9 0.0780273
12 *515:B1 *222:15 0.223828
13 *222:11 *222:10 3.49326
14 *222:16 *222:15 6.4000001
15 *222:18 *222:11 0.0780273
16 *222:17 *222:16 6.4000001
17 *222:17 *222:18 0.367676
18 *222:4 *513:A1 6.4000001
19 *222:14 *222:17 0.551562
20 *222:5 *222:4 0.155957
21 *222:5 *222:14 3.2
*END

*D_NET *223 0.00198031

*CONN
*I *545:Y O *C 86.13 63 *L 0 *D INVX1
*I *514:A0 I *C 90.75 64.12 *L 0.00465 *D AOI21X1
*I *479:B I *C 94.05 63.56 *L 0.00439 *D NOR3X1

*CAP
1 *545:Y 0.000171187
2 *514:A0 0.000139837
3 *479:B 0.000139837
4 *223:3 0.000283062
5 *223:4 6.80132e-05
6 *223:5 0.000163332
7 *223:6 0.000189837
8 *223:7 0.000263658
9 *223:8 0.000227687
10 *223:9 0.000333851211

*RES
1 *223:8 *479:B 3.20000005
2 *223:8 *223:9 0.468018
3 *223:7 *223:9 0.919287
4 *223:6 *514:A0 3.20000005
5 *223:6 *223:7 0.312012
6 *223:5 *223:6 0.551562
7 *223:4 *223:5 0.156006
8 *223:3 *223:4 3.20000005
9 *545:Y *223:3 0.895312
*END

*D_NET *224 0.00136268

*CONN
*I *514:Y O *C 91.41 64.12 *L 0 *D AOI21X1
*I *472:B I *C 98.01 63.56 *L 0.00439 *D NOR3X1

*CAP
1 *514:Y 0.000139842
2 *472:B 6.33001e-05
3 *224:2 0.000120601
4 *224:3 0.000415676
5 *224:4 6.8951e-05
6 *224:5 6.8951e-05
7 *224:6 0.00048536

*RES
1 *224:4 *472:B 6.4000001
2 *224:4 *224:5 0.155957
3 *224:6 *224:5 3.2
4 *224:3 *224:6 1.65469
5 *224:2 *224:3 3.2
6 *514:Y *224:2 3.2
*END

*D_NET *225 0.0053269

*CONN
*I *544:Y O *C 80.85 61.88 *L 0 *D NAND3BX1
*I *513:B0 I *C 119.13 57.96 *L 0.00433 *D AOI22X1
*I *512:B0 I *C 119.13 53.48 *L 0.00441 *D AOI21X1

*CAP
1 *544:Y 0.000139832
2 *513:B0 0.000139832
3 *512:B0 6.32917e-05
4 *225:3 0.00046447
5 *225:4 0.00032682
6 *225:5 0.000151009
7 *225:6 0.00144473
8 *225:7 0.00143602
9 *225:8 0.000120609
10 *225:9 0.000120609
11 *225:10 0.000120609
12 *225:11 6.03597e-05
13 *225:12 0.000120609
14 *225:13 0.000120609
15 *225:14 5.16518e-05
16 *225:6 *253:16 0.00022292
17 *225:7 *253:17 0.000222919996

*RES
1 *225:4 *512:B0 6.40002
2 *225:3 *513:B0 3.20001
3 *225:4 *225:3 1.24797
4 *225:3 *225:5 0.935978
5 *225:12 *225:5 3.20001
6 *225:13 *225:12 3.20001
7 *225:14 *225:13 3.20001
8 *225:11 *225:14 0.183924
9 *225:11 *225:6 0.155996
10 *225:7 *225:6 10.1121426
11 *225:10 *225:7 3.20001
12 *225:9 *225:10 3.20001
13 *225:8 *225:9 3.20001
14 *544:Y *225:8 3.20001
*END

*D_NET *226 0.0063905

*CONN
*I *542:Y O *C 93.39 41.72 *L 0 *D NAND3BX1
*I *513:A0 I *C 119.79 57.4 *L 0.00465 *D AOI22X1
*I *512:A0 I *C 118.47 54.04 *L 0.00465 *D AOI21X1

*CAP
1 *542:Y 0.000139845
2 *513:A0 6.32952e-05
3 *512:A0 0.000139845
4 *226:3 0.000112428
5 *226:4 0.000112428
6 *226:5 0.00129263
7 *226:6 0.00129263
8 *226:7 0.00011016
9 *226:8 0.000179846
10 *226:9 0.000254364
11 *226:10 0.000254364
12 *226:11 0.000374899
13 *226:12 0.000389692
14 *226:13 0.000489024
15 *226:14 0.000489024
16 *226:15 0.000136275
17 *226:16 0.000191168
18 *226:17 0.000184284
19 *226:18 0.000184284

*RES
1 *226:3 *513:A0 6.4
2 *226:10 *512:A0 3.20005
3 *226:4 *226:3 0.311976
4 *226:10 *226:9 0.623952
5 *226:17 *226:4 3.20005
6 *226:18 *226:9 3.20005
7 *226:18 *226:17 0.367725
8 *226:11 *226:18 3.20005
9 *226:12 *226:11 1.71602
10 *226:12 *226:13 0.183812
11 *226:14 *226:13 2.18403
12 *226:15 *226:14 0.183812
13 *226:16 *226:15 0.468014
14 *226:5 *226:16 3.20005
15 *226:6 *226:5 6.61885691
16 *226:7 *542:Y 3.20005
17 *226:8 *226:6 3.20005
18 *226:8 *226:7 0.311976
*END

*D_NET *227 0.00101331

*CONN
*I *511:Y O *C 95.37 46.76 *L 0 *D NOR3XL
*I *507:A I *C 91.41 47.32 *L 0.00337 *D OR2X2

*CAP
1 *511:Y 0.000118771
2 *507:A 0.00013984
3 *227:2 0.00016682
4 *227:3 0.000141182
5 *227:4 0.0001537
6 *227:5 7.31809e-05
7 *227:6 0.0001541
8 *227:7 6.572e-05

*RES
1 *227:6 *511:Y 0.447656
2 *227:7 *227:6 6.4000001
3 *227:5 *227:7 0.183887
4 *227:3 *507:A 3.2
5 *227:4 *227:5 0.155957
6 *227:2 *227:3 0.312012
7 *227:2 *227:4 0.551562
*END

*D_NET *228 0.00190165

*CONN
*I *515:Y O *C 123.75 58.52 *L 0 *D AOI22X1
*I *510:B I *C 125.73 57.4 *L 0.00375 *D NAND2X1
*I *505:A0 I *C 132.33 57.4 *L 0.00336 *D OAI21XL

*CAP
1 *515:Y 7.65388e-05
2 *510:B 3.98627e-05
3 *505:A0 6.33027e-05
4 *228:3 5.77598e-05
5 *228:4 0.000127442
6 *228:5 0.0004219
7 *228:6 0.0004219
8 *228:7 0.000120599
9 *228:8 7.85152e-05
10 *228:9 7.71568e-05
11 *228:5 *222:10 0.00020834
12 *228:6 *222:11 0.000208339997

*RES
1 *228:3 *505:A0 6.4000001
2 *228:4 *228:3 0.155957
3 *228:5 *228:4 3.2
4 *228:6 *228:5 2.20625
5 *228:9 *510:B 0.223828
6 *228:7 *228:6 3.2
7 *228:8 *228:9 0.189941
8 *515:Y *228:7 3.2
9 *515:Y *228:8 0.223828
*END

*D_NET *229 0.00183933

*CONN
*I *513:Y O *C 120.45 58.52 *L 0 *D AOI22X1
*I *510:A I *C 126.39 57.96 *L 0.00403 *D NAND2X1
*I *508:AN I *C 127.71 59.64 *L 0.0021 *D NAND2BX1

*CAP
1 *513:Y 6.33032e-05
2 *510:A 0.000139841
3 *508:AN 6.33032e-05
4 *229:3 0.000160974
5 *229:4 9.12893e-05
6 *229:5 0.00039156
7 *229:6 0.000321702
8 *229:7 0.000152944
9 *229:8 0.000166913
10 *229:9 0.000166913
11 *229:10 0.000120602

*RES
1 *229:9 *510:A 3.2
2 *229:10 *508:AN 6.4000001
3 *229:9 *229:8 0.467969
4 *229:7 *229:10 3.2
5 *229:5 *229:8 3.2
6 *229:5 *229:7 0.367676
7 *229:6 *229:5 1.4709
8 *229:3 *229:6 3.2
9 *229:4 *229:3 0.312012
10 *513:Y *229:4 6.4000001
*END

*D_NET *230 0.00430694

*CONN
*I *512:Y O *C 119.13 54.04 *L 0 *D AOI21X1
*I *509:B I *C 144.21 52.92 *L 0.0041 *D NOR2BX1
*I *504:B I *C 126.39 53.48 *L 0.00444 *D NAND3BX1

*CAP
1 *512:Y 3.98616e-05
2 *509:B 0.000139848
3 *504:B 6.33106e-05
4 *230:3 0.000909113
5 *230:4 0.00117938
6 *230:5 0.000423036
7 *230:6 0.000151726
8 *230:7 0.000120592
9 *230:8 0.000120592
10 *230:9 0.000119189
11 *230:10 4.95075e-05
12 *230:3 *233:8 0.00019014
13 *230:4 *233:9 0.00019014
14 *230:10 *233:6 8.86e-06
15 *230:9 *233:7 8.86000894e-06
16 *230:3 *234:10 6.364e-05
17 *230:4 *234:8 6.364e-05
18 *230:3 *234:3 0.00022012
19 *230:4 *234:4 0.00022012
20 *230:4 *234:3 1.263e-05
21 *230:5 *234:4 1.26300062e-05

*RES
1 *230:9 *509:B 3.2
2 *230:9 *230:10 0.155957
3 *230:8 *504:B 6.4000001
4 *230:3 *230:10 3.2
5 *230:4 *230:8 3.2
6 *230:4 *230:3 4.96416
7 *230:5 *230:4 1.65469
8 *230:7 *230:5 3.2
9 *230:6 *230:7 3.2
10 *512:Y *230:6 0.223828
*END

*D_NET *231 0.00201747

*CONN
*I *507:Y O *C 93.39 46.2 *L 0 *D OR2X2
*I *430:A1 I *C 98.01 57.4 *L 0.00496 *D AOI221X1

*CAP
1 *507:Y 4.12089e-05
2 *430:A1 0.000139842
3 *231:2 0.00020037
4 *231:3 0.00020037
5 *231:4 0.00033682
6 *231:5 0.00033682
7 *231:6 7.85117e-05
8 *231:7 7.99919e-05
9 *231:8 0.000301768
10 *231:9 0.000301768

*RES
1 *231:2 *430:A1 3.20000005
2 *231:3 *231:2 0.624023
3 *231:9 *231:3 3.20000005
4 *231:8 *231:9 1.10312
5 *231:4 *231:8 3.20000005
6 *231:5 *231:4 1.56001
7 *231:7 *231:5 3.20000005
8 *231:6 *231:7 0.189893
9 *507:Y *231:6 0.223828
*END

*D_NET *232 0.0017468

*CONN
*I *509:Y O *C 144.21 54.04 *L 0 *D NOR2BX1
*I *506:B0 I *C 140.91 52.36 *L 0.00406 *D AOI2BB1X1
*I *497:B0 I *C 136.95 53.48 *L 0.00441 *D AOI21X1

*CAP
1 *509:Y 0.00013984
2 *506:B0 0.00013984
3 *497:B0 6.33033e-05
4 *232:3 0.000100652
5 *232:4 0.000261689
6 *232:5 6.57223e-05
7 *232:6 0.00030314
8 *232:7 0.00024117
9 *232:8 0.000120597
10 *232:9 0.000310848164

*RES
1 *232:8 *509:Y 3.2
2 *232:9 *232:8 3.2
3 *232:7 *232:9 1.10312
4 *232:6 *506:B0 3.2
5 *232:6 *232:7 3.2
6 *232:4 *232:6 0.919238
7 *232:4 *232:3 0.312012
8 *232:5 *232:3 0.183887
9 *497:B0 *232:5 6.4000001
*END

*D_NET *233 0.00285716

*CONN
*I *624:Y O *C 141.57 56.84 *L 0 *D MXI2X1
*I *509:AN I *C 142.89 52.92 *L 0.00218 *D NOR2BX1
*I *506:A1N I *C 140.25 53.48 *L 0.0024 *D AOI2BB1X1
*I *503:A I *C 138.27 57.4 *L 0.00377 *D MXI2X1

*CAP
1 *624:Y 0.000139841
2 *509:AN 0.000139841
3 *506:A1N 7.97304e-05
4 *503:A 3.98584e-05
5 *233:4 0.000296058359
6 *233:5 0.00025962
7 *233:6 0.000160532
8 *233:7 9.08527e-05
9 *233:8 0.000243971
10 *233:9 0.000174288
11 *233:10 0.000117027
12 *233:11 0.000156529
13 *233:12 7.51903e-05
14 *233:13 0.000222942
15 *233:14 0.000262881
16 *233:8 *230:3 0.00019014
17 *233:9 *230:4 0.00019014
18 *233:6 *230:10 8.86e-06
19 *233:7 *230:9 8.86000894e-06

*RES
1 *233:7 *509:AN 3.20000005
2 *233:7 *233:6 0.312012
3 *233:10 *506:A1N 0.447656
4 *233:8 *233:6 3.20000005
5 *233:10 *233:11 0.189893
6 *233:9 *233:8 1.10312
7 *233:14 *624:Y 3.20000005
8 *233:5 *233:11 3.20000005
9 *233:5 *233:9 3.20000005
10 *233:13 *233:14 0.735449
11 *233:5 *233:4 0.935986
12 *233:4 *233:13 0.312012
13 *233:12 *233:4 3.20000005
14 *503:A *233:12 0.223828
*END

*D_NET *234 0.00280938

*CONN
*I *516:Y O *C 122.43 54.04 *L 0 *D AOI21X1
*I *506:A0N I *C 139.59 52.92 *L 0.00236 *D AOI2BB1X1
*I *504:C I *C 125.73 52.36 *L 0.00444 *D NAND3BX1

*CAP
1 *516:Y 8.34287e-05
2 *506:A0N 6.33033e-05
3 *504:C 0.000139847
4 *234:3 0.000582823
5 *234:4 0.00064369
6 *234:5 0.000195302
7 *234:6 0.000182367
8 *234:7 0.000112679
9 *234:8 8.55307e-05
10 *234:9 5.09275e-05
11 *234:10 7.67203e-05
12 *234:10 *230:3 6.364e-05
13 *234:8 *230:4 6.364e-05
14 *234:3 *230:3 0.00022012
15 *234:4 *230:4 0.00022012
16 *234:3 *230:4 1.263e-05
17 *234:4 *230:5 1.26300062e-05

*RES
1 *234:9 *506:A0N 6.4000001
2 *234:10 *234:9 6.4000001
3 *234:8 *234:10 0.367676
4 *234:3 *234:8 0.155957
5 *234:4 *234:3 3.49326
6 *234:7 *504:C 3.2
7 *234:7 *234:4 3.2
8 *234:6 *234:7 0.367676
9 *234:5 *234:6 3.2
10 *516:Y *234:5 0.447656
*END

*D_NET *235 0.00183187

*CONN
*I *508:Y O *C 129.03 56.84 *L 0 *D NAND2BX1
*I *505:B0 I *C 132.99 58.52 *L 0.00302 *D OAI21XL
*I *494:B0 I *C 133.65 52.36 *L 0.00302 *D OAI21XL

*CAP
1 *508:Y 9.46795e-05
2 *505:B0 3.98588e-05
3 *494:B0 8.21521e-05
4 *235:3 0.000354815
5 *235:4 0.000206551
6 *235:5 0.00043119
7 *235:6 0.000117484
8 *235:7 0.000142098
9 *235:8 7.28815e-05
10 *235:9 7.28815e-05
11 *235:10 7.5191e-05
12 *235:11 0.000142098

*RES
1 *235:10 *505:B0 0.223828
2 *235:6 *494:B0 0.671484
3 *235:11 *235:10 3.20000005
4 *235:7 *235:6 3.20000005
5 *235:9 *235:11 0.183838
6 *235:3 *235:7 0.183838
7 *235:8 *235:9 0.156006
8 *235:3 *235:5 1.56001
9 *235:5 *235:8 0.183838
10 *235:4 *235:5 3.20000005
11 *508:Y *235:4 0.447656
*END

*D_NET *236 0.00317642

*CONN
*I *510:Y O *C 126.39 58.52 *L 0 *D NAND2X1
*I *504:AN I *C 125.07 53.48 *L 0.0024 *D NAND3BX1
*I *503:S0 I *C 134.97 57.96 *L 0.00672 *D MXI2X1
*I *499:A1 I *C 129.03 53.48 *L 0.00443 *D AOI21X1

*CAP
1 *510:Y 0.000139835
2 *504:AN 0.000139835
3 *503:S0 0.000139835
4 *499:A1 3.98641e-05
5 *236:4 0.000126936
6 *236:5 5.72504e-05
7 *236:6 0.0002142
8 *236:7 0.000243916
9 *236:8 0.000186316
10 *236:9 0.000160683
11 *236:10 8.64495e-05
12 *236:11 8.64495e-05
13 *236:12 0.000188945
14 *236:13 0.0005743
15 *236:14 0.0005743
16 *236:15 7.51887e-05
17 *236:16 0.000142105

*RES
1 *236:5 *503:S0 3.20000005
2 *236:5 *236:4 0.156006
3 *236:15 *499:A1 0.223828
4 *236:13 *236:4 3.20000005
5 *236:16 *236:15 3.20000005
6 *236:14 *236:13 2.2063
7 *236:11 *236:16 0.183838
8 *236:12 *236:14 3.20000005
9 *236:11 *236:10 0.312012
10 *236:6 *236:12 0.468018
11 *236:6 *510:Y 3.20000005
12 *236:7 *236:10 0.183838
13 *236:7 *236:6 0.624023
14 *236:8 *236:7 0.551562
15 *236:9 *236:8 0.312012
16 *504:AN *236:9 3.20000005
*END

*D_NET *237 0.000851322

*CONN
*I *503:Y O *C 136.95 56.84 *L 0 *D MXI2X1
*I *497:A0 I *C 136.29 54.04 *L 0.00465 *D AOI21X1

*CAP
1 *503:Y 0.000139842
2 *497:A0 0.000139842
3 *237:2 0.000142099
4 *237:3 0.00022217
5 *237:4 0.000207369

*RES
1 *237:4 *503:Y 3.20000005
2 *237:3 *237:4 0.77998
3 *237:2 *237:3 0.183838
4 *497:A0 *237:2 3.20000005
*END

*D_NET *238 0.00271337

*CONN
*I *504:Y O *C 126.39 51.8 *L 0 *D NAND3BX1
*I *502:B I *C 123.09 43.4 *L 0.00391 *D NAND2BX1
*I *501:A I *C 123.09 37.8 *L 0.00238 *D OR2XL

*CAP
1 *504:Y 0.000139836
2 *502:B 0.000139836
3 *501:A 6.33014e-05
4 *238:3 0.000482322656
5 *238:4 0.000331146
6 *238:5 0.000234247
7 *238:6 0.00024377
8 *238:7 0.000452413
9 *238:8 0.00024377
10 *238:9 0.00038273

*RES
1 *238:9 *504:Y 3.2
2 *238:7 *238:9 1.71602
3 *238:8 *238:7 3.2
4 *238:6 *238:8 0.919238
5 *238:5 *238:6 3.2
6 *238:3 *502:B 3.2
7 *238:3 *238:5 0.624023
8 *238:4 *238:3 1.55996
9 *501:A *238:4 6.4000001
*END

*D_NET *239 0.00143503

*CONN
*I *501:Y O *C 125.07 38.36 *L 0 *D OR2XL
*I *498:D I *C 131.67 36.68 *L 0.00184 *D DFFRHQX1

*CAP
1 *501:Y 0.000160377
2 *498:D 6.33007e-05
3 *239:2 0.00035673
4 *239:3 0.00028705
5 *239:4 0.000125633
6 *239:5 0.00019571
7 *239:6 0.000125633
8 *239:7 0.000120603

*RES
1 *239:7 *498:D 6.4000001
2 *239:2 *239:7 3.2
3 *239:3 *239:2 1.10312
4 *239:4 *239:3 3.2
5 *239:4 *239:6 0.155957
6 *239:5 *239:6 3.2
7 *501:Y *239:5 0.895312
*END

*D_NET *240 0.00164723

*CONN
*I *505:Y O *C 132.99 59.08 *L 0 *D OAI21XL
*I *499:B0 I *C 130.35 53.48 *L 0.00441 *D AOI21X1
*I *494:A1 I *C 132.33 53.48 *L 0.00324 *D OAI21XL

*CAP
1 *505:Y 0.000139841
2 *499:B0 6.3299e-05
3 *494:A1 4.227e-05
4 *240:3 0.00016477
5 *240:4 0.000165622
6 *240:5 0.000138989
7 *240:6 6.93088e-05
8 *240:7 6.93088e-05
9 *240:8 7.76022e-05
10 *240:9 0.00022779082
11 *240:10 0.00015811
12 *240:11 0.00014908
13 *240:12 0.000108819
14 *240:13 7.24196e-05

*RES
1 *240:13 *505:Y 3.2
2 *240:12 *240:13 0.183887
3 *240:8 *494:A1 0.223828
4 *240:11 *240:12 0.312012
5 *240:5 *240:8 3.2
6 *240:3 *240:11 0.367676
7 *240:5 *240:4 0.155957
8 *240:4 *240:3 0.312012
9 *240:9 *240:4 3.2
10 *240:10 *240:9 0.367676
11 *240:6 *240:10 6.4000001
12 *240:7 *240:6 0.155957
13 *499:B0 *240:7 6.4000001
*END

*D_NET *241 0.00294016

*CONN
*I *506:Y O *C 141.57 54.04 *L 0 *D AOI2BB1X1
*I *499:A0 I *C 129.69 54.04 *L 0.00465 *D AOI21X1
*I *497:A1 I *C 135.63 53.48 *L 0.00443 *D AOI21X1

*CAP
1 *506:Y 0.000139838
2 *499:A0 0.000139838
3 *497:A1 0.000139838
4 *241:3 0.000160996
5 *241:4 9.13169e-05
6 *241:5 0.0001739
7 *241:6 0.0001739
8 *241:7 0.000182717
9 *241:8 0.000113037
10 *241:9 0.000313885
11 *241:10 0.00060315
12 *241:11 0.000302666
13 *241:9 *83:17 0.00010894
14 *241:10 *83:18 0.00010894
15 *241:10 *83:18 9.36e-05
16 *241:11 *83:19 9.35999944e-05

*RES
1 *241:8 *506:Y 3.20000005
2 *241:6 *497:A1 3.20000005
3 *241:8 *241:7 0.312012
4 *241:6 *241:5 0.468018
5 *241:9 *241:7 3.20000005
6 *241:10 *241:5 3.20000005
7 *241:10 *241:9 1.65474
8 *241:11 *241:10 1.65474
9 *241:3 *241:11 3.20000005
10 *241:4 *241:3 0.312012
11 *499:A0 *241:4 3.20000005
*END

*D_NET *242 0.0010458

*CONN
*I *497:Y O *C 136.95 54.04 *L 0 *D AOI21X1
*I *494:A0 I *C 132.99 53.48 *L 0.00336 *D OAI21XL

*CAP
1 *497:Y 6.32999e-05
2 *494:A0 0.000139841
3 *242:2 0.000222618
4 *242:3 0.0002369
5 *242:4 0.000196641
6 *242:5 0.000186502

*RES
1 *242:5 *497:Y 6.4000001
2 *242:3 *242:5 0.735449
3 *242:3 *242:4 0.467969
4 *242:2 *242:4 0.551562
5 *494:A0 *242:2 3.2
*END

*D_NET *243 0.00286394

*CONN
*I *499:Y O *C 130.35 54.04 *L 0 *D AOI21X1
*I *496:B0 I *C 119.79 47.32 *L 0.00464 *D OAI2BB2X1
*I *496:A1N I *C 117.81 47.88 *L 0.00219 *D OAI2BB2X1

*CAP
1 *499:Y 6.32978e-05
2 *496:B0 0.00013984
3 *496:A1N 6.32978e-05
4 *243:3 0.00036545
5 *243:4 0.00036545
6 *243:5 0.000115242
7 *243:6 0.000123936
8 *243:7 0.000151578
9 *243:8 0.000143659
10 *243:9 6.64429e-05
11 *243:10 0.000106699
12 *243:11 6.5718e-05
13 *243:12 0.000141044
14 *243:13 0.000149738
15 *243:14 0.000226112
16 *243:15 0.000163132
17 *243:3 *84:11 8.069e-05
18 *243:4 *84:12 8.069e-05
19 *243:5 *84:11 3.67e-05
20 *243:6 *84:12 3.67e-05
21 *243:7 *84:22 1.773e-05
22 *243:8 *84:21 1.773e-05
23 *243:7 *84:20 6.267e-05
24 *243:8 *84:19 6.267e-05
25 *243:9 *84:9 8.86e-06
26 *243:10 *84:10 8.86000522e-06

*RES
1 *243:15 *499:Y 6.4000001
2 *243:14 *243:15 0.624023
3 *243:5 *243:14 3.2
4 *243:6 *243:5 0.551562
5 *243:6 *243:3 0.155957
6 *243:4 *243:3 2.02246
7 *243:13 *243:4 0.155957
8 *243:12 *243:13 0.551562
9 *243:7 *243:12 3.2
10 *243:8 *496:B0 3.2
11 *243:8 *243:7 0.624023
12 *243:10 *243:8 0.367676
13 *243:10 *243:9 0.155957
14 *243:11 *243:9 0.183887
15 *496:A1N *243:11 6.4000001
*END

*D_NET *244 0.000953088

*CONN
*I *491:Y O *C 123.09 49 *L 0 *D OAI22XL
*I *476:D I *C 130.35 48.44 *L 0.00206 *D DFFRX1

*CAP
1 *491:Y 0.000201179
2 *476:D 0.000139842
3 *244:2 0.00023651
4 *244:3 0.000222619
5 *244:4 0.000152938

*RES
1 *244:4 *476:D 3.20000005
2 *244:3 *244:4 0.551562
3 *244:2 *244:3 3.20000005
4 *491:Y *244:2 1.11914
*END

*D_NET *245 0.00368818

*CONN
*I *665:B I *C 113.19 42.84 *L 0.0041 *D NOR2BX1
*I *654:Y O *C 119.13 36.68 *L 0 *D NOR2BX1
*I *502:AN I *C 122.43 41.16 *L 0.0021 *D NAND2BX1
*I *501:B I *C 123.75 38.36 *L 0.00256 *D OR2XL
*I *488:B I *C 115.17 42.84 *L 0.00385 *D NOR2X1

*CAP
1 *665:B 0.000139838
2 *654:Y 7.97333e-05
3 *502:AN 5.49102e-05
4 *501:B 0.000130173
5 *488:B 3.98423e-05
6 *245:5 0.00013018
7 *245:6 0.000115558
8 *245:7 7.10574e-05
9 *245:8 0.00015171
10 *245:9 0.000101242
11 *245:10 0.000113441
12 *245:11 0.000137582
13 *245:12 9.73218e-05
14 *245:13 0.00021476
15 *245:14 0.00045632
16 *245:15 0.000115057
17 *245:16 0.000142101
18 *245:17 0.000183398
19 *245:18 0.000303141
20 *245:19 0.000165503
21 *245:20 0.00026749
22 *245:21 0.000210338
23 *245:22 0.00026749

*RES
1 *245:19 *501:B 0.671484
2 *245:20 *245:19 3.20000005
3 *245:20 *245:22 0.77998
4 *245:15 *654:Y 0.447656
5 *245:21 *245:22 3.20000005
6 *245:21 *502:AN 0.223828
7 *245:16 *245:15 3.20000005
8 *245:17 *245:21 0.671484
9 *245:13 *245:16 0.183838
10 *245:18 *245:17 3.20000005
11 *245:13 *245:14 0.77998
12 *245:14 *245:18 0.919287
13 *245:11 *245:14 0.367725
14 *245:11 *245:12 0.312012
15 *245:8 *488:B 0.223828
16 *245:7 *245:12 0.183838
17 *245:9 *245:8 3.20000005
18 *245:7 *245:9 0.156006
19 *245:9 *245:10 0.156006
20 *245:6 *245:10 0.367725
21 *245:5 *245:6 0.156006
22 *665:B *245:5 3.20000005
*END

*D_NET *246 0.00887018

*CONN
*I *665:AN I *C 111.87 42.84 *L 0.00218 *D NOR2BX1
*I *494:Y O *C 133.65 51.8 *L 0 *D OAI21XL
*I *493:A I *C 113.19 53.48 *L 0.0043 *D NOR2X1
*I *492:A I *C 112.53 47.88 *L 0.00403 *D NAND2X1
*I *490:A I *C 115.17 57.96 *L 0.00403 *D NAND2X1
*I *489:A I *C 117.15 57.4 *L 0.0043 *D NOR2X1
*I *488:A I *C 115.83 43.4 *L 0.0043 *D NOR2X1
*I *486:A0 I *C 127.71 43.4 *L 0.0034 *D AOI22XL

*CAP
1 *665:AN 0.000139836
2 *494:Y 0.000139836
3 *493:A 6.33033e-05
4 *492:A 0.000139836
5 *490:A 0.000139836
6 *489:A 6.33033e-05
7 *488:A 6.33033e-05
8 *486:A0 0.000139836
9 *246:8 0.000387241
10 *246:9 7.10686e-05
11 *246:10 0.00040175
12 *246:11 0.00080649
13 *246:12 0.000461004
14 *246:13 0.000501443
15 *246:14 0.00024631
16 *246:15 0.00031221
17 *246:16 0.000529563
18 *246:17 0.000529563
19 *246:18 0.000529415
20 *246:19 0.00045303
21 *246:20 0.000409847
22 *246:21 0.000458026
23 *246:22 0.000145337
24 *246:23 0.000127751
25 *246:24 0.000127751
26 *246:25 0.000315065
27 *246:26 0.000120601
28 *246:27 9.07463e-05
29 *246:28 8.40517e-05
30 *246:29 0.000252807
31 *246:30 0.000311397
32 *246:31 0.000154308
33 *246:32 0.000154308

*RES
1 *246:27 *489:A 6.4000001
2 *246:23 *490:A 3.2
3 *246:27 *246:28 0.312012
4 *246:23 *246:24 0.155957
5 *246:29 *246:28 3.2
6 *246:16 *494:Y 3.2
7 *246:25 *246:24 3.2
8 *246:25 *246:29 0.551562
9 *246:31 *486:A0 3.2
10 *246:17 *246:16 2.02803
11 *246:22 *246:25 0.551562
12 *246:31 *246:32 0.312012
13 *246:10 *246:17 3.2
14 *246:21 *246:22 3.2
15 *246:11 *246:32 3.2
16 *246:11 *246:10 1.83857
17 *246:20 *493:A 6.4000001
18 *246:20 *246:21 1.404
19 *246:12 *246:11 2.20625
20 *246:19 *246:20 0.183887
21 *246:26 *488:A 6.4000001
22 *246:30 *246:12 0.312012
23 *246:18 *492:A 3.2
24 *246:18 *246:19 1.55996
25 *246:13 *246:26 3.2
26 *246:13 *246:30 1.10312
27 *246:15 *246:18 0.183887
28 *246:14 *246:13 1.10312
29 *246:8 *246:15 1.24805
30 *246:8 *246:14 3.2
31 *246:9 *246:8 0.155957
32 *665:AN *246:9 3.2
*END

*D_NET *247 0.00451004

*CONN
*I *500:Y O *C 119.79 42.84 *L 0 *D INVX1
*I *491:B0 I *C 122.43 47.32 *L 0.00339 *D OAI22XL
*I *486:A1 I *C 128.37 42.84 *L 0.00344 *D AOI22XL
*I *471:B I *C 114.51 53.48 *L 0.00375 *D NAND2X1

*CAP
1 *500:Y 0.000209909
2 *491:B0 6.33023e-05
3 *486:A1 6.33023e-05
4 *471:B 0.000111893
5 *247:4 0.000272929
6 *247:5 0.000287548
7 *247:6 0.000115062
8 *247:7 0.00046352168
9 *247:8 0.000402539
10 *247:9 0.000238653
11 *247:10 0.000409669
12 *247:11 0.000162089
13 *247:12 0.000424288
14 *247:13 0.000165513
15 *247:14 0.0002007
16 *247:15 0.000157775
17 *247:16 0.000186081
18 *247:17 0.000171631
19 *247:18 0.000116568
20 *247:19 0.000166475
21 *247:20 0.0001206

*RES
1 *247:20 *486:A1 6.4000001
2 *247:7 *247:20 3.2
3 *247:8 *247:7 1.4709
4 *247:18 *491:B0 6.4000001
5 *247:8 *247:19 0.155957
6 *247:17 *247:18 0.624023
7 *247:15 *247:19 0.551562
8 *247:16 *247:17 0.367676
9 *247:14 *247:15 3.2
10 *247:14 *247:16 0.467969
11 *247:6 *247:14 3.2
12 *500:Y *247:6 0.447656
13 *247:13 *500:Y 0.671484
14 *247:5 *247:13 3.2
15 *247:5 *247:4 1.09199
16 *247:10 *247:4 0.367676
17 *247:10 *247:12 1.55996
18 *247:11 *247:12 3.2
19 *247:9 *471:B 0.569727
20 *247:9 *247:11 0.671484
*END

*D_NET *248 0.00109278

*CONN
*I *486:Y O *C 129.03 43.96 *L 0 *D AOI22XL
*I *473:A I *C 129.03 37.24 *L 0.0026 *D INVXL

*CAP
1 *486:Y 0.000139843
2 *473:A 0.000139843
3 *248:2 0.000371708
4 *248:3 0.00044139

*RES
1 *248:3 *486:Y 3.20000005
2 *248:2 *248:3 1.71602
3 *473:A *248:2 3.20000005
*END

*D_NET *249 0.00121712

*CONN
*I *485:Y O *C 115.17 33.32 *L 0 *D OAI2BB2X1
*I *464:D I *C 117.15 26.6 *L 0.00184 *D DFFRHQX1

*CAP
1 *485:Y 0.000139841
2 *464:D 6.33002e-05
3 *249:2 0.00048153
4 *249:3 0.000386209
5 *249:4 0.000146241

*RES
1 *249:4 *464:D 6.4000001
2 *249:3 *485:Y 3.2
3 *249:2 *249:4 0.551562
4 *249:2 *249:3 1.55996
*END

*D_NET *250 0.0052737

*CONN
*I *554:Y O *C 116.49 82.04 *L 0 *D OAI21XL
*I *520:AN I *C 116.49 71.4 *L 0.0021 *D NAND2BX1
*I *481:C I *C 109.23 67.48 *L 0.00391 *D AND3X2
*I *459:C I *C 120.45 73.08 *L 0.004 *D OR4X2

*CAP
1 *554:Y 0.000139844
2 *520:AN 0.000139844
3 *481:C 0.000159465
4 *459:C 0.000139844
5 *250:4 0.000241918
6 *250:5 0.000178936
7 *250:6 0.000232918
8 *250:7 0.000232918
9 *250:8 0.000110078
10 *250:9 0.000179754
11 *250:10 0.000274111
12 *250:11 0.00089359
13 *250:12 0.000632869
14 *250:13 6.35405e-05
15 *250:14 6.35405e-05
16 *250:15 0.000194794
17 *250:16 0.000120604
18 *250:17 0.000637573
19 *250:18 0.000637573

*RES
1 *250:6 *554:Y 3.2
2 *250:7 *250:6 0.624023
3 *250:13 *250:7 3.2
4 *250:8 *459:C 3.2
5 *250:14 *250:13 0.183887
6 *250:9 *250:8 0.467969
7 *250:18 *250:14 3.2
8 *250:16 *520:AN 3.2
9 *250:10 *250:9 3.2
10 *250:17 *250:18 2.34004
11 *250:11 *250:16 3.2
12 *250:11 *250:10 1.10312
13 *250:11 *250:17 3.2
14 *250:12 *250:11 2.75781
15 *250:4 *250:12 3.2
16 *250:5 *250:4 1.09199
17 *250:15 *481:C 0.895312
18 *250:15 *250:5 6.4000001
*END

*D_NET *251 0.00469802

*CONN
*I *608:Y O *C 77.55 61.88 *L 0 *D OAI21XL
*I *544:AN I *C 79.53 63.56 *L 0.0024 *D NAND3BX1
*I *514:A1 I *C 90.09 63.56 *L 0.00443 *D AOI21X1
*I *480:C I *C 92.07 68.04 *L 0.00425 *D NOR3X1
*I *457:C I *C 91.41 57.4 *L 0.00463 *D NAND4X1

*CAP
1 *608:Y 8.34216e-05
2 *544:AN 0.000118765
3 *514:A1 0.000139848
4 *480:C 6.33005e-05
5 *457:C 0.000139848
6 *251:5 0.000179298
7 *251:6 0.000116315
8 *251:7 0.000445114
9 *251:8 0.000453926
10 *251:9 0.000115925
11 *251:10 0.000115925
12 *251:11 0.000191132
13 *251:12 0.000182321
14 *251:13 0.000120605
15 *251:14 0.00010169
16 *251:15 0.000407309
17 *251:16 0.000120605
18 *251:17 0.00079869
19 *251:18 0.000511973
20 *251:19 0.000120605
21 *251:20 0.000171389

*RES
1 *251:6 *480:C 6.4000001
2 *251:19 *457:C 3.2
3 *251:6 *251:5 0.624023
4 *251:20 *251:19 3.2
5 *251:9 *251:5 3.2
6 *251:14 *251:20 0.367676
7 *251:10 *251:9 0.551562
8 *251:15 *251:14 3.2
9 *251:18 *251:10 3.2
10 *251:16 *514:A1 3.2
11 *251:15 *251:17 1.55996
12 *251:17 *251:18 2.02803
13 *251:7 *251:16 3.2
14 *251:7 *251:17 3.2
15 *251:8 *251:7 2.02246
16 *251:8 *251:11 0.155957
17 *251:12 *251:11 0.919238
18 *251:13 *251:12 3.2
19 *544:AN *251:13 6.4000001
20 *608:Y *544:AN 0.447656
*END

*D_NET *252 0.00439081

*CONN
*I *556:Y O *C 83.49 69.16 *L 0 *D OAI22X1
*I *519:A I *C 84.15 63.56 *L 0.0043 *D NOR2X1
*I *514:B0 I *C 91.41 63.56 *L 0.00441 *D AOI21X1
*I *479:C I *C 93.39 63 *L 0.00425 *D NOR3X1
*I *463:B I *C 92.73 52.92 *L 0.00455 *D NAND3X1

*CAP
1 *556:Y 6.33012e-05
2 *519:A 6.33012e-05
3 *514:B0 6.33012e-05
4 *479:C 3.98428e-05
5 *463:B 0.00013984
6 *252:5 0.000105944
7 *252:6 0.000165853
8 *252:7 5.59452e-05
9 *252:8 5.62646e-05
10 *252:9 9.79863e-05
11 *252:10 7.07512e-05
12 *252:11 0.000111007
13 *252:12 0.000545999
14 *252:13 0.000186005
15 *252:14 0.000186005
16 *252:15 6.5725e-05
17 *252:16 0.000539939
18 *252:17 0.000539939
19 *252:18 8.41856e-05
20 *252:19 0.00015411
21 *252:20 0.000615679102
22 *252:21 0.00018236
23 *252:22 7.51761e-05
24 *252:23 0.00018236

*RES
1 *252:21 *463:B 3.2
2 *252:11 *252:21 0.367676
3 *252:11 *252:10 0.155957
4 *252:16 *252:10 0.183887
5 *252:16 *252:17 2.34004
6 *252:22 *479:C 0.223828
7 *252:17 *252:18 0.183887
8 *252:23 *252:22 3.2
9 *252:18 *252:19 0.312012
10 *252:19 *252:23 0.367676
11 *252:9 *514:B0 6.4000001
12 *252:19 *252:9 0.155957
13 *252:15 *556:Y 6.4000001
14 *252:9 *252:8 0.155957
15 *252:14 *252:15 0.183887
16 *252:20 *252:8 3.2
17 *252:13 *252:14 0.624023
18 *252:12 *252:20 2.02246
19 *252:5 *252:13 0.183887
20 *252:6 *252:12 3.2
21 *252:6 *252:5 0.312012
22 *252:7 *252:6 0.155957
23 *519:A *252:7 6.4000001
*END

*D_NET *253 0.006366

*CONN
*I *490:Y O *C 115.17 58.52 *L 0 *D NAND2X1
*I *484:A I *C 94.05 57.4 *L 0.00346 *D INVX1
*I *480:A I *C 93.39 68.6 *L 0.0047 *D NOR3X1
*I *479:A I *C 94.71 62.44 *L 0.0047 *D NOR3X1
*I *472:A I *C 98.67 62.44 *L 0.0047 *D NOR3X1

*CAP
1 *490:Y 0.000139841
2 *484:A 0.000139841
3 *480:A 0.000139841
4 *479:A 0.000139841
5 *472:A 0.000139841
6 *253:5 0.000215412
7 *253:6 0.000444888
8 *253:7 0.000272484
9 *253:8 0.0002661
10 *253:9 0.000335779
11 *253:10 0.000190325
12 *253:11 0.000190325
13 *253:12 0.000202001
14 *253:13 0.000202001
15 *253:14 8.57791e-05
16 *253:15 8.57791e-05
17 *253:16 0.00070199
18 *253:17 0.00070199
19 *253:18 0.000142101
20 *253:19 0.000142101
21 *253:20 0.000120603
22 *253:21 0.000120603
23 *253:22 0.000120603
24 *253:16 *225:6 0.00022292
25 *253:17 *225:7 0.000222919996
26 *253:5 *139:5 0.00012399
27 *253:6 *139:6 0.00012399
28 *253:6 *139:5 0.00018143
29 *253:7 *139:6 0.00018143
30 *253:10 *139:5 3.463e-05
31 *253:11 *139:6 3.46299876e-05

*RES
1 *253:15 *490:Y 3.20001
2 *253:15 *253:14 0.467992
3 *253:21 *253:14 3.20001
4 *253:22 *253:21 3.20001
5 *253:16 *253:22 3.20001
6 *253:17 *253:16 4.78028584
7 *253:13 *253:17 3.20001
8 *253:20 *472:A 3.20001
9 *253:13 *253:12 0.624013
10 *253:19 *484:A 3.20001
11 *253:8 *253:20 3.20001
12 *253:8 *253:12 3.20001
13 *253:19 *253:7 0.183885
14 *253:9 *253:8 1.10317
15 *253:6 *479:A 3.20001
16 *253:7 *253:6 1.40398
17 *253:6 *253:9 3.20001
18 *253:6 *253:5 0.935984
19 *253:11 *253:5 0.183885
20 *253:11 *253:10 0.780035
21 *253:18 *253:10 0.183885
22 *480:A *253:18 3.20001
*END

*D_NET *254 0.00322003

*CONN
*I *537:Y O *C 90.09 49 *L 0 *D OAI21XL
*I *511:B I *C 95.37 47.32 *L 0.00325 *D NOR3XL
*I *478:C I *C 104.61 47.88 *L 0.00425 *D NOR3X1
*I *466:A1 I *C 101.31 47.32 *L 0.00324 *D OAI21XL

*CAP
1 *537:Y 0.000139842
2 *511:B 0.00011337
3 *478:C 0.000139842
4 *466:A1 0.000139842
5 *254:4 0.000148695
6 *254:5 0.000159987
7 *254:6 0.000159987
8 *254:7 0.000222245
9 *254:8 0.00062926
10 *254:9 0.0004901
11 *254:10 0.000142847
12 *254:11 7.31664e-05
13 *254:12 0.000229869
14 *254:13 0.000102385
15 *254:14 0.000262881
16 *254:15 6.5725e-05

*RES
1 *254:11 *478:C 3.2
2 *254:6 *466:A1 3.2
3 *254:11 *254:10 0.312012
4 *254:4 *511:B 0.447656
5 *254:6 *254:5 0.312012
6 *254:7 *254:10 3.2
7 *254:15 *254:4 6.4000001
8 *254:8 *254:5 3.2
9 *254:8 *254:7 0.919238
10 *254:13 *254:15 0.183887
11 *254:9 *254:8 2.20625
12 *254:13 *254:12 0.467969
13 *254:12 *254:9 3.2
14 *254:14 *254:12 0.735449
15 *537:Y *254:14 3.2
*END

*D_NET *255 0.00370407

*CONN
*I *477:Y O *C 108.57 82.04 *L 0 *D OAI21XL
*I *449:A0 I *C 102.63 63 *L 0.00456 *D OAI22X1

*CAP
1 *477:Y 6.33085e-05
2 *449:A0 0.000139846
3 *255:2 0.000270187
4 *255:3 0.000339859
5 *255:4 6.83804e-05
6 *255:5 0.000138053
7 *255:6 0.000275203
8 *255:7 0.000275203
9 *255:8 0.00091065
10 *255:9 0.00091065
11 *255:10 5.09136e-05
12 *255:8 *330:26 4.961e-05
13 *255:9 *330:27 4.961e-05
14 *255:8 *330:28 4.537e-05
15 *255:9 *330:29 4.537e-05
16 *255:6 *330:19 3.594e-05
17 *255:7 *330:20 3.5939997e-05

*RES
1 *255:10 *477:Y 6.4000001
2 *255:6 *255:10 6.4000001
3 *255:7 *255:6 1.4709
4 *255:8 *255:7 3.2
5 *255:9 *255:8 4.52402
6 *255:4 *255:9 3.2
7 *255:5 *255:4 0.183887
8 *255:2 *255:5 3.2
9 *255:3 *255:2 0.77998
10 *449:A0 *255:3 3.2
*END

*D_NET *256 0.00396545

*CONN
*I *492:Y O *C 112.53 48.44 *L 0 *D NAND2X1
*I *487:A I *C 99.33 47.32 *L 0.00346 *D INVX1
*I *478:A I *C 105.93 48.44 *L 0.0047 *D NOR3X1
*I *475:A I *C 100.65 42.28 *L 0.0047 *D NOR3X1
*I *474:A I *C 105.27 43.4 *L 0.0043 *D NOR2X1

*CAP
1 *492:Y 0.000100798
2 *487:A 6.32974e-05
3 *478:A 0.000139842
4 *475:A 0.000139842
5 *474:A 6.32974e-05
6 *256:5 0.000241564
7 *256:6 0.000241564
8 *256:7 0.000343158
9 *256:8 0.000285579
10 *256:9 5.09242e-05
11 *256:10 0.000138869
12 *256:11 6.62656e-05
13 *256:12 0.00014329
14 *256:13 0.00046204
15 *256:14 6.57227e-05
16 *256:15 0.00034129
17 *256:16 0.000159661
18 *256:17 0.000110182
19 *256:18 0.000242917
20 *256:19 0.000182363
21 *256:20 0.000138094
22 *256:21 0.000244891

*RES
1 *256:20 *492:Y 0.671484
2 *256:20 *256:21 0.189941
3 *256:18 *256:21 1.11914
4 *256:19 *256:18 3.2
5 *256:6 *475:A 3.2
6 *256:14 *474:A 6.4000001
7 *256:17 *256:19 0.367676
8 *256:6 *256:5 0.936035
9 *256:14 *256:8 0.183887
10 *256:16 *478:A 3.2
11 *256:16 *256:17 0.155957
12 *256:11 *256:5 3.2
13 *256:8 *256:7 1.09199
14 *256:7 *256:16 0.312012
15 *256:11 *256:12 0.183887
16 *256:15 *256:7 3.2
17 *256:12 *256:13 0.467969
18 *256:13 *256:15 1.28701
19 *256:10 *256:13 0.551562
20 *256:9 *256:10 6.4000001
21 *487:A *256:9 6.4000001
*END

*D_NET *257 0.00186562

*CONN
*I *473:Y O *C 129.69 36.68 *L 0 *D INVXL
*I *456:D I *C 131.67 26.6 *L 0.00184 *D DFFRHQX1

*CAP
1 *473:Y 0.000139839
2 *456:D 6.33011e-05
3 *257:2 0.00020005
4 *257:3 0.00020005
5 *257:4 0.00049885
6 *257:5 0.000418331
7 *257:6 7.20396e-05
8 *257:7 0.000126922
9 *257:8 0.000146241

*RES
1 *257:8 *456:D 6.4000001
2 *257:7 *473:Y 3.2
3 *257:4 *257:8 0.551562
4 *257:6 *257:7 0.155957
5 *257:4 *257:5 1.71602
6 *257:3 *257:6 0.183887
7 *257:2 *257:5 0.183887
8 *257:2 *257:3 0.936035
*END

*D_NET *258 0.000969422

*CONN
*I *472:Y O *C 98.01 64.12 *L 0 *D NOR3X1
*I *446:B0 I *C 101.31 68.6 *L 0.00492 *D AOI211X1

*CAP
1 *472:Y 0.00013984
2 *446:B0 6.32983e-05
3 *258:2 7.24194e-05
4 *258:3 9.89917e-05
5 *258:4 0.000139252
6 *258:5 0.00025534
7 *258:6 0.000200278

*RES
1 *258:6 *446:B0 6.4000001
2 *258:5 *258:6 0.936035
3 *258:4 *258:5 0.367676
4 *258:3 *258:4 0.312012
5 *258:2 *258:3 0.183887
6 *472:Y *258:2 3.2
*END

*D_NET *259 0.00190891

*CONN
*I *588:Y O *C 99.33 82.04 *L 0 *D OAI22X1
*I *540:AN I *C 102.63 81.48 *L 0.0021 *D NAND2BX1
*I *469:C I *C 102.63 78.68 *L 0.00444 *D NAND3BX1
*I *465:B I *C 99.33 77.56 *L 0.00252 *D OR3XL

*CAP
1 *588:Y 0.00017714
2 *540:AN 0.00014515
3 *469:C 0.000139839
4 *465:B 0.000139839
5 *259:4 0.0003727
6 *259:5 0.000303022
7 *259:6 0.000147118
8 *259:7 0.000207207
9 *259:8 0.00027689

*RES
1 *259:7 *469:C 3.20000005
2 *259:7 *259:8 0.77998
3 *540:AN *259:8 3.20000005
4 *259:6 *540:AN 0.447656
5 *259:6 *588:Y 0.189893
6 *259:5 *588:Y 3.20000005
7 *259:4 *259:5 1.248
8 *465:B *259:4 3.20000005
*END

*D_NET *260 0.00274982

*CONN
*I *482:Y O *C 103.95 73.08 *L 0 *D INVX1
*I *468:A I *C 105.27 73.64 *L 0.0043 *D NOR2X1
*I *465:A I *C 98.67 79.8 *L 0.00283 *D OR3XL

*CAP
1 *482:Y 0.000139842
2 *468:A 6.33014e-05
3 *465:A 0.00010982
4 *260:3 0.000127706
5 *260:4 7.26489e-05
6 *260:5 0.00049522
7 *260:6 0.00049522
8 *260:7 0.000316991
9 *260:8 0.000145147
10 *260:9 0.00038667
11 *260:10 7.10696e-05
12 *260:11 0.000213428
13 *260:12 0.000112759

*RES
1 *260:4 *468:A 6.4000001
2 *260:10 *482:Y 3.2
3 *260:4 *260:3 0.312012
4 *260:10 *260:11 0.155957
5 *260:11 *260:3 0.367676
6 *260:11 *260:12 0.312012
7 *260:8 *465:A 0.447656
8 *260:5 *260:12 3.2
9 *260:9 *260:8 3.2
10 *260:6 *260:5 1.83857
11 *260:7 *260:9 1.09199
12 *260:7 *260:6 3.2
*END

*D_NET *261 0.00515909

*CONN
*I *475:Y O *C 99.99 43.96 *L 0 *D NOR3X1
*I *467:A I *C 98.01 53.48 *L 0.0026 *D INVXL
*I *444:B0 I *C 105.93 63 *L 0.00433 *D AOI22X1

*CAP
1 *475:Y 0.000139835
2 *467:A 0.000139835
3 *444:B0 0.000139835
4 *261:3 0.000112883
5 *261:4 9.80715e-05
6 *261:5 0.000167906
7 *261:6 0.000167906
8 *261:7 0.000139818
9 *261:8 7.01346e-05
10 *261:9 0.000158838
11 *261:10 8.91544e-05
12 *261:11 0.000121433
13 *261:12 0.00013025
14 *261:13 7.36413e-05
15 *261:14 0.000134508
16 *261:15 0.000652035
17 *261:16 0.00109435
18 *261:17 0.000562914
19 *261:18 0.000142106
20 *261:19 0.000376957
21 *261:20 0.00044664

*RES
1 *261:8 *475:Y 3.20000005
2 *261:5 *444:B0 3.20000005
3 *261:8 *261:7 0.156006
4 *261:6 *261:5 0.468018
5 *261:9 *261:7 3.20000005
6 *261:20 *261:6 3.20000005
7 *261:10 *261:9 0.183838
8 *261:19 *261:20 1.47085
9 *261:17 *261:10 3.20000005
10 *261:15 *261:19 3.20000005
11 *261:17 *261:16 2.02798
12 *261:16 *261:15 2.652
13 *261:11 *261:16 3.20000005
14 *261:12 *261:11 0.735449
15 *261:18 *467:A 3.20000005
16 *261:12 *261:13 0.156006
17 *261:3 *261:18 0.183838
18 *261:14 *261:13 0.183838
19 *261:4 *261:3 0.312012
20 *261:4 *261:14 3.20000005
*END

*D_NET *262 0.00106552

*CONN
*I *467:Y O *C 98.67 54.04 *L 0 *D INVXL
*I *451:A0 I *C 96.03 53.48 *L 0.00336 *D OAI21XL

*CAP
1 *467:Y 0.000139842
2 *451:A0 0.000139842
3 *262:2 0.000120602
4 *262:3 0.000342
5 *262:4 5.09177e-05
6 *262:5 0.000272316

*RES
1 *262:4 *467:Y 3.2
2 *262:5 *262:4 6.4000001
3 *262:3 *262:5 0.735449
4 *262:2 *262:3 3.2
5 *451:A0 *262:2 3.2
*END

*D_NET *263 0.00197319

*CONN
*I *487:Y O *C 99.99 47.88 *L 0 *D INVX1
*I *466:B0 I *C 102.63 48.44 *L 0.00302 *D OAI21XL
*I *430:A0 I *C 96.69 56.84 *L 0.00492 *D AOI221X1

*CAP
1 *487:Y 0.000201174
2 *466:B0 0.00016131
3 *430:A0 0.00013984
4 *263:3 0.00040063
5 *263:4 0.000374991
6 *263:5 0.000198716
7 *263:6 0.00027924
8 *263:7 7.51926e-05
9 *263:8 0.000142102

*RES
1 *487:Y *466:B0 0.895312
2 *263:7 *487:Y 0.223828
3 *263:8 *263:7 3.20000005
4 *263:5 *263:8 0.183838
5 *263:4 *430:A0 3.20000005
6 *263:5 *263:6 0.77998
7 *263:3 *263:4 1.56001
8 *263:3 *263:6 0.551562
*END

*D_NET *264 0.00247878

*CONN
*I *466:Y O *C 102.63 49 *L 0 *D OAI21XL
*I *449:B0 I *C 101.31 63.56 *L 0.00457 *D OAI22X1

*CAP
1 *466:Y 0.000139836
2 *449:B0 0.000139836
3 *264:2 0.000458462
4 *264:3 0.00051334
5 *264:4 0.000288743
6 *264:5 0.000303359
7 *264:6 9.7318e-05
8 *264:7 0.00013758
9 *264:5 *275:4 0.00020015
10 *264:4 *275:5 0.000200150004

*RES
1 *264:3 *466:Y 3.20000005
2 *264:3 *264:2 2.18398
3 *264:6 *264:2 0.183838
4 *264:5 *449:B0 3.20000005
5 *264:6 *264:7 0.312012
6 *264:4 *264:5 1.56001
7 *264:4 *264:7 0.367725
*END

*D_NET *265 0.00540735

*CONN
*I *484:Y O *C 94.71 57.96 *L 0 *D INVX1
*I *471:A I *C 115.17 52.92 *L 0.00403 *D NAND2X1
*I *463:A I *C 93.39 54.04 *L 0.00477 *D NAND3X1
*I *457:A I *C 92.07 57.4 *L 0.00478 *D NAND4X1

*CAP
1 *484:Y 4.1695e-05
2 *471:A 6.33038e-05
3 *463:A 8.24058e-05
4 *457:A 0.000139836
5 *265:4 9.04444e-05
6 *265:5 0.000160129
7 *265:6 0.000261834
8 *265:7 0.000187622
9 *265:8 0.000189632
10 *265:9 0.000452688
11 *265:10 0.000522373
12 *265:11 0.000312655
13 *265:12 0.000312655
14 *265:13 0.000134667
15 *265:14 0.000143369
16 *265:15 0.000678877031
17 *265:16 0.000678877031
18 *265:17 0.000108624
19 *265:18 9.99333e-05
20 *265:19 0.00011773
21 *265:20 0.000153572
22 *265:21 6.89495e-05
23 *265:22 0.000120599
24 *265:23 0.000164273
25 *265:24 0.000120599

*RES
1 *265:4 *471:A 6.4000001
2 *265:5 *265:4 0.467969
3 *265:11 *265:5 3.2
4 *265:12 *265:11 1.4709
5 *265:24 *265:12 3.2
6 *265:13 *265:24 3.2
7 *265:14 *265:13 0.551562
8 *265:15 *265:14 0.155957
9 *265:16 *265:15 3.30947
10 *265:16 *265:17 0.155957
11 *265:18 *265:17 0.551562
12 *265:10 *265:18 3.2
13 *265:10 *265:9 2.02803
14 *265:22 *265:9 3.2
15 *265:20 *484:Y 0.223828
16 *265:21 *265:22 3.2
17 *265:21 *265:20 3.2
18 *265:21 *265:23 0.155957
19 *265:8 *265:23 0.551562
20 *265:6 *457:A 3.2
21 *265:6 *265:8 0.467969
22 *265:7 *265:6 0.936035
23 *265:19 *463:A 0.447656
24 *265:19 *265:7 6.4000001
*END

*D_NET *266 0.000393459

*CONN
*I *463:Y O *C 94.05 54.6 *L 0 *D NAND3X1
*I *451:B0 I *C 96.69 52.36 *L 0.00302 *D OAI21XL

*CAP
1 *463:Y 3.98407e-05
2 *451:B0 0.000119589
3 *266:2 0.00015689
4 *266:3 7.71391e-05

*RES
1 *266:2 *451:B0 0.671478271
2 *266:2 *266:3 0.189909
3 *463:Y *266:3 0.223823
*END

*D_NET *267 0.00390666

*CONN
*I *555:Y O *C 119.13 82.04 *L 0 *D OAI22X1
*I *546:A I *C 115.17 73.64 *L 0.00346 *D INVX1
*I *462:B1 I *C 110.55 78.12 *L 0.00474 *D AOI33X1
*I *459:B I *C 119.79 74.76 *L 0.00412 *D OR4X2

*CAP
1 *555:Y 0.000139842
2 *546:A 0.000139842
3 *462:B1 6.33015e-05
4 *459:B 0.000139842
5 *267:4 0.000190909
6 *267:5 0.000260587
7 *267:6 0.000229175
8 *267:7 0.000159497
9 *267:8 0.000100992
10 *267:9 0.00016397
11 *267:10 0.000242625
12 *267:11 0.00053096957
13 *267:12 0.000371432
14 *267:13 8.29085e-05
15 *267:14 8.29085e-05
16 *267:15 0.000443629
17 *267:16 0.000443629
18 *267:17 0.000120599

*RES
1 *267:17 *555:Y 3.2
2 *267:14 *267:17 3.2
3 *267:14 *267:13 0.183887
4 *267:9 *459:B 3.2
5 *267:15 *267:13 3.2
6 *267:7 *546:A 3.2
7 *267:9 *267:8 0.312012
8 *267:16 *267:15 1.71602
9 *267:7 *267:6 0.624023
10 *267:10 *267:8 6.4000001
11 *267:10 *267:16 3.2
12 *267:11 *267:6 3.2
13 *267:11 *267:10 1.28701
14 *267:4 *462:B1 6.4000001
15 *267:12 *267:11 1.28701
16 *267:5 *267:4 0.624023
17 *267:5 *267:12 3.2
*END

*D_NET *268 0.00527804

*CONN
*I *489:Y O *C 117.81 57.96 *L 0 *D NOR2X1
*I *483:A I *C 116.49 63.56 *L 0.00346 *D INVX1
*I *481:A I *C 107.91 68.04 *L 0.00347 *D AND3X2
*I *462:B0 I *C 111.21 77.56 *L 0.00476 *D AOI33X1
*I *461:B I *C 113.85 67.48 *L 0.00339 *D NAND4BXL

*CAP
1 *489:Y 7.45878e-05
2 *483:A 3.98614e-05
3 *481:A 0.00013984
4 *462:B0 0.00013984
5 *461:B 0.00013984
6 *268:5 0.000205526
7 *268:6 0.000275209
8 *268:7 0.000397835
9 *268:8 0.000397835
10 *268:9 0.000177615
11 *268:10 0.00022547
12 *268:11 0.00013018
13 *268:12 6.04967e-05
14 *268:13 0.000199111
15 *268:14 0.000199111
16 *268:15 0.00044397
17 *268:16 0.00044397
18 *268:17 0.000272608
19 *268:18 0.000162691
20 *268:19 0.000226256
21 *268:20 7.51907e-05
22 *268:21 0.00024154
23 *268:22 9.02438e-05
24 *268:23 0.000202173
25 *268:24 0.000187547
26 *268:25 0.000129502

*RES
1 *489:Y *268:25 0.379834
2 *268:22 *268:25 0.223828
3 *268:23 *268:22 3.20000005
4 *268:23 *268:24 0.468018
5 *268:20 *483:A 0.223828
6 *268:18 *268:24 0.367725
7 *268:5 *462:B0 3.20000005
8 *268:17 *268:20 3.20000005
9 *268:18 *268:17 0.624023
10 *268:6 *268:5 0.77998
11 *268:17 *268:21 0.624023
12 *268:13 *268:6 3.20000005
13 *268:19 *268:21 0.551562
14 *268:14 *268:13 0.919287
15 *268:10 *461:B 3.20000005
16 *268:19 *268:10 0.468018
17 *268:15 *268:14 3.20000005
18 *268:10 *268:9 0.468018
19 *268:16 *268:15 1.56001
20 *268:7 *268:9 3.20000005
21 *268:8 *268:16 3.20000005
22 *268:8 *268:7 1.65474
23 *268:11 *268:8 3.20000005
24 *268:12 *268:11 0.156006
25 *481:A *268:12 3.20000005
*END

*D_NET *269 0.00584162

*CONN
*I *617:B0 I *C 90.75 78.12 *L 0.00325 *D AOI22XL
*I *588:A1 I *C 100.65 83.16 *L 0.00456 *D OAI22X1
*I *557:A1 I *C 96.69 78.12 *L 0.00456 *D OAI22X1
*I *462:A2 I *C 113.85 77.56 *L 0.00494 *D AOI33X1
*I *460:D I *C 106.59 78.68 *L 0.00474 *D NOR4BX1
*I *377:Q O *C 94.71 84.28 *L 0 *D DFFRX1

*CAP
1 *617:B0 6.33007e-05
2 *588:A1 6.33007e-05
3 *557:A1 0.000139836
4 *462:A2 6.33007e-05
5 *460:D 6.33007e-05
6 *377:Q 0.000118466
7 *269:6 0.000281975
8 *269:7 0.000281975
9 *269:8 0.00062354
10 *269:9 0.000501449
11 *269:10 0.000291413
12 *269:11 0.000291413
13 *269:12 0.00012095
14 *269:13 0.00014114
15 *269:14 0.000114537
16 *269:15 0.000110512
17 *269:16 0.00052788
18 *269:17 0.000477101
19 *269:18 0.00011017
20 *269:19 0.00011017
21 *269:20 0.000312926
22 *269:21 0.000356008
23 *269:22 0.000155764
24 *269:23 0.000120598
25 *269:24 7.99893e-05
26 *269:25 5.09222e-05
27 *269:26 0.000113785
28 *269:27 5.09222e-05
29 *269:28 0.000104984

*RES
1 *269:27 *462:A2 6.4000001
2 *269:28 *269:27 6.4000001
3 *269:26 *269:28 0.367676
4 *269:25 *588:A1 6.4000001
5 *269:26 *269:10 0.155957
6 *269:20 *269:25 6.4000001
7 *269:18 *460:D 6.4000001
8 *269:11 *269:10 1.28701
9 *269:21 *269:20 1.28701
10 *269:19 *269:18 0.312012
11 *269:12 *269:11 0.155957
12 *269:14 *269:21 0.312012
13 *377:Q *269:22 0.671484
14 *269:8 *269:19 3.2
15 *269:8 *269:12 0.367676
16 *269:14 *269:13 0.183887
17 *269:24 *269:22 0.189941
18 *269:9 *269:8 2.39014
19 *269:6 *269:13 3.2
20 *269:6 *269:24 6.4000001
21 *269:9 *269:15 0.155957
22 *269:7 *557:A1 3.2
23 *269:7 *269:6 0.936035
24 *269:16 *269:15 0.367676
25 *269:16 *269:7 3.2
26 *269:17 *269:16 1.65469
27 *269:23 *269:17 3.2
28 *617:B0 *269:23 6.4000001
*END

*D_NET *270 0.00454583

*CONN
*I *557:Y O *C 95.37 79.24 *L 0 *D OAI22X1
*I *477:A1 I *C 107.25 83.72 *L 0.00324 *D OAI21XL
*I *469:AN I *C 101.97 77.56 *L 0.0024 *D NAND3BX1
*I *462:A1 I *C 113.19 78.12 *L 0.005 *D AOI33X1
*I *460:C I *C 107.25 77.56 *L 0.00475 *D NOR4BX1

*CAP
1 *557:Y 0.00013984
2 *477:A1 0.00013984
3 *469:AN 6.33041e-05
4 *462:A1 6.33041e-05
5 *460:C 6.33041e-05
6 *270:5 0.000116369
7 *270:6 0.000116369
8 *270:7 0.00026561
9 *270:8 0.000195929
10 *270:9 0.000171821
11 *270:10 0.000344342
12 *270:11 0.00069538
13 *270:12 0.00038512
14 *270:13 8.46001e-05
15 *270:14 0.000385438
16 *270:15 0.000387168
17 *270:16 0.000223453
18 *270:17 0.000151247
19 *270:18 0.000220917
20 *270:19 0.000332469

*RES
1 *270:17 *462:A1 6.4000001
2 *270:16 *460:C 6.4000001
3 *270:9 *477:A1 3.2
4 *270:17 *270:18 0.77998
5 *270:8 *469:AN 6.4000001
6 *270:16 *270:10 0.936035
7 *270:10 *270:9 0.624023
8 *270:19 *270:18 3.2
9 *270:8 *270:7 0.77998
10 *270:11 *270:10 3.2
11 *270:11 *270:19 1.65469
12 *270:13 *270:7 3.2
13 *270:12 *270:11 1.65469
14 *270:14 *270:13 0.183887
15 *270:14 *270:12 0.155957
16 *270:15 *270:14 1.65469
17 *270:5 *270:15 3.2
18 *270:6 *270:5 0.312012
19 *557:Y *270:6 3.2
*END

*D_NET *271 0.00768842

*CONN
*I *493:Y O *C 113.85 52.92 *L 0 *D NOR2X1
*I *482:A I *C 103.29 73.64 *L 0.00346 *D INVX1
*I *477:B0 I *C 108.57 82.6 *L 0.00302 *D OAI21XL
*I *469:B I *C 103.29 77.56 *L 0.00444 *D NAND3BX1
*I *462:A0 I *C 111.87 78.12 *L 0.0049 *D AOI33X1
*I *460:AN I *C 105.93 77.56 *L 0.00263 *D NOR4BX1

*CAP
1 *493:Y 0.000139834
2 *482:A 0.000139834
3 *477:B0 6.32866e-05
4 *469:B 6.32866e-05
5 *462:A0 6.32866e-05
6 *460:AN 3.98572e-05
7 *271:6 0.000325686
8 *271:7 0.000112817
9 *271:8 0.000439889
10 *271:9 0.000226625
11 *271:10 0.00033578
12 *271:11 0.000210791
13 *271:12 0.000281326
14 *271:13 0.000150448
15 *271:14 0.00011017
16 *271:15 0.000296344
17 *271:16 0.00162138
18 *271:17 0.00162138
19 *271:18 5.51222e-05
20 *271:19 0.000123654
21 *271:20 0.000178974
22 *271:21 7.51869e-05
23 *271:22 0.000124792
24 *271:23 0.000146242
25 *271:24 0.000310891
26 *271:25 0.000120611
27 *271:26 0.000310891

*RES
1 *271:23 *477:B0 6.40001
2 *271:23 *271:13 0.551596
3 *271:14 *271:13 0.15599
4 *271:25 *493:Y 3.19995
5 *271:14 *271:12 0.367765
6 *271:26 *271:25 3.19995
7 *271:6 *462:A0 6.40001
8 *271:6 *271:12 1.09204
9 *271:24 *271:26 1.28702
10 *271:7 *271:6 0.467971
11 *271:17 *271:24 3.19995
12 *271:15 *271:7 3.19995
13 *271:17 *271:16 6.70800018
14 *271:8 *271:15 0.735428
15 *271:8 *271:16 3.19995
16 *271:9 *271:8 1.10319
17 *271:21 *460:AN 0.223852
18 *271:19 *271:9 3.19995
19 *271:22 *271:21 3.19995
20 *271:18 *469:B 6.40001
21 *271:19 *271:20 0.15599
22 *271:20 *271:22 0.15599
23 *271:10 *271:18 0.15599
24 *271:10 *271:20 0.551596
25 *271:11 *271:10 0.936045
26 *482:A *271:11 3.19995
*END

*D_NET *272 0.00103004

*CONN
*I *462:Y O *C 113.19 78.68 *L 0 *D AOI33X1
*I *439:C0 I *C 113.19 73.08 *L 0.00422 *D OAI211X1

*CAP
1 *462:Y 0.000139841
2 *439:C0 0.000139841
3 *272:2 0.00023308
4 *272:3 0.00023308
5 *272:4 0.000142099
6 *272:5 0.000142099

*RES
1 *272:5 *462:Y 3.20000005
2 *272:2 *272:5 0.183838
3 *272:3 *272:2 1.09199
4 *272:4 *272:3 0.183838
5 *439:C0 *272:4 3.20000005
*END

*D_NET *273 0.00349942

*CONN
*I *546:Y O *C 115.83 73.08 *L 0 *D INVX1
*I *481:B I *C 108.57 68.04 *L 0.00353 *D AND3X2
*I *461:C I *C 113.19 68.6 *L 0.00326 *D NAND4BXL
*I *455:A1 I *C 116.49 67.48 *L 0.00342 *D AOI211XL

*CAP
1 *546:Y 3.98604e-05
2 *481:B 6.33006e-05
3 *461:C 7.97282e-05
4 *455:A1 0.000139839
5 *273:4 0.000149528
6 *273:5 0.000185648
7 *273:6 0.000190475
8 *273:7 0.000227754
9 *273:8 0.000383649
10 *273:9 0.000383649
11 *273:10 0.00048736
12 *273:11 0.000398559
13 *273:12 6.57176e-05
14 *273:13 0.000182361
15 *273:14 0.000154318
16 *273:15 7.51918e-05
17 *273:16 0.0001206
18 *273:17 0.000171883

*RES
1 *273:14 *461:C 0.447656
2 *273:15 *546:Y 0.223828
3 *273:14 *273:6 0.379785
4 *273:16 *455:A1 3.2
5 *273:8 *273:15 3.2
6 *273:7 *273:6 0.447656
7 *273:17 *273:16 3.2
8 *273:9 *273:8 1.24805
9 *273:13 *273:7 3.2
10 *273:10 *273:17 0.367676
11 *273:10 *273:9 3.2
12 *273:4 *273:13 0.367676
13 *273:11 *273:10 1.65469
14 *273:5 *273:4 0.467969
15 *273:5 *273:11 3.2
16 *273:12 *273:5 0.183887
17 *481:B *273:12 6.4000001
*END

*D_NET *274 0.00169183

*CONN
*I *520:Y O *C 117.81 74.2 *L 0 *D NAND2BX1
*I *461:AN I *C 115.83 68.04 *L 0.00234 *D NAND4BXL
*I *455:A0 I *C 117.15 67.48 *L 0.00341 *D AOI211XL

*CAP
1 *520:Y 0.000139838
2 *461:AN 6.32976e-05
3 *455:A0 0.000139838
4 *274:3 0.000116218
5 *274:4 0.00017128
6 *274:5 0.000127321
7 *274:6 0.00023069
8 *274:7 8.85727e-05
9 *274:8 0.000279947
10 *274:9 0.00033483

*RES
1 *274:9 *520:Y 3.2
2 *274:8 *274:9 1.09199
3 *274:5 *455:A0 3.2
4 *274:7 *274:8 0.183887
5 *274:5 *274:6 0.467969
6 *274:6 *274:7 0.312012
7 *274:4 *274:6 0.367676
8 *274:3 *274:4 0.312012
9 *461:AN *274:3 6.4000001
*END

*D_NET *275 0.00378604

*CONN
*I *461:Y O *C 113.19 69.16 *L 0 *D NAND4BXL
*I *422:B I *C 100.65 57.96 *L 0.00455 *D NAND3X1

*CAP
1 *461:Y 6.32953e-05
2 *422:B 0.000139849
3 *275:2 0.000254094
4 *275:3 0.00023948
5 *275:4 0.000376446
6 *275:5 0.000391061
7 *275:6 0.000865611
8 *275:7 0.000120596
9 *275:8 0.0009353
10 *275:4 *264:5 0.00020015
11 *275:5 *264:4 0.000200150004

*RES
1 *275:7 *461:Y 6.4000001
2 *275:8 *275:7 3.2
3 *275:6 *275:8 3.49326
4 *275:2 *275:6 3.2
5 *275:3 *275:2 0.624023
6 *275:4 *275:3 0.367676
7 *275:5 *275:4 1.87197
8 *422:B *275:5 3.2
*END

*D_NET *276 0.000743978

*CONN
*I *460:Y O *C 107.25 77 *L 0 *D NOR4BX1
*I *441:C0 I *C 109.23 73.08 *L 0.00438 *D AOI211X1

*CAP
1 *460:Y 0.000139837
2 *441:C0 6.32971e-05
3 *276:2 0.000235581
4 *276:3 0.00030526

*RES
1 *276:3 *460:Y 3.2
2 *276:2 *276:3 1.09199
3 *441:C0 *276:2 6.4000001
*END

*D_NET *277 0.00209856

*CONN
*I *483:Y O *C 117.15 63 *L 0 *D INVX1
*I *470:A I *C 119.79 63.56 *L 0.0043 *D NOR2X1
*I *459:A I *C 119.13 73.64 *L 0.00429 *D OR4X2
*I *455:B0 I *C 118.47 67.48 *L 0.00352 *D AOI211XL

*CAP
1 *483:Y 3.87809e-05
2 *470:A 6.32969e-05
3 *459:A 0.000139838
4 *455:B0 6.32969e-05
5 *277:4 0.0002801
6 *277:5 0.000225219
7 *277:6 0.000141137
8 *277:7 0.00033127
9 *277:8 7.60806e-05
10 *277:9 8.35921e-05
11 *277:10 0.000120968
12 *277:11 0.000158161
13 *277:12 0.000270839
14 *277:13 0.00010598

*RES
1 *277:4 *459:A 3.2
2 *277:5 *277:4 1.09199
3 *277:13 *470:A 6.4000001
4 *277:6 *277:5 0.183887
5 *277:10 *277:13 0.367676
6 *277:7 *455:B0 6.4000001
7 *277:7 *277:6 0.624023
8 *277:10 *277:12 0.155957
9 *277:12 *277:7 0.936035
10 *277:11 *277:12 3.2
11 *277:9 *277:11 0.223828
12 *277:8 *277:9 0.189941
13 *483:Y *277:8 0.223828
*END

*D_NET *278 0.00264435

*CONN
*I *469:Y O *C 103.29 79.24 *L 0 *D NAND3BX1
*I *458:A I *C 98.01 73.64 *L 0.00346 *D INVX1
*I *450:A0N I *C 100.65 73.64 *L 0.00185 *D OAI2BB1X1

*CAP
1 *469:Y 0.000139839
2 *458:A 0.000139839
3 *450:A0N 8.34331e-05
4 *278:3 0.000374488
5 *278:4 0.000421453
6 *278:5 7.24163e-05
7 *278:6 0.00049215
8 *278:7 0.000195298
9 *278:8 0.000182359
10 *278:9 0.000120599
11 *278:10 0.000422467

*RES
1 *278:9 *469:Y 3.20000005
2 *278:10 *278:9 3.20000005
3 *278:6 *278:10 1.65474
4 *278:7 *450:A0N 0.447656
5 *278:5 *278:6 3.20000005
6 *278:8 *278:7 3.20000005
7 *278:3 *278:5 0.183838
8 *278:4 *278:8 0.367725
9 *278:4 *278:3 1.404
10 *458:A *278:4 3.20000005
*END

*D_NET *279 0.00156314

*CONN
*I *458:Y O *C 98.67 73.08 *L 0 *D INVX1
*I *448:B0 I *C 92.73 73.08 *L 0.00433 *D AOI22X1

*CAP
1 *458:Y 0.000139839
2 *448:B0 0.000139839
3 *279:2 0.000224647
4 *279:3 0.00028552
5 *279:4 9.61405e-05
6 *279:5 0.00010495
7 *279:6 0.000120599
8 *279:7 0.000120599
9 *279:2 *312:3 7.005e-05
10 *279:3 *312:4 7.005e-05
11 *279:4 *312:3 9.545e-05
12 *279:5 *312:4 9.54499963e-05

*RES
1 *279:7 *458:Y 3.20000005
2 *279:4 *279:7 3.20000005
3 *279:5 *279:4 0.551562
4 *279:5 *279:2 0.156006
5 *279:3 *279:2 1.10312
6 *279:6 *279:3 3.20000005
7 *448:B0 *279:6 3.20000005
*END

*D_NET *280 0.00152206

*CONN
*I *457:Y O *C 93.39 56.28 *L 0 *D NAND4X1
*I *422:C I *C 99.99 57.4 *L 0.00437 *D NAND3X1

*CAP
1 *457:Y 0.000139841
2 *422:C 0.000139841
3 *280:2 0.000380106
4 *280:3 0.00044979
5 *280:4 0.000145942
6 *280:5 0.000145942
7 *280:6 0.000120603

*RES
1 *280:4 *422:C 3.20000005
2 *280:5 *280:4 0.312012
3 *280:2 *280:5 3.20000005
4 *280:3 *280:2 1.83857
5 *280:6 *280:3 3.20000005
6 *457:Y *280:6 3.20000005
*END

*D_NET *281 0.00284487

*CONN
*I *455:Y O *C 119.13 68.6 *L 0 *D AOI211XL
*I *446:C0 I *C 100.65 68.04 *L 0.00438 *D AOI211X1

*CAP
1 *455:Y 0.000139838
2 *446:C0 6.33017e-05
3 *281:2 0.000249229
4 *281:3 0.000257929
5 *281:4 0.00049281
6 *281:5 0.00048411
7 *281:6 0.000120603
8 *281:7 0.000120603
9 *281:8 0.000120603
10 *281:9 0.000120603
11 *281:10 0.000120603
12 *281:11 0.000120603
13 *281:2 *41:20 5.67e-05
14 *281:3 *41:19 5.67e-05
15 *281:4 *41:20 0.00016032
16 *281:5 *41:19 0.000160319995

*RES
1 *281:9 *455:Y 3.2
2 *281:10 *281:9 3.2
3 *281:11 *281:10 3.2
4 *281:2 *281:11 3.2
5 *281:3 *281:2 1.65469
6 *281:4 *281:3 0.155957
7 *281:5 *281:4 3.49326
8 *281:8 *281:5 3.2
9 *281:7 *281:8 3.2
10 *281:6 *281:7 3.2
11 *446:C0 *281:6 6.4000001
*END

*D_NET *282 0.00217907

*CONN
*I *479:Y O *C 94.05 64.12 *L 0 *D NOR3X1
*I *454:B I *C 96.69 67.48 *L 0.0037 *D OR2X2
*I *430:B0 I *C 96.03 57.96 *L 0.00482 *D AOI221X1

*CAP
1 *479:Y 4.33105e-05
2 *454:B 0.000139839
3 *430:B0 0.000139839
4 *282:3 0.000217762
5 *282:4 0.000155179
6 *282:5 0.00039042
7 *282:6 0.000270539
8 *282:7 0.000142097
9 *282:6 *139:5 0.00020202
10 *282:5 *139:6 0.00020202
11 *282:5 *139:5 0.00013802
12 *282:3 *139:6 0.000138019994

*RES
1 *282:7 *454:B 3.20000005
2 *282:3 *430:B0 3.20000005
3 *282:6 *282:7 0.183838
4 *282:3 *282:5 1.09199
5 *282:5 *282:6 1.56001
6 *282:4 *282:5 3.20000005
7 *479:Y *282:4 0.223828
*END

*D_NET *283 0.00113737

*CONN
*I *480:Y O *C 92.73 66.92 *L 0 *D NOR3X1
*I *454:A I *C 96.03 67.48 *L 0.00337 *D OR2X2
*I *448:A0 I *C 93.39 73.64 *L 0.00465 *D AOI22X1

*CAP
1 *480:Y 0.000171391
2 *454:A 0.000130178
3 *448:A0 6.32988e-05
4 *283:3 7.85108e-05
5 *283:4 0.000156531
6 *283:5 0.00030357
7 *283:6 0.000233893

*RES
1 *283:6 *448:A0 6.4000001
2 *283:5 *283:6 1.09199
3 *480:Y *454:A 0.671484
4 *283:4 *283:5 3.2
5 *283:3 *283:4 0.189941
6 *283:3 *480:Y 0.223828
*END

*D_NET *284 0.000622311

*CONN
*I *454:Y O *C 98.01 66.36 *L 0 *D OR2X2
*I *446:A0 I *C 99.99 66.92 *L 0.00483 *D AOI211X1

*CAP
1 *454:Y 4.12108e-05
2 *446:A0 0.000139841
3 *284:2 7.65392e-05
4 *284:3 0.00018236
5 *284:4 0.00018236

*RES
1 *284:4 *446:A0 3.20000005
2 *284:3 *284:4 0.367725
3 *284:2 *284:3 3.20000005
4 *454:Y *284:2 0.223828
*END

*D_NET *285 0.0003266

*CONN
*I *453:Y O *C 127.05 64.12 *L 0 *D AOI21XL
*I *447:A I *C 129.03 63.56 *L 0.0031 *D NAND2XL

*CAP
1 *453:Y 0.000126
2 *447:A 3.72997e-05
3 *285:2 0.0001633

*RES
1 *447:A *285:2 0.189909
2 *453:Y *285:2 0.671478271
*END

*D_NET *286 0.00361213

*CONN
*I *459:Y O *C 122.43 74.76 *L 0 *D OR4X2
*I *452:B I *C 110.55 63.56 *L 0.00391 *D NAND2BX1
*I *439:A0 I *C 111.87 73.08 *L 0.00475 *D OAI211X1

*CAP
1 *459:Y 0.000139836
2 *452:B 0.000139836
3 *439:A0 6.32994e-05
4 *286:3 0.000405448
5 *286:4 0.000406104
6 *286:5 0.000147977
7 *286:6 9.29139e-05
8 *286:7 6.78114e-05
9 *286:8 0.00078226
10 *286:9 0.00078226
11 *286:10 0.000120595
12 *286:3 *287:10 7.629e-05
13 *286:4 *287:9 7.629e-05
14 *286:3 *287:9 7.939e-05
15 *286:4 *287:7 7.939e-05
16 *286:5 *287:3 6.184e-05
17 *286:6 *287:4 6.184e-05
18 *286:3 *287:5 1.437e-05
19 *286:4 *287:6 1.43699878e-05

*RES
1 *286:10 *459:Y 3.2
2 *286:8 *286:10 3.2
3 *286:7 *439:A0 6.4000001
4 *286:9 *286:8 2.9417
5 *286:3 *286:7 0.155957
6 *286:3 *286:9 3.2
7 *286:4 *286:3 2.02803
8 *286:5 *286:4 0.367676
9 *286:6 *286:5 0.467969
10 *452:B *286:6 3.2
*END

*D_NET *287 0.00296905

*CONN
*I *481:Y O *C 110.55 66.92 *L 0 *D AND3X2
*I *452:AN I *C 109.89 61.32 *L 0.0021 *D NAND2BX1
*I *441:A0 I *C 108.57 74.2 *L 0.00483 *D AOI211X1

*CAP
1 *481:Y 4.22456e-05
2 *452:AN 0.000139837
3 *441:A0 0.000139837
4 *287:3 0.000337079
5 *287:4 0.000351697891
6 *287:5 0.000283344
7 *287:6 0.00034924
8 *287:7 0.000182458
9 *287:8 0.000154122
10 *287:9 0.000251912
11 *287:10 0.000273491
12 *287:10 *286:3 7.629e-05
13 *287:9 *286:4 7.629e-05
14 *287:9 *286:3 7.939e-05
15 *287:7 *286:4 7.939e-05
16 *287:3 *286:5 6.184e-05
17 *287:4 *286:6 6.184e-05
18 *287:5 *286:3 1.437e-05
19 *287:6 *286:4 1.43699878e-05

*RES
1 *287:4 *452:AN 3.20000005
2 *287:4 *287:3 1.404
3 *287:3 *287:7 0.367725
4 *481:Y *287:8 0.223828
5 *287:7 *287:9 0.624023
6 *287:9 *287:8 3.20000005
7 *287:5 *441:A0 3.20000005
8 *287:9 *287:10 0.624023
9 *287:6 *287:5 0.935986
10 *287:6 *287:10 0.735449
*END

*D_NET *288 0.00143706

*CONN
*I *452:Y O *C 111.21 64.12 *L 0 *D NAND2BX1
*I *444:A0 I *C 106.59 63.56 *L 0.00465 *D AOI22X1

*CAP
1 *452:Y 0.000139841
2 *444:A0 6.32981e-05
3 *288:2 0.000130189
4 *288:3 6.05103e-05
5 *288:4 0.00024327
6 *288:5 0.000120601
7 *288:6 0.00024327
8 *288:6 *321:35 9.132e-05
9 *288:4 *321:36 9.13200017e-05
10 *288:6 *342:17 0.00012672
11 *288:4 *342:18 0.000126720001

*RES
1 *288:5 *452:Y 3.2
2 *288:6 *288:5 3.2
3 *288:4 *288:6 1.4709
4 *288:2 *288:4 3.2
5 *288:3 *288:2 0.155957
6 *444:A0 *288:3 6.4000001
*END

*D_NET *289 0.00398329

*CONN
*I *638:Y O *C 98.01 38.36 *L 0 *D AOI22X1
*I *451:A1 I *C 95.37 53.48 *L 0.00324 *D OAI21XL
*I *421:A1 I *C 99.99 52.92 *L 0.00472 *D AOI211X1

*CAP
1 *638:Y 0.000139849
2 *451:A1 0.000139849
3 *421:A1 6.32959e-05
4 *289:3 6.05049e-05
5 *289:4 0.00013018
6 *289:5 0.000155299
7 *289:6 9.2319e-05
8 *289:7 0.000384959
9 *289:8 0.000370522
10 *289:9 9.75189e-05
11 *289:10 0.000120611
12 *289:11 0.000120611
13 *289:12 0.00101906
14 *289:13 0.00108874

*RES
1 *289:10 *638:Y 3.2
2 *289:6 *421:A1 6.4000001
3 *289:11 *289:10 3.2
4 *289:6 *289:5 0.312012
5 *289:12 *289:11 3.2
6 *289:9 *289:5 3.2
7 *289:12 *289:13 4.83604
8 *289:7 *289:9 0.367676
9 *289:7 *289:13 3.2
10 *289:8 *289:7 0.919238
11 *289:3 *289:8 3.2
12 *289:4 *289:3 0.155957
13 *451:A1 *289:4 3.2
*END

*D_NET *290 0.000778669

*CONN
*I *451:Y O *C 96.69 51.8 *L 0 *D OAI21XL
*I *421:C0 I *C 101.31 52.92 *L 0.00438 *D AOI211X1

*CAP
1 *451:Y 3.98613e-05
2 *421:C0 0.000139841
3 *290:2 7.51886e-05
4 *290:3 0.000186499
5 *290:4 0.000192818691
6 *290:5 7.20404e-05
7 *290:6 7.24199e-05

*RES
1 *290:6 *421:C0 3.2
2 *290:5 *290:6 0.183887
3 *290:4 *290:5 0.155957
4 *290:3 *290:4 0.735449
5 *290:2 *290:3 6.4000001
6 *451:Y *290:2 0.223828
*END

*D_NET *291 0.00226259

*CONN
*I *465:Y O *C 101.31 78.68 *L 0 *D OR3XL
*I *450:A1N I *C 99.99 72.52 *L 0.00148 *D OAI2BB1X1
*I *445:A0 I *C 96.03 73.64 *L 0.00336 *D OAI21XL

*CAP
1 *465:Y 0.000139841
2 *450:A1N 0.000139841
3 *445:A0 0.000139841
4 *291:3 0.000142096
5 *291:4 0.00030538
6 *291:5 0.000144337
7 *291:6 0.000270222
8 *291:7 0.000298647
9 *291:8 0.000232468
10 *291:9 0.00018875
11 *291:10 0.00018875
12 *291:11 7.2418e-05

*RES
1 *291:11 *465:Y 3.20000005
2 *291:10 *291:11 0.183838
3 *291:9 *291:10 0.77998
4 *291:8 *291:9 0.183838
5 *291:7 *450:A1N 3.20000005
6 *291:7 *291:8 1.09199
7 *291:6 *291:7 0.312012
8 *291:4 *291:6 0.919287
9 *291:4 *291:5 0.624023
10 *291:3 *291:5 0.183838
11 *445:A0 *291:3 3.20000005
*END

*D_NET *292 0.00116551

*CONN
*I *450:Y O *C 102.63 71.96 *L 0 *D OAI2BB1X1
*I *442:C I *C 103.95 67.48 *L 0.00437 *D NAND3X1

*CAP
1 *450:Y 4.12093e-05
2 *442:C 0.00013984
3 *292:2 7.65403e-05
4 *292:3 0.000142101
5 *292:4 0.000153129
6 *292:5 0.00016793
7 *292:5 *321:14 0.00012232
8 *292:4 *321:15 0.000122320006
9 *292:5 *76:19 8.357e-05
10 *292:4 *76:20 8.357e-05
11 *292:5 *76:17 1.649e-05
12 *292:4 *76:18 1.64900056e-05

*RES
1 *292:4 *442:C 3.20000005
2 *292:4 *292:5 1.248
3 *292:3 *292:5 0.183838
4 *292:2 *292:3 3.20000005
5 *450:Y *292:2 0.223828
*END

*D_NET *293 0.000985487

*CONN
*I *449:Y O *C 101.97 61.88 *L 0 *D OAI22X1
*I *440:C0 I *C 104.61 57.96 *L 0.00438 *D AOI211X1

*CAP
1 *449:Y 3.72993e-05
2 *440:C0 6.32987e-05
3 *293:2 9.2207e-05
4 *293:3 0.000177581
5 *293:4 0.000166779
6 *293:5 0.00024726
7 *293:5 *300:2 0.00010053
8 *293:3 *300:3 0.00010053

*RES
1 *293:3 *440:C0 6.4000001
2 *293:3 *293:5 0.936035
3 *293:4 *293:5 3.2
4 *293:2 *293:4 0.223828
5 *293:2 *449:Y 0.189941
*END

*D_NET *294 0.00163621

*CONN
*I *617:Y O *C 92.73 77 *L 0 *D AOI22XL
*I *448:B1 I *C 92.07 73.64 *L 0.00434 *D AOI22X1
*I *445:A1 I *C 95.37 73.64 *L 0.00324 *D OAI21XL

*CAP
1 *617:Y 0.000139841
2 *448:B1 0.000139841
3 *445:A1 6.32976e-05
4 *294:3 0.000190711
5 *294:4 0.00040002
6 *294:5 0.000143411
7 *294:6 0.000142099
8 *294:7 0.000120577
9 *294:8 0.000296418

*RES
1 *294:7 *445:A1 6.4000001
2 *294:6 *617:Y 3.2
3 *294:7 *294:8 0.467969
4 *294:5 *294:6 0.183887
5 *294:4 *294:8 0.919238
6 *294:4 *294:5 0.467969
7 *294:3 *294:4 0.467969
8 *448:B1 *294:3 3.2
*END

*D_NET *295 0.000396229

*CONN
*I *448:Y O *C 94.05 72.52 *L 0 *D AOI22X1
*I *445:B0 I *C 96.69 72.52 *L 0.00302 *D OAI21XL

*CAP
1 *448:Y 6.33001e-05
2 *445:B0 7.973e-05
3 *295:2 7.24192e-05
4 *295:3 0.00011506
5 *295:4 6.57195e-05

*RES
1 *295:3 *445:B0 0.447656
2 *295:4 *295:3 6.4000001
3 *295:2 *295:4 0.183887
4 *448:Y *295:2 6.4000001
*END

*D_NET *296 0.000556609

*CONN
*I *447:Y O *C 129.69 64.12 *L 0 *D NAND2XL
*I *443:D I *C 132.33 64.12 *L 0.00184 *D DFFRHQX1

*CAP
1 *447:Y 4.12086e-05
2 *443:D 6.3299e-05
3 *296:2 7.65404e-05
4 *296:3 0.00022262
5 *296:4 0.000152941

*RES
1 *296:4 *443:D 6.4000001
2 *296:3 *296:4 0.551562
3 *296:2 *296:3 3.2
4 *447:Y *296:2 0.223828
*END

*D_NET *297 0.000548038

*CONN
*I *446:Y O *C 100.65 66.36 *L 0 *D AOI211X1
*I *442:B I *C 104.61 68.04 *L 0.00455 *D NAND3X1

*CAP
1 *446:Y 7.97299e-05
2 *442:B 7.45891e-05
3 *297:2 0.000119699
4 *297:3 0.00011703
5 *297:4 0.00015699

*RES
1 *297:4 *442:B 0.379824
2 *297:2 *297:4 0.447652161
3 *297:2 *297:3 0.189912
4 *446:Y *297:3 0.447652161
*END

*D_NET *298 0.00229959

*CONN
*I *445:Y O *C 96.69 71.96 *L 0 *D OAI21XL
*I *441:B0 I *C 109.89 72.52 *L 0.00492 *D AOI211X1

*CAP
1 *445:Y 0.000139836
2 *441:B0 0.000139836
3 *298:2 0.000639741
4 *298:3 0.00066634
5 *298:4 0.000120599
6 *298:5 0.000223018
7 *298:6 0.000120599
8 *298:7 0.000249617

*RES
1 *298:6 *441:B0 3.20000005
2 *298:7 *298:6 3.20000005
3 *298:5 *298:7 0.919287
4 *298:5 *298:2 0.312012
5 *298:3 *298:2 2.57402
6 *298:4 *298:3 3.20000005
7 *445:Y *298:4 3.20000005
*END

*D_NET *299 0.000815259

*CONN
*I *444:Y O *C 107.25 62.44 *L 0 *D AOI22X1
*I *442:A I *C 105.27 66.92 *L 0.00477 *D NAND3X1

*CAP
1 *444:Y 6.32972e-05
2 *442:A 6.32972e-05
3 *299:2 0.00031887
4 *299:3 0.000183289
5 *299:4 0.0001865

*RES
1 *299:3 *444:Y 6.4000001
2 *299:3 *299:2 0.77998
3 *299:4 *299:2 0.735449
4 *442:A *299:4 6.4000001
*END

*D_NET *300 0.00144235

*CONN
*I *442:Y O *C 105.93 66.36 *L 0 *D NAND3X1
*I *440:B0 I *C 105.27 58.52 *L 0.00492 *D AOI211X1

*CAP
1 *442:Y 5.49131e-05
2 *440:B0 0.00013984
3 *300:2 0.0004815
4 *300:3 0.000474799
5 *300:4 9.02385e-05
6 *300:2 *293:5 0.00010053
7 *300:3 *293:3 0.00010053

*RES
1 *300:4 *442:Y 0.223828
2 *300:2 *300:4 6.4000001
3 *300:3 *300:2 2.18398
4 *440:B0 *300:3 3.2
*END

*D_NET *301 0.00338412

*CONN
*I *625:Y O *C 125.73 72.52 *L 0 *D AOI22X1
*I *441:A1 I *C 107.91 73.08 *L 0.00472 *D AOI211X1
*I *439:A1 I *C 111.21 73.64 *L 0.00457 *D OAI211X1

*CAP
1 *625:Y 0.000139844
2 *441:A1 0.000139844
3 *439:A1 0.000139844
4 *301:3 0.00054516
5 *301:4 0.00054516
6 *301:5 0.000135444
7 *301:6 0.000135444
8 *301:7 0.000114772
9 *301:8 0.000296583
10 *301:9 9.26693e-05
11 *301:10 0.000153537
12 *301:11 0.000120603
13 *301:12 0.000212832
14 *301:13 0.000120603
15 *301:14 0.000155159
16 *301:15 0.000120603
17 *301:16 0.000216026

*RES
1 *301:15 *625:Y 3.20000005
2 *301:16 *301:15 3.20000005
3 *301:14 *301:16 0.551562
4 *301:5 *301:14 0.156006
5 *301:6 *301:5 0.735449
6 *301:6 *301:3 0.156006
7 *301:4 *301:3 2.57402
8 *301:13 *439:A1 3.20000005
9 *301:7 *301:4 0.156006
10 *301:8 *301:13 3.20000005
11 *301:8 *301:7 0.367725
12 *301:12 *301:8 0.735449
13 *301:9 *301:12 0.156006
14 *301:10 *301:9 0.183838
15 *301:11 *301:10 3.20000005
16 *441:A1 *301:11 3.20000005
*END

*D_NET *302 0.000666458

*CONN
*I *441:Y O *C 109.23 74.76 *L 0 *D AOI211X1
*I *439:B0 I *C 113.85 73.64 *L 0.00429 *D OAI211X1

*CAP
1 *441:Y 0.000122369
2 *439:B0 8.06599e-05
3 *302:2 0.00016506
4 *302:3 9.45402e-05
5 *302:4 0.000115989
6 *302:5 8.78381e-05

*RES
1 *302:4 *439:B0 0.447656
2 *302:5 *302:4 6.4000001
3 *302:3 *302:5 0.312012
4 *302:2 *302:3 6.4000001
5 *441:Y *302:2 0.671484
*END

*D_NET *303 0.00291754

*CONN
*I *478:Y O *C 105.27 46.76 *L 0 *D NOR3X1
*I *440:A0 I *C 103.95 56.84 *L 0.00483 *D AOI211X1
*I *421:A0 I *C 100.65 54.04 *L 0.00483 *D AOI211X1

*CAP
1 *478:Y 4.12078e-05
2 *440:A0 6.32947e-05
3 *421:A0 0.000139838
4 *303:3 0.000219366
5 *303:4 0.00023417
6 *303:5 9.44575e-05
7 *303:6 9.44575e-05
8 *303:7 0.00043195
9 *303:8 0.000362269
10 *303:9 0.000142098
11 *303:10 0.00025919
12 *303:11 0.000120605
13 *303:12 0.000254589
14 *303:13 9.02392e-05
15 *303:14 0.000120605
16 *303:15 7.84806e-05
17 *303:16 7.8507e-05
18 *303:17 9.221e-05

*RES
1 *303:16 *478:Y 0.223828
2 *303:16 *303:17 0.189941
3 *303:13 *303:17 0.223828
4 *303:6 *303:13 6.4000001
5 *303:6 *303:5 0.312012
6 *303:14 *303:5 3.2
7 *303:8 *303:14 3.2
8 *303:8 *303:7 1.71602
9 *303:11 *440:A0 6.4000001
10 *303:15 *303:7 3.2
11 *303:12 *303:11 3.2
12 *303:12 *303:15 0.367676
13 *303:10 *303:12 0.735449
14 *303:3 *303:10 3.2
15 *303:4 *303:3 0.77998
16 *303:9 *303:4 0.183887
17 *421:A0 *303:9 3.2
*END

*D_NET *304 0.00416229

*CONN
*I *439:Y O *C 112.53 71.96 *L 0 *D OAI211X1
*I *430:C0 I *C 98.67 57.4 *L 0.00473 *D AOI221X1

*CAP
1 *439:Y 6.3294e-05
2 *430:C0 0.000139833
3 *304:2 0.000220132
4 *304:3 0.00015046
5 *304:4 0.000179407
6 *304:5 0.000172714
7 *304:6 0.000762775625
8 *304:7 0.000693103
9 *304:8 0.00069649
10 *304:9 0.00069649
11 *304:10 0.000193793
12 *304:11 0.000193793

*RES
1 *304:4 *439:Y 6.4000001
2 *304:5 *304:4 0.467969
3 *304:6 *304:5 3.2
4 *304:7 *304:6 2.9417
5 *304:8 *304:7 3.2
6 *304:9 *304:8 2.80801
7 *304:11 *304:9 3.2
8 *304:10 *304:11 0.919238
9 *304:2 *304:10 3.2
10 *304:3 *304:2 0.624023
11 *430:C0 *304:3 3.2
*END

*D_NET *305 0.00457012

*CONN
*I *488:Y O *C 116.49 42.84 *L 0 *D NOR2X1
*I *436:B I *C 111.87 57.4 *L 0.00375 *D NAND2X1
*I *435:B I *C 113.85 63.56 *L 0.00375 *D NAND2X1

*CAP
1 *488:Y 0.000139841
2 *436:B 3.98591e-05
3 *435:B 3.98591e-05
4 *305:3 0.000290886
5 *305:4 0.000184351
6 *305:5 0.000204397
7 *305:6 0.000235865
8 *305:7 0.000305535
9 *305:8 8.57317e-05
10 *305:9 8.57317e-05
11 *305:10 6.99268e-05
12 *305:11 6.99268e-05
13 *305:12 7.51951e-05
14 *305:13 7.51694e-05
15 *305:14 0.000142102
16 *305:15 7.71354e-05
17 *305:16 7.71611e-05
18 *305:17 0.000283331
19 *305:18 0.000338224
20 *305:19 0.00084209
21 *305:20 0.00078721
22 *305:21 0.000120605

*RES
1 *305:21 *488:Y 3.20002
2 *305:8 *305:21 3.20002
3 *305:16 *435:B 0.223831
4 *305:9 *305:8 0.367739
5 *305:15 *305:16 0.189896
6 *305:19 *305:9 3.20002
7 *305:13 *305:15 0.223831
8 *305:19 *305:20 3.74399996
9 *305:14 *305:13 3.20002
10 *305:17 *305:20 0.183841
11 *305:10 *305:14 0.183841
12 *305:17 *305:18 1.09202
13 *305:11 *305:10 0.156019
14 *305:6 *305:18 3.20002
15 *305:5 *305:11 0.183841
16 *305:7 *305:6 0.919261
17 *305:3 *305:5 0.779981
18 *305:3 *305:7 3.20002
19 *305:4 *305:3 0.624019
20 *305:12 *436:B 0.223831
21 *305:12 *305:4 3.20002
*END

*D_NET *306 0.0122582

*CONN
*I *440:Y O *C 104.61 56.28 *L 0 *D AOI211X1
*I *438:A I *C 113.85 47.32 *L 0.00346 *D INVX1
*I *437:A I *C 84.81 47.88 *L 0.00403 *D NAND2X1
*I *436:A I *C 112.53 57.96 *L 0.00403 *D NAND2X1
*I *433:B0 I *C 125.73 33.32 *L 0.00348 *D OAI2BB2XL
*I *414:B1 I *C 103.95 53.48 *L 0.00434 *D AOI22X1

*CAP
1 *440:Y 0.000598452
2 *438:A 0.000111896
3 *437:A 0.000139841
4 *436:A 0.000139841
5 *433:B0 0.000139841
6 *414:B1 0.000139841
7 *306:6 0.000211249
8 *306:7 0.000225861
9 *306:8 0.000321851
10 *306:9 0.000265486
11 *306:10 0.000463909
12 *306:11 0.000449103
13 *306:12 0.000280113
14 *306:13 0.000349795
15 *306:14 0.000795431
16 *306:15 0.000725749
17 *306:16 6.78074e-05
18 *306:17 0.00013749
19 *306:18 0.000257287
20 *306:19 0.000257272
21 *306:20 0.000146894
22 *306:21 0.000216576
23 *306:22 8.4577e-05
24 *306:23 0.000493936
25 *306:24 9.95758e-05
26 *306:25 0.000139841
27 *306:26 0.000192069
28 *306:27 0.000137192
29 *306:28 0.000357845
30 *306:29 0.000357845
31 *306:30 0.000295856
32 *306:31 0.000350747
33 *306:32 0.000120601
34 *306:33 0.000120601
35 *306:34 0.000486734
36 *306:35 0.000495439
37 *306:36 0.00097515
38 *306:37 0.000142102
39 *306:38 0.000966445

*RES
1 *306:7 *414:B1 3.2
2 *306:7 *306:6 0.624023
3 *306:6 *306:25 0.367676
4 *306:25 *306:24 0.312012
5 *306:24 *306:37 0.183887
6 *440:Y *306:37 3.2
7 *306:13 *433:B0 3.2
8 *306:13 *306:12 0.936035
9 *440:Y *306:23 2.23828
10 *306:14 *306:12 3.2
11 *306:22 *306:23 6.4000001
12 *306:15 *306:14 3.30947
13 *306:8 *436:A 3.2
14 *306:8 *306:22 0.312012
15 *306:31 *306:15 3.2
16 *438:A *306:18 0.569727
17 *306:9 *306:8 0.77998
18 *306:31 *306:30 1.24805
19 *306:19 *306:18 0.671484
20 *306:10 *306:9 0.183887
21 *306:29 *306:30 0.183887
22 *306:11 *306:19 3.2
23 *306:11 *306:10 1.71602
24 *306:29 *306:28 1.71602
25 *306:21 *306:11 3.2
26 *306:28 *306:27 0.183887
27 *306:21 *306:20 0.551562
28 *306:27 *306:26 0.467969
29 *306:26 *306:20 3.2
30 *306:38 *306:26 3.2
31 *306:36 *306:38 5.33184
32 *306:35 *306:36 0.155957
33 *306:34 *306:35 2.75781
34 *306:33 *306:34 3.2
35 *306:32 *306:33 3.2
36 *306:16 *306:32 3.2
37 *306:17 *306:16 0.155957
38 *437:A *306:17 3.2
*END

*D_NET *307 0.00142739

*CONN
*I *433:Y O *C 127.05 33.32 *L 0 *D OAI2BB2XL
*I *427:D I *C 131.67 33.88 *L 0.00184 *D DFFRHQX1

*CAP
1 *433:Y 0.000167189
2 *427:D 6.32979e-05
3 *307:2 0.000187743
4 *307:3 0.000118062
5 *307:4 0.00022843
6 *307:5 0.000158754
7 *307:6 0.00027906
8 *307:7 0.000112429
9 *307:8 0.000112429

*RES
1 *307:7 *427:D 6.4000001
2 *307:7 *307:8 0.312012
3 *307:4 *307:8 3.2
4 *307:5 *307:4 0.551562
5 *307:2 *307:5 3.2
6 *307:3 *307:2 0.312012
7 *307:6 *307:3 3.2
8 *433:Y *307:6 0.895312
*END

*D_NET *308 0.00240605

*CONN
*I *470:Y O *C 120.45 63 *L 0 *D NOR2X1
*I *453:B0 I *C 126.39 63.56 *L 0.00319 *D AOI21XL
*I *432:S0 I *C 127.05 68.04 *L 0.00612 *D MXI2XL
*I *393:S0 I *C 123.75 68.04 *L 0.00672 *D MXI2X1

*CAP
1 *470:Y 0.00020759
2 *453:B0 6.32967e-05
3 *432:S0 0.000139839
4 *393:S0 0.000139839
5 *308:4 0.000164625
6 *308:5 0.000354036
7 *308:6 0.00014896
8 *308:7 0.000242915
9 *308:8 0.000148001
10 *308:9 0.00044908
11 *308:10 0.000205761
12 *308:11 0.000142101

*RES
1 *308:11 *432:S0 3.2
2 *308:8 *453:B0 6.4000001
3 *308:10 *308:11 0.183887
4 *308:8 *308:9 0.467969
5 *308:9 *308:10 0.77998
6 *308:4 *393:S0 3.2
7 *308:5 *308:9 0.735449
8 *308:5 *308:4 0.77998
9 *308:6 *308:5 0.312012
10 *308:7 *308:6 3.2
11 *470:Y *308:7 1.11914
*END

*D_NET *309 0.00110014

*CONN
*I *432:Y O *C 129.03 66.92 *L 0 *D MXI2XL
*I *424:D I *C 131.01 72.52 *L 0.00206 *D DFFRX1

*CAP
1 *432:Y 0.000139842
2 *424:D 0.000139842
3 *309:2 0.00018236
4 *309:3 0.00030297
5 *309:4 0.000262713
6 *309:5 7.24197e-05

*RES
1 *309:5 *424:D 3.20000005
2 *309:4 *309:5 0.183838
3 *309:3 *309:4 1.09199
4 *309:2 *309:3 0.367725
5 *432:Y *309:2 3.20000005
*END

*D_NET *310 0.00308329

*CONN
*I *431:Y O *C 88.11 56.84 *L 0 *D MXI2XL
*I *423:D I *C 68.97 58.52 *L 0.00206 *D DFFRX1

*CAP
1 *431:Y 0.000139833
2 *423:D 6.32997e-05
3 *310:2 0.000129415
4 *310:3 0.000114621
5 *310:4 6.57147e-05
6 *310:5 0.00090437
7 *310:6 0.000127745
8 *310:7 0.000834681
9 *310:8 5.80696e-05
10 *310:7 *80:12 3.765e-05
11 *310:5 *80:13 3.765e-05
12 *310:7 *80:13 5.271e-05
13 *310:5 *80:14 5.271e-05
14 *310:7 *80:15 2.799e-05
15 *310:5 *80:16 2.79900053e-05
16 *310:7 *62:4 0.00012112
17 *310:5 *62:5 0.00012112
18 *310:2 *340:7 8.329e-05
19 *310:3 *340:8 8.32900032e-05

*RES
1 *310:8 *431:Y 3.2
2 *310:6 *310:8 0.155957
3 *310:7 *310:6 3.2
4 *310:5 *310:7 5.14805
5 *310:3 *310:5 3.2
6 *310:3 *310:2 0.624023
7 *310:4 *310:2 0.183887
8 *423:D *310:4 6.4000001
*END

*D_NET *311 0.00025352

*CONN
*I *430:Y O *C 96.69 56.28 *L 0 *D AOI221X1
*I *422:A I *C 101.31 56.84 *L 0.00477 *D NAND3X1

*CAP
1 *430:Y 0.00012676
2 *422:A 0.00012676

*RES
1 *430:Y *422:A 0.671478
*END

*D_NET *312 0.00381256

*CONN
*I *468:Y O *C 105.93 73.08 *L 0 *D NOR2X1
*I *429:S0 I *C 86.79 73.08 *L 0.00612 *D MXI2XL
*I *395:S0 I *C 86.13 78.12 *L 0.00672 *D MXI2X1

*CAP
1 *468:Y 0.00013984
2 *429:S0 0.00013984
3 *395:S0 0.00013984
4 *312:3 0.000328139
5 *312:4 0.00036241
6 *312:5 0.000257599
7 *312:6 0.000242804
8 *312:7 7.24188e-05
9 *312:8 0.000318158
10 *312:9 0.00029156
11 *312:10 0.000414530781
12 *312:11 0.000120599
13 *312:12 0.00040572
14 *312:3 *279:2 7.005e-05
15 *312:4 *279:3 7.005e-05
16 *312:3 *279:4 9.545e-05
17 *312:4 *279:5 9.54499963e-05
18 *312:3 *140:6 0.00012405
19 *312:4 *140:7 0.000124050001

*RES
1 *312:11 *468:Y 3.20000005
2 *312:12 *312:11 3.20000005
3 *312:10 *312:12 1.65474
4 *312:3 *312:10 0.156006
5 *312:4 *312:3 2.39014
6 *312:4 *312:9 0.312012
7 *312:8 *312:9 1.28701
8 *312:6 *395:S0 3.20000005
9 *312:7 *429:S0 3.20000005
10 *312:7 *312:8 3.20000005
11 *312:5 *312:6 1.404
12 *312:5 *312:7 0.183838
*END

*D_NET *313 0.00320824

*CONN
*I *429:Y O *C 88.77 74.2 *L 0 *D MXI2XL
*I *425:D I *C 81.51 88.76 *L 0.00206 *D DFFRX1

*CAP
1 *429:Y 0.000139832
2 *425:D 0.000139832
3 *313:2 0.000765747
4 *313:3 0.00078037
5 *313:4 0.000385642
6 *313:5 0.000385642
7 *313:6 0.000160265
8 *313:7 9.05817e-05
9 *313:8 0.000182366
10 *313:2 *18:98 8.897e-05
11 *313:3 *18:99 8.89699977e-05

*RES
1 *313:7 *429:Y 3.2
2 *313:7 *313:6 0.46799
3 *313:4 *313:6 3.2
4 *313:5 *313:4 1.65472
5 *313:3 *313:5 3.2
6 *313:3 *313:2 3.58800006
7 *313:8 *313:2 0.367691
8 *425:D *313:8 3.2
*END

*D_NET *314 0.0160027

*CONN
*I *438:Y O *C 114.51 47.88 *L 0 *D INVX1
*I *435:A I *C 114.51 63 *L 0.00403 *D NAND2X1
*I *434:A I *C 84.15 52.92 *L 0.00403 *D NAND2X1
*I *432:B I *C 127.71 67.48 *L 0.002 *D MXI2XL
*I *431:A I *C 89.43 57.4 *L 0.0026 *D MXI2XL
*I *429:B I *C 87.45 73.64 *L 0.002 *D MXI2XL
*I *428:B I *C 108.57 43.4 *L 0.002 *D MXI2XL
*I *414:A1 I *C 105.93 52.92 *L 0.00472 *D AOI22X1

*CAP
1 *438:Y 0.000139837
2 *435:A 0.000139837
3 *434:A 0.000139837
4 *432:B 0.000139837
5 *431:A 3.73017e-05
6 *429:B 0.000139837
7 *428:B 0.000139837
8 *414:A1 6.3288e-05
9 *314:8 0.000402734
10 *314:9 0.000347852
11 *314:10 5.59526e-05
12 *314:11 0.00012563
13 *314:12 0.000197949
14 *314:13 0.000128272
15 *314:14 0.000225113
16 *314:15 0.000225113
17 *314:16 0.000344407
18 *314:17 0.000397254
19 *314:18 0.000112583
20 *314:19 0.000340285
21 *314:20 0.000241123
22 *314:21 0.000236179
23 *314:22 0.000236179
24 *314:23 0.000106265
25 *314:24 0.000115082
26 *314:25 0.000317814
27 *314:26 0.000317814
28 *314:27 0.000785888
29 *314:28 0.000742804
30 *314:29 0.000885496
31 *314:30 0.00100893
32 *314:31 0.000626169
33 *314:32 0.000809822
34 *314:33 0.00116965
35 *314:34 0.000480425
36 *314:35 6.62686e-05
37 *314:36 0.00109242
38 *314:37 0.000646426
39 *314:38 0.000105444
40 *314:39 0.000105444
41 *314:40 0.000227897
42 *314:41 0.00015822
43 *314:42 0.000566594
44 *314:43 0.000120597
45 *314:44 0.000120597
46 *314:45 7.99935e-05
47 *314:46 0.000128075
48 *314:47 0.000128075
49 *314:48 0.000468467
50 *314:49 6.57331e-05

*RES
1 *314:8 *432:B 3.2
2 *314:9 *314:8 1.404
3 *314:10 *438:Y 3.2
4 *314:49 *314:9 0.183887
5 *314:15 *428:B 3.2
6 *314:11 *314:10 0.155957
7 *314:23 *314:49 6.4000001
8 *314:41 *414:A1 6.4000001
9 *314:15 *314:14 0.77998
10 *314:16 *314:11 3.2
11 *314:24 *314:23 0.367676
12 *314:41 *314:40 0.624023
13 *314:17 *314:14 3.2
14 *314:17 *314:16 1.65469
15 *314:25 *314:24 0.155957
16 *314:39 *314:40 3.2
17 *314:35 *314:17 0.183887
18 *314:47 *435:A 3.2
19 *314:26 *314:25 1.28701
20 *314:39 *314:38 0.551562
21 *314:37 *314:35 3.2
22 *314:46 *314:47 0.155957
23 *314:26 *314:48 0.155957
24 *314:36 *314:38 3.2
25 *314:37 *314:36 2.496
26 *314:29 *314:46 3.2
27 *314:29 *314:48 1.83857
28 *314:36 *314:42 2.02803
29 *314:30 *314:29 1.83857
30 *314:30 *314:42 3.2
31 *314:43 *429:B 3.2
32 *314:31 *314:30 2.20625
33 *314:45 *431:A 0.189941
34 *314:44 *314:43 3.2
35 *314:27 *314:31 0.312012
36 *314:21 *314:45 3.2
37 *314:32 *314:44 3.2
38 *314:28 *314:27 3.49326
39 *314:22 *314:21 0.624023
40 *314:33 *314:32 3.43203
41 *314:33 *314:28 3.2
42 *314:18 *314:22 3.2
43 *314:34 *314:33 1.87197
44 *314:19 *314:18 0.551562
45 *314:19 *314:34 3.2
46 *314:20 *314:19 0.919238
47 *314:12 *314:20 3.2
48 *314:13 *314:12 0.467969
49 *434:A *314:13 3.2
*END

*D_NET *315 0.00296611

*CONN
*I *474:Y O *C 105.93 42.84 *L 0 *D NOR2X1
*I *428:S0 I *C 107.91 42.84 *L 0.00612 *D MXI2XL
*I *396:S0 I *C 100.65 32.76 *L 0.00672 *D MXI2X1

*CAP
1 *474:Y 0.000156533
2 *428:S0 0.000139835
3 *396:S0 0.000139835
4 *315:3 0.000593003
5 *315:4 0.00072858
6 *315:5 9.02401e-05
7 *315:6 0.000262882
8 *315:7 9.22079e-05
9 *315:8 0.00016406
10 *315:9 0.00016406
11 *315:10 0.000112675
12 *315:11 0.000110185
13 *315:12 6.99174e-05
14 *315:13 0.000142103

*RES
1 *315:13 *428:S0 3.20000005
2 *315:12 *315:13 0.183838
3 *315:11 *315:12 0.156006
4 *315:10 *315:11 0.367725
5 *474:Y *315:10 3.20000005
6 *315:9 *474:Y 0.189893
7 *315:8 *315:9 0.671484
8 *315:7 *315:8 0.189893
9 *315:5 *315:7 0.223828
10 *315:6 *315:5 3.20000005
11 *315:4 *315:6 0.735449
12 *315:3 *315:4 2.33999
13 *396:S0 *315:3 3.20000005
*END

*D_NET *316 0.00184092

*CONN
*I *428:Y O *C 109.89 43.96 *L 0 *D MXI2XL
*I *426:D I *C 103.29 38.36 *L 0.00206 *D DFFRX1

*CAP
1 *428:Y 0.000139841
2 *426:D 6.33022e-05
3 *316:2 0.000120599
4 *316:3 0.00046966
5 *316:4 0.00032377
6 *316:5 0.00046966
7 *316:6 0.00025409

*RES
1 *316:6 *428:Y 3.2
2 *316:4 *316:6 1.09199
3 *316:5 *316:4 3.2
4 *316:3 *316:5 1.83857
5 *316:2 *316:3 3.2
6 *426:D *316:2 6.4000001
*END

*D_NET *317 0.00105418

*CONN
*I *422:Y O *C 101.97 56.28 *L 0 *D NAND3X1
*I *421:B0 I *C 101.97 52.36 *L 0.00492 *D AOI211X1

*CAP
1 *422:Y 0.000139838
2 *421:B0 0.000139838
3 *317:2 0.00038725
4 *317:3 0.00038725

*RES
1 *317:2 *422:Y 3.20000005
2 *317:3 *317:2 1.09199
3 *421:B0 *317:3 3.20000005
*END

*D_NET *318 0.00456932

*CONN
*I *496:Y O *C 121.11 47.32 *L 0 *D OAI2BB2X1
*I *495:A I *C 115.17 47.32 *L 0.00346 *D INVX1
*I *493:B I *C 112.53 52.92 *L 0.00385 *D NOR2X1
*I *492:B I *C 111.87 47.32 *L 0.00375 *D NAND2X1
*I *491:A0 I *C 123.75 47.88 *L 0.00333 *D OAI22XL
*I *419:B I *C 108.57 47.32 *L 0.00375 *D NAND2X1
*I *417:B I *C 109.23 53.48 *L 0.00375 *D NAND2X1

*CAP
1 *496:Y 0.000139838
2 *495:A 0.000139838
3 *493:B 8.33966e-05
4 *492:B 8.53317e-05
5 *491:A0 0.000139838
6 *419:B 0.000139838
7 *417:B 0.00011189
8 *318:7 0.000160467
9 *318:8 0.000390108
10 *318:9 0.00012066
11 *318:10 0.00022262
12 *318:11 0.000194288
13 *318:12 0.00040647
14 *318:13 0.000245519
15 *318:14 7.99853e-05
16 *318:15 0.000304448
17 *318:16 0.000160907
18 *318:17 0.000115798
19 *318:18 0.000157992
20 *318:19 0.000120598
21 *318:20 0.000291559
22 *318:21 0.00025174
23 *318:22 6.81388e-05
24 *318:23 0.000120598
25 *318:24 0.000158712
26 *318:25 0.000158712

*RES
1 *318:25 *491:A0 3.20000005
2 *318:24 *318:25 0.312012
3 *318:7 *318:24 3.20000005
4 *318:23 *496:Y 3.20000005
5 *318:18 *493:B 0.447656
6 *318:8 *318:7 0.735449
7 *318:8 *318:23 3.20000005
8 *318:11 *417:B 0.569727
9 *318:17 *318:18 0.379834
10 *318:21 *318:8 1.47085
11 *318:11 *318:16 0.447656
12 *318:16 *318:17 0.223828
13 *318:19 *495:A 3.20000005
14 *318:21 *318:22 0.156006
15 *318:14 *318:16 0.189893
16 *318:20 *318:19 3.20000005
17 *318:20 *318:22 0.183838
18 *318:9 *492:B 0.447656
19 *318:15 *318:14 3.20000005
20 *318:13 *318:20 1.28701
21 *318:12 *318:9 3.20000005
22 *318:12 *318:15 1.09199
23 *318:12 *318:13 3.20000005
24 *318:10 *318:12 0.551562
25 *419:B *318:10 3.20000005
*END

*D_NET *319 0.00640508

*CONN
*I *495:Y O *C 115.83 47.88 *L 0 *D INVX1
*I *490:B I *C 114.51 57.4 *L 0.00375 *D NAND2X1
*I *489:B I *C 116.49 57.96 *L 0.00385 *D NOR2X1
*I *485:B0 I *C 116.49 33.32 *L 0.00464 *D OAI2BB2X1
*I *418:B I *C 107.25 57.4 *L 0.00375 *D NAND2X1
*I *416:B I *C 109.23 57.4 *L 0.00375 *D NAND2X1

*CAP
1 *495:Y 3.98665e-05
2 *490:B 0.000139831
3 *489:B 0.000139831
4 *485:B0 0.000139831
5 *418:B 0.000139831
6 *416:B 6.32936e-05
7 *319:6 0.000628263
8 *319:7 0.000613481
9 *319:8 0.00021077
10 *319:9 0.000149895
11 *319:10 7.3641e-05
12 *319:11 0.000334669
13 *319:12 0.000370788
14 *319:13 8.37494e-05
15 *319:14 9.85463e-05
16 *319:15 0.000170619
17 *319:16 0.000908836
18 *319:17 0.00097852
19 *319:18 0.0001206
20 *319:19 0.0001206
21 *319:20 0.0001206
22 *319:21 0.0001206
23 *319:22 0.000176054
24 *319:23 7.71647e-05
25 *319:24 8.01062e-05
26 *319:25 0.000106385
27 *319:26 7.81353e-05
28 *319:27 0.0001206

*RES
1 *319:21 *485:B0 3.2
2 *319:22 *319:21 3.2
3 *319:22 *319:25 0.183887
4 *319:17 *319:25 3.2
5 *495:Y *319:23 0.223828
6 *319:17 *319:16 4.36797
7 *319:23 *319:24 0.189941
8 *319:27 *319:16 3.2
9 *319:24 *319:26 0.223828
10 *319:7 *319:27 3.2
11 *319:7 *319:26 6.4000001
12 *319:7 *319:6 2.18398
13 *319:14 *319:6 0.183887
14 *319:13 *489:B 3.2
15 *319:14 *319:13 0.312012
16 *319:8 *319:13 3.2
17 *319:9 *319:8 0.367676
18 *319:20 *490:B 3.2
19 *319:10 *319:9 0.155957
20 *319:19 *416:B 6.4000001
21 *319:11 *319:20 3.2
22 *319:11 *319:10 0.183887
23 *319:12 *319:19 3.2
24 *319:12 *319:11 1.4709
25 *319:15 *319:12 0.551562
26 *319:18 *319:15 3.2
27 *418:B *319:18 3.2
*END

*D_NET *320 0.00215157

*CONN
*I *420:Y O *C 108.57 52.92 *L 0 *D INVX1
*I *417:A I *C 109.89 52.92 *L 0.00403 *D NAND2X1
*I *416:A I *C 109.89 57.96 *L 0.00403 *D NAND2X1
*I *414:B0 I *C 104.61 52.92 *L 0.00433 *D AOI22X1

*CAP
1 *420:Y 7.97313e-05
2 *417:A 0.000139837
3 *416:A 0.000139837
4 *414:B0 0.000139837
5 *320:4 7.56121e-05
6 *320:5 0.000170931
7 *320:6 0.000150442
8 *320:7 6.99186e-05
9 *320:8 0.000115063
10 *320:9 0.0002147
11 *320:10 0.000190696
12 *320:11 0.00035334
13 *320:12 0.00031162

*RES
1 *320:12 *416:A 3.20000005
2 *320:11 *417:A 3.20000005
3 *320:11 *320:12 1.404
4 *320:10 *320:11 0.156006
5 *320:8 *420:Y 0.447656
6 *320:9 *320:10 0.735449
7 *320:9 *320:8 3.20000005
8 *320:7 *320:9 0.183838
9 *320:4 *414:B0 3.20000005
10 *320:6 *320:7 0.156006
11 *320:5 *320:4 0.312012
12 *320:5 *320:6 0.551562
*END

*D_NET *321 0.0175653

*CONN
*I *502:Y O *C 123.75 43.96 *L 0 *D NAND2BX1
*I *500:A I *C 119.13 43.4 *L 0.00346 *D INVX1
*I *491:A1 I *C 124.41 47.88 *L 0.00347 *D OAI22XL
*I *486:B0 I *C 127.05 42.84 *L 0.00325 *D AOI22XL
*I *485:B1 I *C 117.15 32.76 *L 0.00444 *D OAI2BB2X1
*I *485:A1N I *C 118.47 32.76 *L 0.00219 *D OAI2BB2X1
*I *474:B I *C 104.61 42.84 *L 0.00385 *D NOR2X1
*I *470:B I *C 119.13 63 *L 0.00385 *D NOR2X1
*I *468:B I *C 104.61 73.08 *L 0.00385 *D NOR2X1
*I *453:A0 I *C 125.73 63 *L 0.00314 *D AOI21XL
*I *433:B1 I *C 125.07 32.76 *L 0.00335 *D OAI2BB2XL
*I *433:A1N I *C 123.75 32.76 *L 0.00224 *D OAI2BB2XL
*I *415:B1 I *C 108.57 32.76 *L 0.00444 *D OAI2BB2X1
*I *415:A1N I *C 107.25 32.76 *L 0.00219 *D OAI2BB2X1

*CAP
1 *502:Y 0.00024498
2 *500:A 0.000139849
3 *491:A1 0.000139849
4 *486:B0 0.000189328
5 *485:B1 0.000139849
6 *485:A1N 0.000345656
7 *474:B 0.000139849
8 *470:B 6.21834e-05
9 *468:B 0.000139849
10 *453:A0 6.33074e-05
11 *433:B1 0.000139849
12 *433:A1N 0.000345656
13 *415:B1 0.000139849
14 *415:A1N 0.000168184
15 *321:14 0.000193719
16 *321:15 0.000193719
17 *321:16 0.000548622
18 *321:17 0.000618292
19 *321:18 0.000193316
20 *321:19 0.000193316
21 *321:20 0.000174037
22 *321:21 0.000146827
23 *321:22 0.000140125
24 *321:23 0.000983057
25 *321:24 0.000693285
26 *321:25 0.000184663
27 *321:26 0.000723868
28 *321:27 0.000756041
29 *321:28 0.000115014
30 *321:29 0.000347565
31 *321:30 0.000224938
32 *321:31 0.000400862
33 *321:32 0.000189328
34 *321:33 8.99453e-05
35 *321:34 0.000159615
36 *321:35 0.00109616
37 *321:36 0.000858224
38 *321:37 0.000248118
39 *321:38 0.000317788
40 *321:39 0.0013899
41 *321:40 0.0013899
42 *321:41 0.00011302
43 *321:42 0.000342178
44 *321:43 0.000130835
45 *321:44 0.000139637
46 *321:45 9.02422e-05
47 *321:46 0.000120592
48 *321:47 0.000244746
49 *321:48 0.000166805
50 *321:49 0.000120592
51 *321:50 0.000120592
52 *321:51 0.000120592
53 *321:52 0.000120592
54 *321:53 0.000105979
55 *321:54 0.000142097
56 *321:55 9.10057e-05
57 *321:35 *288:6 9.132e-05
58 *321:36 *288:4 9.13200017e-05
59 *321:14 *292:5 0.00012232
60 *321:15 *292:4 0.000122320006

*RES
1 *321:14 *468:B 3.2
2 *321:15 *321:14 1.24805
3 *321:46 *321:15 3.2
4 *321:22 *453:A0 6.4000001
5 *321:20 *470:B 0.447656
6 *321:37 *321:46 3.2
7 *321:22 *321:21 0.467969
8 *321:19 *321:20 3.2
9 *321:38 *321:37 0.936035
10 *321:43 *321:21 6.4000001
11 *321:19 *321:18 0.624023
12 *321:36 *321:38 3.2
13 *321:44 *321:43 0.551562
14 *321:35 *321:18 3.2
15 *321:36 *321:35 3.67715
16 *321:44 *321:41 0.155957
17 *321:33 *500:A 3.2
18 *321:35 *321:42 1.28701
19 *321:42 *321:41 0.367676
20 *321:34 *321:33 0.312012
21 *321:39 *321:42 3.2
22 *321:32 *321:34 3.2
23 *321:40 *321:39 6.396
24 *502:Y *486:B0 0.895312
25 *321:32 *321:31 0.919238
26 *321:31 *321:40 3.2
27 *321:54 *491:A1 3.2
28 *321:31 *321:30 0.735449
29 *321:54 *321:29 0.183887
30 *502:Y *321:55 0.223828
31 *321:23 *321:30 3.2
32 *321:23 *321:29 1.55996
33 *321:23 *321:55 3.2
34 *321:24 *433:B1 3.2
35 *321:24 *321:23 2.65195
36 *321:53 *321:24 0.367676
37 *433:A1N *321:53 6.4000001
38 *485:A1N *433:A1N 1.79062
39 *321:52 *485:A1N 3.2
40 *321:51 *485:B1 3.2
41 *321:25 *321:52 3.2
42 *321:50 *415:B1 3.2
43 *321:26 *321:51 3.2
44 *321:26 *321:25 0.367676
45 *321:27 *321:50 3.2
46 *321:27 *321:26 2.39014
47 *321:28 *321:27 0.367676
48 *321:49 *321:28 3.2
49 *415:A1N *321:49 6.4000001
50 *321:16 *474:B 3.2
51 *321:47 *415:A1N 0.671484
52 *321:17 *321:16 2.34004
53 *321:47 *321:48 0.569727
54 *321:45 *321:17 3.2
55 *321:45 *321:48 0.223828
*END

*D_NET *322 0.00602938

*CONN
*I *421:Y O *C 101.31 54.6 *L 0 *D AOI211X1
*I *420:A I *C 107.91 53.48 *L 0.00346 *D INVX1
*I *419:A I *C 109.23 47.88 *L 0.00403 *D NAND2X1
*I *418:A I *C 107.91 57.96 *L 0.00403 *D NAND2X1
*I *415:B0 I *C 109.23 33.32 *L 0.00464 *D OAI2BB2X1
*I *414:A0 I *C 105.27 53.48 *L 0.00465 *D AOI22X1

*CAP
1 *421:Y 0.000139834
2 *420:A 0.000139834
3 *419:A 6.3297e-05
4 *418:A 6.3297e-05
5 *415:B0 0.000139834
6 *414:A0 6.3297e-05
7 *322:6 0.000301802
8 *322:7 0.000364798
9 *322:8 0.000190953
10 *322:9 0.000190953
11 *322:10 0.000333974
12 *322:11 0.000333974
13 *322:12 0.000462915
14 *322:13 0.00103912
15 *322:14 0.000696822
16 *322:15 0.000232052
17 *322:16 0.000230228
18 *322:17 0.0001206
19 *322:18 7.10664e-05
20 *322:19 0.000140753
21 *322:20 0.000175272
22 *322:21 0.000115162
23 *322:22 9.37087e-05
24 *322:23 9.96547e-05
25 *322:24 5.09135e-05
26 *322:25 0.000175272

*RES
1 *322:11 *415:B0 3.2
2 *322:11 *322:10 1.09199
3 *322:24 *419:A 6.4000001
4 *322:8 *322:10 3.2
5 *322:25 *322:24 6.4000001
6 *322:9 *322:8 0.735449
7 *322:20 *322:25 0.735449
8 *322:14 *322:9 3.2
9 *322:6 *418:A 6.4000001
10 *322:13 *322:20 3.2
11 *322:14 *322:13 2.96396
12 *322:7 *420:A 3.2
13 *322:7 *322:6 1.24805
14 *322:13 *322:12 1.55996
15 *322:23 *322:7 3.2
16 *322:18 *414:A0 6.4000001
17 *322:21 *322:12 3.2
18 *322:21 *322:23 0.367676
19 *322:18 *322:19 0.155957
20 *322:21 *322:22 0.155957
21 *322:15 *322:19 3.2
22 *322:15 *322:22 0.367676
23 *322:16 *322:15 0.735449
24 *322:17 *322:16 3.2
25 *421:Y *322:17 3.2
*END

*D_NET *323 0.00193468

*CONN
*I *415:Y O *C 110.55 33.32 *L 0 *D OAI2BB2X1
*I *405:D I *C 102.63 26.6 *L 0.00184 *D DFFRHQX1

*CAP
1 *415:Y 0.000139836
2 *405:D 6.33034e-05
3 *323:2 0.000120596
4 *323:3 0.00049797
5 *323:4 0.000342337
6 *323:5 0.00049797
7 *323:6 0.000272658

*RES
1 *323:6 *415:Y 3.2
2 *323:4 *323:6 1.55996
3 *323:5 *323:4 3.2
4 *323:3 *323:5 2.20625
5 *323:2 *323:3 3.2
6 *405:D *323:2 6.4000001
*END

*D_NET *324 0.00211071

*CONN
*I *413:Y O *C 111.87 88.2 *L 0 *D NOR2X1
*I *385:K I *C 113.85 97.72 *L 0.00249 *D JKFFRXL

*CAP
1 *413:Y 3.98599e-05
2 *385:K 0.000139843
3 *324:2 0.000577154
4 *324:3 0.00063204
5 *324:4 7.71641e-05
6 *324:5 0.000120506
7 *324:6 0.000120506
8 *324:7 9.3492e-05
9 *324:8 0.000142099
10 *324:9 0.000168062

*RES
1 *324:8 *385:K 3.20000005
2 *324:8 *324:2 0.183838
3 *324:3 *324:2 2.18398
4 *324:9 *324:3 3.20000005
5 *324:7 *324:9 0.223828
6 *324:6 *324:7 0.189893
7 *324:5 *324:6 0.447656
8 *324:4 *324:5 0.189893
9 *413:Y *324:4 0.223828
*END

*D_NET *325 0.00416008

*CONN
*I *412:Y O *C 84.81 93.24 *L 0 *D NOR2X1
*I *387:K I *C 78.21 113.96 *L 0.00249 *D JKFFRXL

*CAP
1 *412:Y 8.58931e-05
2 *387:K 0.000139842
3 *325:2 0.000637577
4 *325:3 0.00070725
5 *325:4 0.000466093
6 *325:5 0.000136658
7 *325:6 0.00039642
8 *325:7 0.000145346
9 *325:8 0.000284281
10 *325:9 0.000116585
11 *325:10 0.000284281
12 *325:11 0.000121226
13 *325:12 0.000177571
14 *325:2 *18:78 0.00015971
15 *325:3 *18:79 0.00015971
16 *325:2 *18:130 7.081e-05
17 *325:3 *18:131 7.08099914e-05

*RES
1 *412:Y *325:11 0.447679
2 *325:3 *325:11 3.2
3 *325:3 *325:2 3.58800006
4 *325:12 *325:2 3.2
5 *325:9 *325:12 0.367691
6 *325:9 *325:10 0.155979
7 *325:8 *325:10 1.28697
8 *325:7 *325:8 0.155979
9 *325:6 *387:K 3.2
10 *325:5 *325:7 0.551592
11 *325:4 *325:6 1.87202
12 *325:4 *325:5 3.2
*END

*D_NET *326 0.00138525

*CONN
*I *411:Y O *C 70.29 47.88 *L 0 *D NOR2X1
*I *392:K I *C 66.99 53.48 *L 0.00249 *D JKFFRXL

*CAP
1 *411:Y 7.97315e-05
2 *392:K 0.000139841
3 *326:2 0.00014515
4 *326:3 0.00033452
5 *326:4 0.000264839
6 *326:5 7.85115e-05
7 *326:6 0.00014712
8 *326:7 0.00011703
9 *326:8 7.85115e-05

*RES
1 *326:7 *411:Y 0.447656
2 *326:7 *326:8 0.189893
3 *326:4 *392:K 3.20000005
4 *326:5 *326:8 0.223828
5 *326:3 *326:4 1.09199
6 *326:5 *326:6 0.189893
7 *326:2 *326:3 3.20000005
8 *326:2 *326:6 0.447656
*END

*D_NET *327 0.00359802

*CONN
*I *410:Y O *C 107.91 88.2 *L 0 *D NOR2X1
*I *388:K I *C 96.03 97.72 *L 0.00249 *D JKFFRXL

*CAP
1 *410:Y 0.000139842
2 *388:K 0.000139842
3 *327:2 0.000168685
4 *327:3 0.000168685
5 *327:4 0.000289923
6 *327:5 0.000332999
7 *327:6 0.00045613
8 *327:7 0.00045613
9 *327:8 0.000338289
10 *327:9 0.000295213
11 *327:8 *120:6 0.00025076
12 *327:9 *120:7 0.00025076
13 *327:4 *342:28 6.338e-05
14 *327:5 *342:26 6.338e-05
15 *327:4 *342:31 7.111e-05
16 *327:5 *342:27 7.111e-05
17 *327:6 *342:30 2.089e-05
18 *327:7 *342:29 2.08899978e-05

*RES
1 *327:7 *410:Y 3.20000005
2 *327:7 *327:6 1.87202
3 *327:4 *327:6 3.20000005
4 *327:5 *327:4 1.65474
5 *327:5 *327:8 0.312012
6 *327:2 *388:K 3.20000005
7 *327:9 *327:8 1.65474
8 *327:3 *327:2 0.312012
9 *327:3 *327:9 3.20000005
*END

*D_NET *328 0.012005

*CONN
*I *419:Y O *C 109.23 48.44 *L 0 *D NAND2X1
*I *413:A I *C 111.21 87.64 *L 0.0043 *D NOR2X1
*I *411:A I *C 69.63 47.32 *L 0.0043 *D NOR2X1
*I *409:A I *C 111.21 93.8 *L 0.0043 *D NOR2X1
*I *407:A I *C 66.33 47.32 *L 0.0043 *D NOR2X1

*CAP
1 *419:Y 6.33128e-05
2 *413:A 6.33128e-05
3 *411:A 6.33128e-05
4 *409:A 6.33128e-05
5 *407:A 6.33128e-05
6 *328:5 0.000223976
7 *328:6 0.000376554
8 *328:7 0.000225083
9 *328:8 0.000225083
10 *328:9 0.000128065
11 *328:10 6.50848e-05
12 *328:11 0.000125444
13 *328:12 0.000195107
14 *328:13 0.000165979
15 *328:14 7.59753e-05
16 *328:15 0.000735979
17 *328:16 0.0007022
18 *328:17 0.000519718
19 *328:18 0.000519718
20 *328:19 0.000120608
21 *328:20 0.000120608
22 *328:21 0.000120608
23 *328:22 0.000710247
24 *328:23 0.00064926
25 *328:24 0.000120608
26 *328:25 0.00241936
27 *328:26 0.00231555
28 *328:27 0.000198946
29 *328:28 0.000153797
30 *328:29 0.000195181
31 *328:30 0.000120608
32 *328:31 0.000120608
33 *328:32 3.85783e-05

*RES
1 *328:13 *413:A 6.4000001
2 *328:5 *409:A 6.4000001
3 *328:13 *328:6 0.77998
4 *328:6 *328:5 0.936035
5 *328:30 *328:6 3.2
6 *328:31 *328:30 3.2
7 *328:32 *328:31 3.2
8 *328:28 *328:32 0.0918945
9 *328:29 *328:28 1.27002
10 *328:10 *419:Y 6.4000001
11 *328:27 *328:29 0.229102
12 *328:10 *328:9 0.155957
13 *328:26 *328:27 0.080957
14 *328:24 *328:9 3.2
15 *328:25 *328:26 3.29893
16 *328:11 *328:24 3.2
17 *328:14 *328:25 1.27002
18 *328:12 *328:11 0.467969
19 *328:15 *328:14 0.183887
20 *328:15 *328:12 3.2
21 *328:16 *328:15 3.86104
22 *328:17 *328:16 0.155957
23 *328:18 *328:17 3.12559
24 *328:18 *328:23 0.155957
25 *328:22 *328:23 4.04482
26 *328:20 *411:A 6.4000001
27 *328:21 *328:22 3.2
28 *328:7 *328:20 3.2
29 *328:7 *328:21 3.2
30 *328:8 *328:7 0.919238
31 *328:19 *328:8 3.2
32 *407:A *328:19 6.4000001
*END

*D_NET *329 0.00290967

*CONN
*I *409:Y O *C 111.87 93.24 *L 0 *D NOR2X1
*I *386:K I *C 113.85 107.8 *L 0.00249 *D JKFFRXL

*CAP
1 *409:Y 0.000139842
2 *386:K 0.000139842
3 *329:2 0.000450102852
4 *329:3 0.000450102852
5 *329:4 0.000168908
6 *329:5 0.000142102
7 *329:6 0.000427122
8 *329:7 0.000168908
9 *329:8 0.000372239
10 *329:7 *17:164 1.506e-05
11 *329:4 *17:162 1.506e-05
12 *329:8 *17:165 0.00010424
13 *329:6 *17:100 0.00010424
14 *329:2 *17:165 3.47e-05
15 *329:3 *17:100 3.47e-05
16 *329:2 *17:100 7.125e-05
17 *329:3 *17:101 7.12499989e-05

*RES
1 *329:5 *386:K 3.20000005
2 *329:5 *329:8 0.183838
3 *329:6 *329:8 2.02798
4 *329:7 *329:6 3.20000005
5 *329:4 *329:7 0.735449
6 *329:2 *329:4 3.20000005
7 *329:3 *329:2 2.02798
8 *409:Y *329:3 3.20000005
*END

*D_NET *330 0.0135028

*CONN
*I *418:Y O *C 107.91 58.52 *L 0 *D NAND2X1
*I *412:A I *C 84.15 93.8 *L 0.0043 *D NOR2X1
*I *410:A I *C 107.25 87.64 *L 0.0043 *D NOR2X1
*I *408:A I *C 72.93 63.56 *L 0.0043 *D NOR2X1
*I *406:A I *C 72.93 73.64 *L 0.0043 *D NOR2X1

*CAP
1 *418:Y 6.32905e-05
2 *412:A 6.32905e-05
3 *410:A 6.32905e-05
4 *408:A 6.32905e-05
5 *406:A 6.32905e-05
6 *330:5 0.000776478
7 *330:6 0.000639313
8 *330:7 0.000106172
9 *330:8 0.000216332
10 *330:9 0.000121004
11 *330:10 0.000399226
12 *330:11 0.000439498
13 *330:12 0.000204324
14 *330:13 0.000273998
15 *330:14 0.000128052
16 *330:15 6.50704e-05
17 *330:16 0.000217661
18 *330:17 0.000263319
19 *330:18 0.000263319
20 *330:19 0.00155521
21 *330:20 0.00151641
22 *330:21 5.21844e-05
23 *330:22 0.000163554
24 *330:23 0.000108664
25 *330:24 0.000496927
26 *330:25 0.000496927
27 *330:26 0.000538076
28 *330:27 0.000483187
29 *330:28 0.000288901
30 *330:29 0.000288901
31 *330:30 6.57111e-05
32 *330:31 6.57111e-05
33 *330:32 5.09267e-05
34 *330:33 8.20617e-05
35 *330:34 0.000776905
36 *330:35 0.000722015
37 *330:36 0.000151736
38 *330:26 *255:8 4.961e-05
39 *330:27 *255:9 4.961e-05
40 *330:28 *255:8 4.537e-05
41 *330:29 *255:9 4.537e-05
42 *330:19 *255:6 3.594e-05
43 *330:20 *255:7 3.5939997e-05
44 *330:21 *44:25 1.263e-05
45 *330:19 *44:24 1.263e-05
46 *330:19 *44:20 0.00027501
47 *330:20 *44:21 0.00027501
48 *330:19 *44:25 2.487e-05
49 *330:20 *44:24 2.487e-05
50 *330:22 *44:4 8.82e-06
51 *330:23 *44:5 8.82e-06
52 *330:17 *44:5 8.3e-06
53 *330:18 *44:6 8.3e-06
54 *330:17 *44:6 2.553e-05
55 *330:18 *44:7 2.55299778e-05
56 *330:8 *177:6 1.437e-05
57 *330:9 *177:5 1.437e-05
58 *330:17 *177:6 4.21e-05
59 *330:18 *177:5 4.21e-05
60 *330:10 *177:6 4.171e-05
61 *330:11 *177:5 4.17100011e-05

*RES
1 *330:15 *418:Y 6.40001
2 *330:15 *330:14 0.155985
3 *330:36 *330:14 3.2
4 *330:33 *330:36 0.367745
5 *330:32 *412:A 6.40001
6 *330:34 *330:33 3.2
7 *330:24 *330:32 6.40001
8 *330:34 *330:35 3.11997
9 *330:25 *330:24 2.39015
10 *330:29 *330:35 0.183807
11 *330:22 *330:25 3.2
12 *330:12 *410:A 6.40001
13 *330:29 *330:28 1.55998
14 *330:23 *330:22 0.467955
15 *330:13 *330:12 0.780057
16 *330:28 *330:27 0.183807
17 *330:17 *330:23 0.183807
18 *330:21 *330:13 3.2
19 *330:27 *330:26 2.49603
20 *330:18 *330:17 1.55998
21 *330:19 *330:21 0.183807
22 *330:19 *330:26 3.2
23 *330:18 *330:7 0.183807
24 *330:20 *330:19 8.6412859
25 *330:8 *330:7 0.467955
26 *330:8 *330:20 3.2
27 *330:9 *330:8 0.467955
28 *330:10 *330:9 0.183807
29 *330:11 *330:10 1.87195
30 *330:31 *406:A 6.40001
31 *330:16 *330:11 0.367745
32 *330:31 *330:5 0.183807
33 *330:5 *330:16 0.780057
34 *330:6 *330:5 2.808
35 *330:30 *330:6 0.183807
36 *408:A *330:30 6.40001
*END

*D_NET *331 0.00358619

*CONN
*I *408:Y O *C 73.59 63 *L 0 *D NOR2X1
*I *389:K I *C 51.81 63.56 *L 0.00249 *D JKFFRXL

*CAP
1 *408:Y 4.12013e-05
2 *389:K 0.000139833
3 *331:2 0.00102862
4 *331:3 0.00101981
5 *331:4 0.000140602
6 *331:5 0.000140602
7 *331:6 0.000110514
8 *331:7 0.000153081
9 *331:8 0.00012059
10 *331:9 0.000171382
11 *331:2 *335:4 9.465e-05
12 *331:3 *335:5 9.465e-05
13 *331:2 *335:9 3.67e-05
14 *331:3 *335:7 3.67e-05
15 *331:2 *335:10 0.00012863
16 *331:3 *335:8 0.000128630005

*RES
1 *408:Y *331:7 0.223807
2 *331:8 *331:7 3.19999
3 *331:9 *331:8 3.19999
4 *331:6 *331:9 0.367714
5 *331:6 *331:2 0.156027
6 *331:3 *331:2 5.88342857
7 *331:5 *331:3 3.19999
8 *331:4 *331:5 0.311965
9 *389:K *331:4 3.19999
*END

*D_NET *332 0.00294957

*CONN
*I *407:Y O *C 66.99 47.88 *L 0 *D NOR2X1
*I *391:K I *C 49.83 47.32 *L 0.00249 *D JKFFRXL

*CAP
1 *407:Y 0.000139847
2 *391:K 0.000139847
3 *332:2 0.00080762
4 *332:3 0.00069645
5 *332:4 0.000154463
6 *332:5 0.000154463
7 *332:6 0.000286755
8 *332:7 0.000120598
9 *332:8 0.000175573
10 *332:2 *346:2 0.00013698
11 *332:3 *346:3 0.000136979999

*RES
1 *332:7 *407:Y 3.19998
2 *332:8 *332:7 3.19998
3 *332:6 *332:8 0.735451
4 *332:2 *332:6 0.623985
5 *332:5 *391:K 3.19998
6 *332:3 *332:2 4.04485703
7 *332:4 *332:5 0.311993
8 *332:4 *332:3 3.19998
*END

*D_NET *333 0.00206595

*CONN
*I *406:Y O *C 73.59 73.08 *L 0 *D NOR2X1
*I *390:K I *C 65.01 77.56 *L 0.00249 *D JKFFRXL

*CAP
1 *406:Y 4.27943e-05
2 *390:K 0.000139839
3 *333:2 0.000232849
4 *333:3 0.000232849
5 *333:4 0.000483595
6 *333:5 0.000154672
7 *333:6 0.000113043
8 *333:7 0.000113043
9 *333:8 0.00055327

*RES
1 *406:Y *333:5 0.223828
2 *333:6 *333:5 3.20000005
3 *333:6 *333:7 0.312012
4 *333:8 *333:7 3.20000005
5 *333:2 *390:K 3.20000005
6 *333:4 *333:8 2.57402
7 *333:3 *333:2 0.624023
8 *333:3 *333:4 3.20000005
*END

*D_NET *334 0.00690389

*CONN
*I *434:Y O *C 84.15 52.36 *L 0 *D NAND2X1
*I *408:B I *C 72.27 63 *L 0.00385 *D NOR2X1
*I *407:B I *C 65.67 47.88 *L 0.00385 *D NOR2X1
*I *404:B I *C 68.31 63 *L 0.00274 *D NOR2XL
*I *398:B I *C 77.55 47.88 *L 0.00274 *D NOR2XL

*CAP
1 *434:Y 0.000139837
2 *408:B 0.000139837
3 *407:B 0.000139837
4 *404:B 5.56475e-05
5 *398:B 0.000139837
6 *334:5 0.000469508
7 *334:6 0.00056357
8 *334:7 0.00013036
9 *334:8 0.000121726
10 *334:9 0.000191408
11 *334:10 0.000410378
12 *334:11 0.000475975
13 *334:12 0.000210422
14 *334:13 0.00014074
15 *334:14 6.99228e-05
16 *334:15 0.000316583
17 *334:16 0.000329929
18 *334:17 0.000323807
19 *334:18 0.000323807
20 *334:19 8.78098e-05
21 *334:20 0.000181416
22 *334:21 0.000172601
23 *334:22 0.000363106
24 *334:23 9.0983e-05
25 *334:24 0.000142099
26 *334:25 0.000302239
27 *334:26 7.03011e-05
28 *334:27 0.0001206
29 *334:28 0.000131169
30 *334:17 *121:6 7.402e-05
31 *334:18 *121:7 7.402e-05
32 *334:10 *121:6 4.896e-05
33 *334:11 *121:7 4.896e-05
34 *334:11 *121:6 2.489e-05
35 *334:19 *121:7 2.489e-05
36 *334:20 *121:6 7.045e-05
37 *334:21 *121:7 7.045e-05
38 *334:12 *121:5 1.437e-05
39 *334:13 *121:3 1.437e-05
40 *334:6 *121:9 4.151e-05
41 *334:7 *121:8 4.15100118e-05

*RES
1 *334:8 *434:Y 3.20000005
2 *334:27 *408:B 3.20000005
3 *334:13 *398:B 3.20000005
4 *334:9 *334:8 0.468018
5 *334:28 *334:27 3.20000005
6 *334:13 *334:12 0.77998
7 *334:10 *334:9 3.20000005
8 *334:26 *334:28 0.183838
9 *334:23 *404:B 0.223828
10 *334:11 *334:12 3.20000005
11 *334:11 *334:10 2.02241
12 *334:25 *334:26 0.156006
13 *334:24 *334:23 3.20000005
14 *334:19 *334:11 0.367725
15 *334:22 *334:25 1.28701
16 *334:14 *334:24 0.183838
17 *334:19 *334:17 0.156006
18 *334:15 *334:22 3.20000005
19 *334:15 *334:14 0.156006
20 *334:18 *334:17 1.83857
21 *334:16 *334:15 1.248
22 *334:20 *334:18 0.156006
23 *334:5 *334:16 0.367725
24 *334:21 *334:20 1.10312
25 *334:6 *334:5 2.02798
26 *334:6 *334:21 3.20000005
27 *334:7 *334:6 0.77998
28 *407:B *334:7 3.20000005
*END

*D_NET *335 0.00596715

*CONN
*I *404:Y O *C 69.63 63 *L 0 *D NOR2XL
*I *382:K I *C 37.95 73.64 *L 0.00249 *D JKFFRXL

*CAP
1 *404:Y 8.29051e-05
2 *382:K 0.000139849
3 *335:2 0.000570281
4 *335:3 0.00062517
5 *335:4 0.000357378
6 *335:5 0.000296516
7 *335:6 0.000142094
8 *335:7 0.000882893
9 *335:8 0.000571505
10 *335:9 0.00089171
11 *335:10 0.000571505
12 *335:11 0.000194779
13 *335:12 0.000120609
14 *335:4 *331:2 9.465e-05
15 *335:5 *331:3 9.465e-05
16 *335:9 *331:2 3.67e-05
17 *335:7 *331:3 3.67e-05
18 *335:10 *331:2 0.00012863
19 *335:8 *331:3 0.000128630005

*RES
1 *404:Y *335:11 0.447675
2 *335:12 *335:11 3.19999
3 *335:4 *335:12 3.19999
4 *335:5 *335:4 1.47085
5 *335:10 *335:5 0.156022
6 *335:8 *335:10 3.30943
7 *335:8 *335:9 0.156022
8 *335:7 *335:9 4.22871447
9 *335:3 *335:7 3.19999
10 *335:3 *335:2 2.808
11 *335:6 *335:2 0.183832
12 *382:K *335:6 3.19999
*END

*D_NET *336 0.00918735

*CONN
*I *435:Y O *C 114.51 62.44 *L 0 *D NAND2X1
*I *412:B I *C 83.49 93.24 *L 0.00385 *D NOR2X1
*I *409:B I *C 110.55 93.24 *L 0.00385 *D NOR2X1
*I *403:B I *C 112.53 83.16 *L 0.00274 *D NOR2XL
*I *400:B I *C 86.79 93.24 *L 0.00274 *D NOR2XL

*CAP
1 *435:Y 0.000139828
2 *412:B 4.22591e-05
3 *409:B 7.96944e-05
4 *403:B 0.00015942
5 *400:B 6.69714e-05
6 *336:5 0.000102299
7 *336:6 7.75713e-05
8 *336:7 0.00062516
9 *336:8 0.00062516
10 *336:9 0.000787047
11 *336:10 0.000778242
12 *336:11 9.73037e-05
13 *336:12 0.000106124
14 *336:13 0.000350765
15 *336:14 0.000350765
16 *336:15 0.000192672
17 *336:16 0.00011766
18 *336:17 7.39808e-05
19 *336:18 0.000121032
20 *336:19 0.000137486
21 *336:20 6.78144e-05
22 *336:21 0.00102307
23 *336:22 0.00102307
24 *336:23 0.000141873
25 *336:24 0.000211545
26 *336:25 0.000105983
27 *336:26 0.000182353
28 *336:27 0.000115038
29 *336:28 0.000194748
30 *336:29 6.18198e-05
31 *336:30 0.000213622
32 *336:31 0.000213622
33 *336:21 *338:17 0.00027003
34 *336:22 *338:16 0.00027003
35 *336:23 *338:9 1.183e-05
36 *336:24 *338:10 1.183e-05
37 *336:13 *338:8 1.364e-05
38 *336:14 *338:20 1.364e-05
39 *336:17 *338:8 5.17e-06
40 *336:18 *338:20 5.1700074e-06

*RES
1 *336:20 *435:Y 3.2
2 *336:20 *336:19 0.155957
3 *336:31 *336:19 3.2
4 *336:30 *336:31 0.551562
5 *336:22 *336:30 3.2
6 *336:22 *336:21 5.304
7 *336:28 *403:B 0.895312
8 *336:23 *336:21 3.2
9 *336:29 *336:28 6.4000001
10 *336:24 *336:23 0.919238
11 *336:29 *336:18 0.155957
12 *336:18 *336:24 3.2
13 *336:18 *336:17 0.467969
14 *336:14 *336:17 0.0918945
15 *336:14 *336:13 1.71602
16 *336:27 *409:B 0.447656
17 *336:16 *336:13 0.0918945
18 *336:15 *336:27 3.2
19 *336:16 *336:15 0.467969
20 *336:11 *336:15 3.2
21 *336:12 *336:11 0.551562
22 *336:7 *336:12 0.155957
23 *336:8 *336:7 2.75781
24 *336:8 *336:9 0.155957
25 *336:5 *400:B 0.447656
26 *336:10 *336:9 3.30947
27 *336:26 *336:5 3.2
28 *336:26 *336:10 3.2
29 *336:25 *336:26 0.367676
30 *336:6 *336:25 6.4000001
31 *412:B *336:6 0.223828
*END

*D_NET *337 0.00289493

*CONN
*I *403:Y O *C 113.85 83.16 *L 0 *D NOR2XL
*I *380:K I *C 128.37 83.72 *L 0.00249 *D JKFFRXL

*CAP
1 *403:Y 0.000139838
2 *380:K 0.000139838
3 *337:2 0.000154528
4 *337:3 0.000163341
5 *337:4 0.000120599
6 *337:5 0.00058101
7 *337:6 0.000520138
8 *337:7 0.000194016
9 *337:8 0.000124341
10 *337:6 *199:5 0.00012487
11 *337:5 *199:6 0.00012487
12 *337:2 *199:5 7.53e-06
13 *337:3 *199:6 7.5300018e-06
14 *337:6 *82:20 0.00012393
15 *337:5 *82:21 0.000123929996
16 *337:6 *137:10 0.00012231
17 *337:5 *137:11 0.000122310003

*RES
1 *337:8 *380:K 3.20000005
2 *337:7 *337:8 0.468018
3 *337:2 *337:7 3.20000005
4 *337:3 *337:2 0.919287
5 *337:3 *337:6 0.156006
6 *337:5 *337:6 3.12559
7 *337:4 *337:5 3.20000005
8 *403:Y *337:4 3.20000005
*END

*D_NET *338 0.00685269

*CONN
*I *436:Y O *C 112.53 58.52 *L 0 *D NAND2X1
*I *413:B I *C 110.55 88.2 *L 0.00385 *D NOR2X1
*I *410:B I *C 106.59 88.2 *L 0.00385 *D NOR2X1
*I *402:B I *C 106.59 93.24 *L 0.00274 *D NOR2XL
*I *399:B I *C 112.53 88.2 *L 0.00274 *D NOR2XL

*CAP
1 *436:Y 5.56377e-05
2 *413:B 7.45914e-05
3 *410:B 7.45914e-05
4 *402:B 6.33054e-05
5 *399:B 0.000139844
6 *338:5 0.000298934
7 *338:6 0.000368615
8 *338:7 9.56473e-05
9 *338:8 0.000227358
10 *338:9 5.7671e-05
11 *338:10 5.7671e-05
12 *338:11 0.000348748
13 *338:12 0.000419618
14 *338:13 9.09778e-05
15 *338:14 0.000120597
16 *338:15 0.000120597
17 *338:16 0.00105953
18 *338:17 0.00112921
19 *338:18 0.000197463
20 *338:19 0.000142101
21 *338:20 0.000229581
22 *338:17 *336:21 0.00027003
23 *338:16 *336:22 0.00027003
24 *338:9 *336:23 1.183e-05
25 *338:10 *336:24 1.183e-05
26 *338:8 *336:13 1.364e-05
27 *338:20 *336:14 1.364e-05
28 *338:8 *336:17 5.17e-06
29 *338:20 *336:18 5.1700074e-06
30 *338:17 *344:12 0.0003421
31 *338:16 *344:13 0.0003421
32 *338:8 *344:15 9.743e-05
33 *338:20 *344:16 9.74300306e-05

*RES
1 *338:13 *436:Y 0.223867
2 *338:14 *338:13 6.39995
3 *338:15 *338:14 3.20003
4 *338:16 *338:15 3.20003
5 *338:16 *338:17 7.33199978
6 *338:10 *338:17 3.20003
7 *338:10 *338:9 0.183815
8 *338:20 *338:9 3.20003
9 *338:8 *399:B 3.20003
10 *338:20 *338:8 0.935967
11 *338:8 *338:7 0.312026
12 *338:19 *338:7 0.183815
13 *338:5 *402:B 6.39995
14 *338:18 *338:19 3.20003
15 *338:6 *338:5 1.09204
16 *413:B *338:12 0.379824
17 *338:12 *338:18 0.447622
18 *338:11 *338:6 3.20003
19 *338:11 *338:12 1.34298
20 *410:B *338:11 0.379824
*END

*D_NET *339 0.00392711

*CONN
*I *402:Y O *C 107.91 93.24 *L 0 *D NOR2XL
*I *376:K I *C 96.03 107.8 *L 0.00249 *D JKFFRXL

*CAP
1 *402:Y 0.000126263
2 *376:K 0.000139839
3 *339:2 0.000349891
4 *339:3 0.00040477
5 *339:4 0.00061913
6 *339:5 0.000549447
7 *339:6 0.000293745
8 *339:7 0.000293745
9 *339:8 0.000113661
10 *339:9 0.000122362
11 *339:10 0.000142097
12 *339:11 0.00010375
13 *339:12 0.000112451
14 *339:13 0.000238129
15 *339:8 *96:5 3.678e-05
16 *339:9 *96:6 3.678e-05
17 *339:12 *96:14 5.327e-05
18 *339:11 *96:15 5.327e-05
19 *339:6 *96:14 6.886e-05
20 *339:7 *96:15 6.88600062e-05

*RES
1 *339:13 *402:Y 0.671484
2 *339:5 *339:13 3.20000005
3 *339:5 *339:4 2.652
4 *339:8 *339:4 3.20000005
5 *339:9 *339:8 0.551562
6 *339:6 *339:9 0.156006
7 *339:7 *339:6 1.47085
8 *339:7 *339:12 0.156006
9 *339:11 *339:12 0.551562
10 *339:3 *339:11 3.20000005
11 *339:3 *339:2 1.56001
12 *339:10 *339:2 0.183838
13 *376:K *339:10 3.20000005
*END

*D_NET *340 0.00725895

*CONN
*I *437:Y O *C 84.81 48.44 *L 0 *D NAND2X1
*I *411:B I *C 68.97 47.88 *L 0.00385 *D NOR2X1
*I *406:B I *C 72.27 73.08 *L 0.00385 *D NOR2X1
*I *401:B I *C 74.91 47.88 *L 0.00274 *D NOR2XL
*I *397:B I *C 68.97 68.04 *L 0.00274 *D NOR2XL

*CAP
1 *437:Y 8.34265e-05
2 *411:B 0.000139842
3 *406:B 0.000139842
4 *401:B 0.000139842
5 *397:B 7.45915e-05
6 *340:5 0.000341448
7 *340:6 0.000326976
8 *340:7 0.000706686
9 *340:8 0.00074695
10 *340:9 0.00075391
11 *340:10 0.000361591
12 *340:11 0.0004754
13 *340:12 0.000123656
14 *340:13 0.000282974
15 *340:14 6.99209e-05
16 *340:15 6.99209e-05
17 *340:16 0.000211569
18 *340:17 0.000211569
19 *340:18 7.47525e-05
20 *340:19 0.000243722
21 *340:20 0.000320626
22 *340:21 0.00027407
23 *340:22 5.51153e-05
24 *340:23 0.000124795
25 *340:24 0.000195302
26 *340:25 0.000120596
27 *340:11 *121:6 9.911e-05
28 *340:9 *121:7 9.911e-05
29 *340:9 *121:6 0.00011252
30 *340:10 *121:7 0.000112519996
31 *340:7 *310:2 8.329e-05
32 *340:8 *310:3 8.32900032e-05

*RES
1 *397:B *340:13 0.379785
2 *340:13 *340:19 1.11914
3 *340:21 *406:B 3.2
4 *340:20 *340:19 6.4000001
5 *340:20 *340:21 1.09199
6 *340:18 *340:20 0.155957
7 *340:17 *340:18 0.183887
8 *340:16 *340:17 0.936035
9 *340:15 *340:16 0.183887
10 *340:24 *437:Y 0.447656
11 *340:14 *340:15 0.155957
12 *340:22 *401:B 3.2
13 *340:25 *340:24 3.2
14 *340:7 *340:14 0.183887
15 *340:22 *340:23 0.155957
16 *340:11 *340:25 3.2
17 *340:8 *340:7 3.27598
18 *340:9 *340:23 3.2
19 *340:9 *340:11 2.39014
20 *340:5 *340:8 0.367676
21 *340:10 *340:9 1.65469
22 *340:6 *340:5 1.24805
23 *340:6 *340:10 3.2
24 *340:12 *340:6 0.155957
25 *411:B *340:12 3.2
*END

*D_NET *341 0.00228143

*CONN
*I *401:Y O *C 76.23 47.88 *L 0 *D NOR2XL
*I *375:K I *C 65.67 43.4 *L 0.00249 *D JKFFRXL

*CAP
1 *401:Y 4.12036e-05
2 *375:K 0.000139845
3 *341:2 0.000207451
4 *341:3 0.000207451
5 *341:4 0.00064323
6 *341:5 0.00064323
7 *341:6 8.81294e-05
8 *341:7 0.000157816
9 *341:8 0.000153076

*RES
1 *401:Y *341:8 0.223828
2 *341:6 *341:8 3.20000005
3 *341:7 *341:6 0.312012
4 *341:4 *341:7 3.20000005
5 *341:5 *341:4 3.12559
6 *341:2 *341:5 3.20000005
7 *341:3 *341:2 0.624023
8 *375:K *341:3 3.20000005
*END

*D_NET *342 0.0159173

*CONN
*I *416:Y O *C 109.89 58.52 *L 0 *D NAND2X1
*I *404:A I *C 68.97 63.56 *L 0.00317 *D NOR2XL
*I *402:A I *C 107.25 93.8 *L 0.00317 *D NOR2XL
*I *400:A I *C 87.45 93.8 *L 0.00317 *D NOR2XL
*I *397:A I *C 69.63 67.48 *L 0.00317 *D NOR2XL

*CAP
1 *416:Y 5.56533e-05
2 *404:A 6.3294e-05
3 *402:A 6.3294e-05
4 *400:A 6.3294e-05
5 *397:A 6.3294e-05
6 *342:5 0.00091739
7 *342:6 0.000948749
8 *342:7 0.000125893
9 *342:8 0.000111086
10 *342:9 0.000394012
11 *342:10 0.000324331
12 *342:11 0.000190509
13 *342:12 7.21206e-05
14 *342:13 0.000799307
15 *342:14 0.000799307
16 *342:15 0.000444667
17 *342:16 0.000341848
18 *342:17 0.000579065
19 *342:18 0.000690694
20 *342:19 0.000645985
21 *342:20 0.000637175
22 *342:21 0.00111027039
23 *342:22 0.00111027039
24 *342:23 0.000793716
25 *342:24 0.000791632
26 *342:25 0.000154847
27 *342:26 0.000802797
28 *342:27 0.000221309
29 *342:28 0.000811606
30 *342:29 4.96051e-05
31 *342:30 0.000119286
32 *342:31 0.000212499
33 *342:32 9.09766e-05
34 *342:28 *327:4 6.338e-05
35 *342:26 *327:5 6.338e-05
36 *342:31 *327:4 7.111e-05
37 *342:27 *327:5 7.111e-05
38 *342:30 *327:6 2.089e-05
39 *342:29 *327:7 2.08899978e-05
40 *342:28 *124:5 0.00037666
41 *342:26 *124:6 0.000376660002
42 *342:17 *288:6 0.00012672
43 *342:18 *288:4 0.000126720001

*RES
1 *342:29 *402:A 6.4000001
2 *342:29 *342:30 0.155957
3 *342:31 *342:30 3.2
4 *342:32 *416:Y 0.223828
5 *342:27 *342:31 1.10312
6 *342:10 *342:32 6.4000001
7 *342:27 *342:28 0.155957
8 *342:10 *342:9 1.404
9 *342:26 *342:28 4.4126
10 *342:17 *342:9 3.2
11 *342:25 *342:26 3.2
12 *342:18 *342:17 2.75781
13 *342:23 *400:A 6.4000001
14 *342:23 *342:25 0.312012
15 *342:18 *342:15 0.624023
16 *342:24 *342:23 3.58799
17 *342:16 *342:15 1.65469
18 *342:21 *342:24 3.2
19 *342:13 *342:16 0.155957
20 *342:22 *342:21 4.96416
21 *342:14 *342:13 3.49326
22 *342:5 *342:22 3.2
23 *342:14 *342:19 0.155957
24 *342:6 *397:A 6.4000001
25 *342:6 *342:5 3.74404
26 *342:20 *342:19 3.12559
27 *342:11 *342:6 0.467969
28 *342:11 *342:20 3.2
29 *342:12 *342:11 0.155957
30 *342:7 *342:12 0.183887
31 *342:8 *342:7 0.467969
32 *404:A *342:8 6.4000001
*END

*D_NET *343 0.0025155

*CONN
*I *400:Y O *C 88.11 93.24 *L 0 *D NOR2XL
*I *373:K I *C 77.55 97.72 *L 0.00249 *D JKFFRXL

*CAP
1 *400:Y 8.34274e-05
2 *373:K 0.000139839
3 *343:2 0.000142099
4 *343:3 0.000195756
5 *343:4 0.000195756
6 *343:5 0.00059976
7 *343:6 0.000283915
8 *343:7 0.000229023
9 *343:8 0.000525182
10 *343:9 0.00012073

*RES
1 *343:9 *400:Y 0.447656
2 *343:8 *343:9 0.189893
3 *343:5 *343:8 2.68594
4 *343:6 *343:5 3.20000005
5 *343:6 *343:7 0.77998
6 *343:3 *343:7 0.183838
7 *343:3 *343:4 0.77998
8 *343:2 *343:4 0.183838
9 *373:K *343:2 3.20000005
*END

*D_NET *344 0.0106585

*CONN
*I *417:Y O *C 109.89 52.36 *L 0 *D NAND2X1
*I *403:A I *C 113.19 83.72 *L 0.00317 *D NOR2XL
*I *401:A I *C 75.57 47.32 *L 0.00317 *D NOR2XL
*I *399:A I *C 113.19 87.64 *L 0.00317 *D NOR2XL
*I *398:A I *C 78.21 47.32 *L 0.00317 *D NOR2XL

*CAP
1 *417:Y 0.000139829
2 *403:A 6.32979e-05
3 *401:A 6.32979e-05
4 *399:A 6.32979e-05
5 *398:A 6.32979e-05
6 *344:5 0.000109947
7 *344:6 0.000315558
8 *344:7 0.000186884
9 *344:8 0.000199353
10 *344:9 0.000199353
11 *344:10 0.00044342
12 *344:11 0.00044342
13 *344:12 0.00156537
14 *344:13 0.00153938
15 *344:14 5.71115e-05
16 *344:15 0.000170045
17 *344:16 0.000247746
18 *344:17 0.000160777
19 *344:18 0.000744503
20 *344:19 0.000735833
21 *344:20 0.000748635
22 *344:21 0.000748635
23 *344:22 0.000174463
24 *344:23 0.000113506
25 *344:24 0.0001206
26 *344:25 0.0001206
27 *344:26 0.0001206
28 *344:27 0.0001206
29 *344:12 *338:17 0.0003421
30 *344:13 *338:16 0.0003421
31 *344:15 *338:8 9.743e-05
32 *344:16 *338:20 9.74300306e-05

*RES
1 *344:15 *399:A 6.40003
2 *344:16 *403:A 6.40003
3 *344:16 *344:15 1.09198
4 *344:17 *344:16 0.311995
5 *344:8 *344:17 3.19995
6 *344:9 *344:8 0.735435
7 *344:26 *417:Y 3.19995
8 *344:12 *344:9 3.19995
9 *344:27 *344:26 3.19995
10 *344:13 *344:12 7.95599985
11 *344:13 *344:27 3.19995
12 *344:14 *344:13 0.155998
13 *344:22 *344:14 3.19995
14 *344:23 *344:22 0.367717
15 *344:23 *344:20 0.155998
16 *344:21 *344:20 3.86097
17 *344:18 *344:21 0.155998
18 *344:19 *344:18 4.41261
19 *344:10 *344:19 3.19995
20 *344:11 *344:10 1.71597
21 *344:25 *398:A 6.40003
22 *344:5 *344:11 3.19995
23 *344:6 *344:25 3.19995
24 *344:6 *344:5 0.367717
25 *344:7 *344:6 0.735435
26 *344:24 *344:7 3.19995
27 *401:A *344:24 6.40003
*END

*D_NET *345 0.00112408

*CONN
*I *399:Y O *C 113.85 88.2 *L 0 *D NOR2XL
*I *381:K I *C 113.85 93.8 *L 0.00249 *D JKFFRXL

*CAP
1 *399:Y 0.000139842
2 *381:K 0.000139842
3 *345:2 0.00045704
4 *345:3 0.000387363

*RES
1 *345:3 *381:K 3.20000005
2 *345:2 *345:3 1.404
3 *399:Y *345:2 3.20000005
*END

*D_NET *346 0.00511491

*CONN
*I *398:Y O *C 78.87 47.88 *L 0 *D NOR2XL
*I *374:K I *C 51.81 37.24 *L 0.00249 *D JKFFRXL

*CAP
1 *398:Y 0.000139836
2 *374:K 0.000139836
3 *346:2 0.0005624
4 *346:3 0.0005537
5 *346:4 0.000441345
6 *346:5 0.000511033
7 *346:6 0.000683926
8 *346:7 0.00071808
9 *346:8 0.000104345
10 *346:9 0.000253703
11 *346:10 6.14918e-05
12 *346:11 0.000253703
13 *346:2 *332:2 0.00013698
14 *346:3 *332:3 0.000136979999
15 *346:2 *61:6 0.00020878
16 *346:3 *61:3 0.000208780005

*RES
1 *346:11 *398:Y 3.19998
2 *346:9 *346:11 0.780013
3 *346:10 *346:9 3.19998
4 *346:8 *346:10 0.183863
5 *346:7 *346:8 0.311993
6 *346:6 *346:7 3.30941
7 *346:6 *346:2 0.156027
8 *346:3 *346:2 4.04485703
9 *346:5 *346:3 3.19998
10 *346:4 *346:5 2.02798
11 *374:K *346:4 3.19998
*END

*D_NET *347 0.00305321

*CONN
*I *397:Y O *C 70.29 68.04 *L 0 *D NOR2XL
*I *379:K I *C 52.47 67.48 *L 0.00249 *D JKFFRXL

*CAP
1 *397:Y 0.000139841
2 *379:K 0.000139841
3 *347:2 0.000154468
4 *347:3 9.95804e-05
5 *347:4 0.00096825
6 *347:5 0.000898573
7 *347:6 0.000142102
8 *347:7 0.000120605
9 *347:4 *156:4 0.00019499
10 *347:5 *156:5 0.000194989997

*RES
1 *347:7 *397:Y 3.20001
2 *347:4 *347:7 3.20001
3 *347:5 *347:4 4.78028584
4 *347:2 *347:5 3.20001
5 *347:3 *347:2 0.31197
6 *347:6 *347:3 0.183885
7 *379:K *347:6 3.20001
*END

*D_NET *348 0.0030456

*CONN
*I *396:Y O *C 102.63 33.88 *L 0 *D MXI2X1
*I *378:D I *C 86.13 28.28 *L 0.00206 *D DFFRX1

*CAP
1 *396:Y 0.000139836
2 *378:D 6.32963e-05
3 *348:2 5.51244e-05
4 *348:3 0.000124803
5 *348:4 0.00059242
6 *348:5 0.000283622
7 *348:6 0.00059242
8 *348:7 0.000213935
9 *348:6 *78:24 5.895e-05
10 *348:4 *78:25 5.895e-05
11 *348:6 *78:25 0.00011604
12 *348:4 *78:26 0.000116039998
13 *348:6 *17:111 1.263e-05
14 *348:4 *17:112 1.263e-05
15 *348:6 *17:112 0.00030245
16 *348:4 *17:113 0.000302449996

*RES
1 *348:7 *396:Y 3.2
2 *348:5 *348:7 0.936035
3 *348:6 *348:5 3.2
4 *348:4 *348:6 4.59639
5 *348:3 *348:4 3.2
6 *348:2 *348:3 0.155957
7 *378:D *348:2 6.4000001
*END

*D_NET *349 0.00186326

*CONN
*I *395:Y O *C 88.11 77 *L 0 *D MXI2X1
*I *377:D I *C 81.51 82.6 *L 0.00206 *D DFFRX1

*CAP
1 *395:Y 0.000139837
2 *377:D 0.000139837
3 *349:2 0.000390599297
4 *349:3 0.000390599297
5 *349:4 0.000340892
6 *349:5 0.000340892
7 *349:6 0.000120598

*RES
1 *349:6 *395:Y 3.20000005
2 *349:2 *349:6 3.20000005
3 *349:4 *377:D 3.20000005
4 *349:3 *349:2 1.83857
5 *349:5 *349:4 1.09199
6 *349:5 *349:3 3.20000005
*END

*D_NET *350 0.00973513

*CONN
*I *471:Y O *C 115.17 52.36 *L 0 *D NAND2X1
*I *447:B I *C 128.37 63 *L 0.00277 *D NAND2XL
*I *431:S0 I *C 86.13 57.96 *L 0.00612 *D MXI2XL
*I *394:B1 I *C 88.77 52.92 *L 0.00444 *D OAI2BB2X1
*I *394:A1N I *C 87.45 52.92 *L 0.00219 *D OAI2BB2X1

*CAP
1 *471:Y 0.000139847
2 *447:B 0.000139847
3 *431:S0 0.000139847
4 *394:B1 0.000139847
5 *394:A1N 7.97056e-05
6 *350:5 0.000219364
7 *350:6 0.000351061
8 *350:7 0.000605122
9 *350:8 0.000613919
10 *350:9 0.00012692
11 *350:10 7.2044e-05
12 *350:11 8.41985e-05
13 *350:12 0.000524187
14 *350:13 0.000515375
15 *350:14 0.00103313
16 *350:15 0.000963451
17 *350:16 6.78191e-05
18 *350:17 6.78191e-05
19 *350:18 0.00011784
20 *350:19 0.000179968
21 *350:20 0.000179968
22 *350:21 0.000379011
23 *350:22 0.000615354
24 *350:23 0.000356925
25 *350:24 0.000186305
26 *350:25 0.00010578
27 *350:26 0.000137956
28 *350:27 0.000146658
29 *350:28 0.000142575
30 *350:29 0.000133873
31 *350:30 0.000297288
32 *350:31 0.000297288
33 *350:32 0.000191571
34 *350:33 0.000142102
35 *350:34 0.000120599
36 *350:35 0.000120599

*RES
1 *350:17 *447:B 3.19999
2 *350:35 *471:Y 3.19999
3 *350:17 *350:16 0.156022
4 *350:19 *350:35 3.19999
5 *350:14 *350:16 3.19999
6 *350:20 *350:19 0.735457
7 *350:15 *350:14 4.22871447
8 *350:23 *350:20 3.19999
9 *350:21 *350:15 3.19999
10 *350:23 *350:22 1.404
11 *350:22 *350:21 1.24798
12 *350:26 *350:22 3.19999
13 *350:27 *350:26 0.55156
14 *350:30 *350:27 0.156022
15 *350:31 *350:30 1.28702
16 *350:31 *350:28 0.156022
17 *350:29 *350:28 0.55156
18 *350:34 *350:29 3.19999
19 *350:7 *350:34 3.19999
20 *350:8 *350:7 2.57397
21 *350:8 *350:12 0.156022
22 *350:13 *350:12 2.39014
23 *350:9 *350:13 3.19999
24 *350:33 *394:B1 3.19999
25 *350:10 *350:9 0.156022
26 *350:25 *350:33 0.183832
27 *350:11 *350:10 0.183832
28 *350:25 *350:24 0.468
29 *350:5 *431:S0 3.19999
30 *350:5 *350:11 0.311979
31 *350:6 *350:24 0.55156
32 *350:6 *350:5 0.936001
33 *350:18 *350:6 0.468
34 *350:32 *394:A1N 0.447675
35 *350:32 *350:18 3.19999
*END

*D_NET *351 0.0152242

*CONN
*I *414:Y O *C 105.93 52.36 *L 0 *D AOI22X1
*I *396:B I *C 101.31 33.32 *L 0.00389 *D MXI2X1
*I *395:B I *C 86.79 77.56 *L 0.00389 *D MXI2X1
*I *394:B0 I *C 89.43 53.48 *L 0.00464 *D OAI2BB2X1
*I *393:B I *C 123.09 67.48 *L 0.00389 *D MXI2X1

*CAP
1 *414:Y 6.33164e-05
2 *396:B 0.000139844
3 *395:B 0.000139844
4 *394:B0 0.000139844
5 *393:B 0.000139844
6 *351:5 0.000582829
7 *351:6 0.000582829
8 *351:7 0.00042692
9 *351:8 0.00042692
10 *351:9 0.000107622
11 *351:10 0.000177314
12 *351:11 0.000237178
13 *351:12 0.000167486
14 *351:13 0.000137496
15 *351:14 0.000137496
16 *351:15 0.000562598
17 *351:16 0.000562598
18 *351:17 0.00146949
19 *351:18 0.00150834
20 *351:19 0.000872022
21 *351:20 0.000894831
22 *351:21 0.00015943
23 *351:22 0.000129947
24 *351:23 0.000258444
25 *351:24 0.000258444
26 *351:25 0.000104423
27 *351:26 0.000111143
28 *351:27 0.000915246
29 *351:28 0.000915246
30 *351:29 6.48355e-05
31 *351:30 6.48355e-05
32 *351:31 0.000855428
33 *351:32 0.00121698
34 *351:33 0.000351474
35 *351:34 0.000114895
36 *351:35 0.000106218
37 *351:36 0.00012058

*RES
1 *351:36 *393:B 3.20001
2 *351:11 *351:36 3.20001
3 *351:12 *351:11 0.735458
4 *351:6 *396:B 3.20001
5 *351:25 *414:Y 6.40002
6 *351:27 *351:12 3.20001
7 *351:6 *351:5 1.716
8 *351:26 *351:25 0.31201
9 *351:28 *351:27 4.05602
10 *351:30 *351:5 3.20001
11 *351:23 *351:26 6.40002
12 *351:9 *394:B0 3.20001
13 *351:35 *351:28 3.20001
14 *351:30 *351:29 0.183812
15 *351:24 *351:23 1.287
16 *351:10 *351:9 0.624019
17 *351:34 *351:35 0.551542
18 *351:20 *351:29 3.20001
19 *351:22 *351:24 3.20001
20 *351:8 *351:10 3.20001
21 *351:31 *351:34 0.155952
22 *351:20 *351:19 3.58795
23 *351:19 *351:22 0.155952
24 *351:8 *351:7 1.83854
25 *351:32 *351:31 4.59646
26 *351:32 *351:19 3.20001
27 *351:21 *351:7 3.20001
28 *351:33 *351:32 1.65473
29 *351:21 *351:18 0.31201
30 *351:18 *351:33 3.20001
31 *351:18 *351:17 6.86399984
32 *351:15 *351:17 3.20001
33 *351:13 *395:B 3.20001
34 *351:16 *351:15 2.574
35 *351:14 *351:13 0.155952
36 *351:14 *351:16 3.20001
*END

*D_NET *352 0.00363863

*CONN
*I *394:Y O *C 90.75 53.48 *L 0 *D OAI2BB2X1
*I *383:D I *C 83.49 33.88 *L 0.00184 *D DFFRHQX1

*CAP
1 *394:Y 0.000139836
2 *383:D 6.33011e-05
3 *352:2 0.000449523
4 *352:3 0.000449523
5 *352:4 0.00101553
6 *352:5 0.000945844
7 *352:6 0.000166938
8 *352:7 0.000166938
9 *352:8 0.000120605
10 *352:9 0.000120605

*RES
1 *352:9 *394:Y 3.2
2 *352:2 *352:9 3.2
3 *352:3 *352:2 2.02246
4 *352:4 *352:3 3.2
5 *352:5 *352:4 4.52402
6 *352:8 *352:5 3.2
7 *352:7 *352:8 3.2
8 *352:6 *352:7 0.624023
9 *383:D *352:6 6.4000001
*END

*D_NET *353 0.00275525

*CONN
*I *393:Y O *C 121.77 66.92 *L 0 *D MXI2X1
*I *384:D I *C 130.35 78.68 *L 0.00206 *D DFFRX1

*CAP
1 *393:Y 0.000139839
2 *384:D 0.000139839
3 *353:2 0.00011243
4 *353:3 0.00011243
5 *353:4 0.00063338
6 *353:5 0.000607739
7 *353:6 0.000463174
8 *353:7 0.000393491
9 *353:8 0.000152935

*RES
1 *353:8 *384:D 3.20000005
2 *353:4 *353:8 0.551562
3 *353:5 *353:4 2.496
4 *353:7 *353:5 3.20000005
5 *353:6 *353:7 1.83857
6 *353:2 *353:6 3.20000005
7 *353:3 *353:2 0.312012
8 *393:Y *353:3 3.20000005
*END

*D_NET *354 0.00569585

*CONN
*I *665:Y O *C 113.19 43.96 *L 0 *D NOR2BX1
*I *437:B I *C 84.15 47.32 *L 0.00375 *D NAND2X1
*I *434:B I *C 83.49 53.48 *L 0.00375 *D NAND2X1

*CAP
1 *665:Y 0.000139845
2 *437:B 0.000139845
3 *434:B 0.000139845
4 *354:3 0.000233779
5 *354:4 0.000248578
6 *354:5 0.000483959492
7 *354:6 0.000449798
8 *354:7 0.000340031
9 *354:8 0.000340031
10 *354:9 0.000240071
11 *354:10 0.000443159
12 *354:11 0.000268849
13 *354:12 0.000126656
14 *354:13 0.000451858
15 *354:14 0.0001073
16 *354:15 0.000141462
17 *354:16 0.000420288
18 *354:17 0.000351964
19 *354:18 0.000223485
20 *354:19 0.0001206
21 *354:20 0.000284461

*RES
1 *354:19 *665:Y 3.20000005
2 *354:20 *354:19 3.20000005
3 *354:18 *354:20 1.10312
4 *354:17 *354:18 0.156006
5 *354:16 *354:17 1.47085
6 *354:16 *354:5 0.468018
7 *354:6 *354:5 1.47085
8 *354:6 *354:15 0.312012
9 *354:14 *354:15 0.367725
10 *354:14 *354:7 0.156006
11 *354:8 *354:7 1.65474
12 *354:13 *354:8 0.156006
13 *354:10 *354:13 2.2063
14 *354:9 *354:10 3.20000005
15 *354:11 *437:B 3.20000005
16 *354:9 *354:11 0.77998
17 *354:3 *434:B 3.20000005
18 *354:11 *354:12 0.624023
19 *354:4 *354:3 1.09199
20 *354:4 *354:12 0.183838
*END

