*SPEF "IEEE 1481-1998"
*DESIGN "aer_traditional_latch_paa_45nm"
*DATE "Wed Aug 26 17:12:19 2026"
*VENDOR "Cadence Design Systems, Inc."
*PROGRAM "Innovus"
*VERSION "23.14-s088_1"
*DESIGN_FLOW "COUPLING C" "PIN_CAP NONE" "NAME_SCOPE LOCAL"
*DIVIDER /
*DELIMITER :
*BUS_DELIMITER []
*T_UNIT 1 NS
*C_UNIT 1 PF
*R_UNIT 1 OHM
*L_UNIT 1 HENRY

// MMMC spef file for corner 'rc_45nm'

*NAME_MAP

*1 FE_OFN0_n_55
*2 rst_n
*3 src_req[15]
*4 src_req[14]
*5 src_req[13]
*6 src_req[12]
*7 src_req[11]
*8 src_req[10]
*9 src_req[9]
*10 src_req[8]
*11 src_req[7]
*12 src_req[6]
*13 src_req[5]
*14 src_req[4]
*15 src_req[3]
*16 src_req[2]
*17 src_req[1]
*18 src_req[0]
*19 src_ack[15]
*20 src_ack[14]
*21 src_ack[13]
*22 src_ack[12]
*23 src_ack[11]
*24 src_ack[10]
*25 src_ack[9]
*26 src_ack[8]
*27 src_ack[7]
*28 src_ack[6]
*29 src_ack[5]
*30 src_ack[4]
*31 src_ack[3]
*32 src_ack[2]
*33 src_ack[1]
*34 src_ack[0]
*35 aer_addr[3]
*36 aer_addr[2]
*37 aer_addr[1]
*38 aer_addr[0]
*39 aer_req
*40 aer_ack
*41 UNCONNECTED
*42 UNCONNECTED0
*43 UNCONNECTED1
*44 UNCONNECTED2
*45 UNCONNECTED3
*46 busy_gate
*47 busy_launch_delay
*48 busy_q
*49 capture_delay_1
*50 capture_delay_2
*51 capture_delay_3
*52 capture_delay_4
*53 capture_delay_5
*54 capture_raw
*55 n_0
*56 n_1
*57 n_2
*58 n_3
*59 n_4
*60 n_6
*61 n_7
*62 n_8
*63 n_9
*64 n_10
*65 n_11
*66 n_12
*67 n_13
*68 n_14
*69 n_15
*70 n_16
*71 n_17
*72 n_18
*73 n_19
*74 n_20
*75 n_21
*76 n_22
*77 n_24
*78 n_25
*79 n_26
*80 n_27
*81 n_28
*82 n_29
*83 n_30
*84 n_31
*85 n_32
*86 n_33
*87 n_34
*88 n_35
*89 n_36
*90 n_37
*91 n_38
*92 n_39
*93 n_40
*94 n_41
*95 n_42
*96 n_43
*97 n_44
*98 n_45
*99 n_46
*100 n_47
*101 n_48
*102 n_49
*103 n_50
*104 n_51
*105 n_52
*106 n_53
*107 n_54
*108 n_55
*109 n_57
*110 n_80
*111 n_81
*112 n_82
*113 n_83
*114 n_85
*115 n_127
*116 FE_OFC0_n_55
*117 busy_latch
*118 capture_delay_cell_1
*119 capture_delay_cell_2
*120 capture_delay_cell_3
*121 capture_delay_cell_4
*122 capture_delay_cell_5
*123 g_grant_latch\[0\]\.grant_latch
*124 g_grant_latch\[1\]\.grant_latch
*125 g_grant_latch\[2\]\.grant_latch
*126 g_grant_latch\[3\]\.grant_latch
*127 request_launch_delay_cell
*128 g1348__2398
*129 g2099__5107
*130 g2100__6260
*131 g2101__4319
*132 g2102__8428
*133 g2103__5526
*134 g2104__6783
*135 g2105__3680
*136 g2106__1617
*137 g2107__2802
*138 g2108__1705
*139 g2109__5122
*140 g2110__8246
*141 g2111__7098
*142 g2112__6131
*143 g2113__1881
*144 g2114__5115
*145 g2115__7482
*146 g2116__4733
*147 g2117__6161
*148 g2118__9315
*149 g2119__9945
*150 g2120__2883
*151 g2121__2346
*152 g2122__1666
*153 g2123__7410
*154 g2124__6417
*155 g2125__5477
*156 g2126__2398
*157 g2127__5107
*158 g2128__6260
*159 g2129__4319
*160 g2130__8428
*161 g2131__5526
*162 g2132
*163 g2133
*164 g2134__6783
*165 g2135__3680
*166 g2136__1617
*167 g2137__2802
*168 g2138
*169 g2139
*170 g2140
*171 g2141
*172 g2142__1705
*173 g2143__5122
*174 g2144__8246
*175 g2145__7098
*176 g2146__6131
*177 g1768__1881
*178 g1769__5115
*179 g1770__7482
*180 g1771__4733
*181 g1772__6161
*182 g1774__9945
*183 g1775__2883
*184 g1776__2346
*185 g1777__1666
*186 g1778__7410
*187 g1779__6417
*188 g1780__5477
*189 g1781__2398
*190 g1782__5107
*191 g1783__6260
*192 g1784__4319
*193 g1785
*194 g1786__8428
*195 g1787__5526
*196 g1788__6783
*197 g1789__3680
*198 g1790__1617
*199 g1791__2802
*200 g1792__1705
*201 g1793__5122
*202 g1795__7098
*203 g1796__6131
*204 g1797__1881
*205 g1798
*206 g1799
*207 g2


*PORTS

*2 I *C 0 0.095
*3 I *C 0 27.075
*4 I *C 0 25.555
*5 I *C 0 24.035
*6 I *C 0 22.325
*7 I *C 0 20.805
*8 I *C 0 19.095
*9 I *C 0 17.575
*10 I *C 0 16.055
*11 I *C 0 14.345
*12 I *C 0 12.825
*13 I *C 0 11.115
*14 I *C 0 9.595
*15 I *C 0 8.075
*16 I *C 0 6.365
*17 I *C 0 4.845
*18 I *C 0 3.135
*19 O *C 30.6 5.605
*20 O *C 30.6 6.935
*21 O *C 30.6 8.265
*22 O *C 30.6 9.785
*23 O *C 30.6 11.115
*24 O *C 30.6 12.445
*25 O *C 30.6 13.775
*26 O *C 30.6 15.105
*27 O *C 30.6 16.435
*28 O *C 30.6 17.765
*29 O *C 30.6 19.285
*30 O *C 30.6 20.615
*31 O *C 30.6 21.945
*32 O *C 30.6 23.275
*33 O *C 30.6 24.605
*34 O *C 30.6 25.935
*35 O *C 30.6 0.095
*36 O *C 30.6 1.615
*37 O *C 30.6 2.945
*38 O *C 30.6 4.275
*39 O *C 30.6 27.265
*40 I *C 0 1.615


*D_NET *1 0.00247109

*CONN
*I *142:C I *C 25.145 14.695 *L 0.000212 *D NOR3XL
*I *144:C I *C 23.745 14.695 *L 0.000212 *D NOR3XL
*I *145:C I *C 23.745 16.085 *L 0.000212 *D NOR3XL
*I *136:C I *C 25.145 11.275 *L 0.000212 *D NOR3XL
*I *135:C I *C 25.145 16.085 *L 0.000212 *D NOR3XL
*I *137:C I *C 25.145 12.665 *L 0.000212 *D NOR3XL
*I *130:C I *C 23.745 12.665 *L 0.000212 *D NOR3XL
*I *133:C I *C 23.945 9.245 *L 0.000212 *D NOR3XL
*I *132:C I *C 25.145 7.855 *L 0.000212 *D NOR3XL
*I *138:C I *C 25.145 18.115 *L 0.000212 *D NOR3XL
*I *140:C I *C 23.745 19.505 *L 0.000212 *D NOR3XL
*I *139:C I *C 25.145 19.505 *L 0.000212 *D NOR3XL
*I *143:C I *C 23.745 18.115 *L 0.000212 *D NOR3XL
*I *134:C I *C 23.745 7.855 *L 0.000212 *D NOR3XL
*I *131:C I *C 23.745 21.535 *L 0.000212 *D NOR3XL
*I *141:C I *C 25.145 21.535 *L 0.000212 *D NOR3XL
*I *116:Y O *C 21.735 15 *L 0 *D BUFX2

*CAP
1 *141:C 5.24529e-05
2 *132:C 2.52134e-05
3 *131:C 7.07515e-05
4 *130:C 5.90675e-05
5 *134:C 3.90406e-05
6 *116:Y 7.28968e-05
7 *1:17 9.78718e-05
8 *1:18 0.000110507
9 *1:19 0.000131845
10 *1:20 0.000105857
11 *1:21 9.67971e-05
12 *1:22 9.88849e-05
13 *1:23 0.000139474873
14 *1:24 8.3387e-05
15 *1:25 0.000109315
16 *1:26 0.00013262
17 *1:27 0.000106991
18 *1:28 0.000129938
19 *1:29 8.95866e-05
20 *134:C *144:B 0.0001142025
21 *131:C *30 8.46385938e-05
22 *1:21 *132:A 0.000215888027
23 *1:18 *135:B 0.00011539459
24 *141:C *141:B 0.000188469883

*RES
1 *1:29 *1:28 0.827849
2 *1:28 *1:27 3.33633
3 *1:27 *116:Y 8.93068314
4 *1:26 *1:28 1.7098
5 *1:25 *1:26 0.922149
6 *134:C *1:24 4.32049
7 *130:C *1:29 4.94038
8 *144:C *1:29 3.29995
9 *145:C *1:28 3.29995
10 *143:C *1:26 3.29995
11 *140:C *1:25 3.29995
12 *131:C *1:25 5.08401
13 *1:24 *1:23 7.57288
14 *133:C *1:24 3.29995
15 *1:23 *1:22 1.84839
16 *1:22 *1:21 0.778655
17 *1:21 *1:20 1.92756
18 *1:20 *1:19 0.778655
19 *1:19 *1:27 4.39652
20 *1:18 *1:19 1.78407
21 *1:17 *1:18 0.922149
22 *132:C *1:23 4.0012
23 *136:C *1:22 3.29995
24 *137:C *1:21 3.29995
25 *142:C *1:20 3.29995
26 *135:C *1:19 3.29995
27 *138:C *1:18 3.29995
28 *139:C *1:17 3.29995
29 *141:C *1:17 5.08401
*END

*D_NET *2 0.00231421

*CONN
*P *2 I *C 0 0.095 *L 0
*I *205:A I *C 11.7 6.175 *L 0.000395 *D INVX1
*I *177:AN I *C 7.965 5.945 *L 0.00021 *D NOR3BXL
*I *172:A I *C 15.1 12.825 *L 0.00039 *D NAND2X1
*I *129:B I *C 17.1 16.245 *L 0.000211 *D NAND3BXL
*I *128:B I *C 15.3 16.245 *L 0.000211 *D AND2X1

*CAP
1 *129:B 0.000102165
2 *128:B 3.39124e-05
3 *205:A 1.51407e-05
4 *2 0.000321628
5 *2:6 0.000216905
6 *2:7 0.000405792
7 *2:8 0.000459373008
8 *2:9 0.000440896
9 *2:8 *18:6 0.000121116641
10 *2:7 *109:9 0.000115513799
11 *2:6 *127:A 8.17775732e-05

*RES
1 *177:AN *2:9 3.2999
2 *2:9 *2 14.1394138
3 *2:8 *2:9 6.2902
4 *205:A *2:8 6.77823
5 *2:7 *2:8 11.6812
6 *172:A *2:7 3.2999
7 *128:B *2:6 4.12774
8 *2:6 *2:7 2.66473
9 *129:B *2:6 11.811
*END

*D_NET *3 0.00130224

*CONN
*P *3 I *C 0 27.075 *L 0
*I *202:B I *C 7.205 17.99 *L 0.000212 *D NOR2XL
*I *199:A0 I *C 5.56 21.21 *L 0.000211 *D AOI21XL
*I *157:B0 I *C 10.765 17.835 *L 0.000389 *D AOI22X1

*CAP
1 *157:B0 5.61475e-05
2 *202:B 4.01716e-05
3 *3 0.000266137
4 *3:4 0.000156523
5 *3:5 0.000223758
6 *3:6 0.000349342813
7 *202:B *5:4 8.64267383e-05
8 *157:B0 *4:4 0.000123739238

*RES
1 *3:6 *3 11.6841793
2 *199:A0 *3:6 3.2999
3 *3:5 *3:6 9.58824
4 *202:B *3:5 4.28779
5 *157:B0 *3:4 4.43131
6 *3:4 *3:5 9.91486
*END

*D_NET *4 0.00110579

*CONN
*P *4 I *C 0 25.555 *L 0
*I *206:A I *C 6.7 21.185 *L 0.000212 *D INVXL
*I *202:A I *C 6.97 17.91 *L 0.000212 *D NOR2XL
*I *157:A0 I *C 9.9 17.765 *L 0.000391 *D AOI22X1

*CAP
1 *157:A0 4.32125e-05
2 *202:A 3.67741e-05
3 *4 0.00026119
4 *4:4 0.000134112
5 *4:5 0.000320136543
6 *4:6 0.000186621
7 *4:4 *157:B0 0.000123739238

*RES
1 *4:6 *4:5 1.70463
2 *4:5 *4 11.7372274
3 *206:A *4:5 3.30002
4 *202:A *4:6 4.3848
5 *4:4 *4:6 9.17311
6 *157:A0 *4:4 4.11276
*END

*D_NET *5 0.00096035

*CONN
*P *5 I *C 0 24.035 *L 0
*I *201:B I *C 7.805 17.99 *L 0.000212 *D NOR2XL
*I *199:B0 I *C 5.9 21.375 *L 0.000212 *D AOI21XL
*I *158:B0 I *C 9.165 17.835 *L 0.000389 *D AOI22X1

*CAP
1 *158:B0 9.13143e-05
2 *201:B 2.7537e-05
3 *5 0.000186027
4 *5:4 0.000250935
5 *5:5 0.00031810998
6 *5:4 *202:B 8.64267383e-05

*RES
1 *199:B0 *5:5 3.29995
2 *5:5 *5 9.59927
3 *5:4 *5:5 10.3354
4 *201:B *5:4 3.71486
5 *158:B0 *5:4 11.6353035
*END

*D_NET *6 0.000970602

*CONN
*P *6 I *C 0 22.325 *L 0
*I *201:A I *C 7.57 17.91 *L 0.000212 *D NOR2XL
*I *190:A0N I *C 5.94 19.26 *L 0.000211 *D AOI2BB1XL
*I *158:A0 I *C 8.3 17.765 *L 0.000391 *D AOI22X1

*CAP
1 *158:A0 4.50039e-05
2 *201:A 6.37161e-05
3 *6 0.000259815
4 *6:4 7.62355e-05
5 *6:5 7.25382e-05
6 *6:6 0.000116767
7 *6:7 0.000336527813

*RES
1 *190:A0N *6:7 3.30002
2 *6:7 *6 10.0208521
3 *6:6 *6:7 5.12159
4 *6:5 *6:6 3.35721
5 *201:A *6:5 4.28779
6 *6:4 *6:6 4.00843
7 *158:A0 *6:4 4.28779
*END

*D_NET *7 0.00120318

*CONN
*P *7 I *C 0 20.805 *L 0
*I *203:B I *C 5.805 16.21 *L 0.000212 *D NOR2XL
*I *190:B0 I *C 5.75 19.46 *L 0.000212 *D AOI2BB1XL
*I *155:B0 I *C 10.165 16.365 *L 0.000389 *D AOI22X1

*CAP
1 *155:B0 9.82305e-05
2 *203:B 2.65825e-05
3 *190:B0 4.47622e-05
4 *7 0.00014508
5 *7:4 0.000236213
6 *7:5 0.000301241875
7 *155:B0 *160:B0 0.00023651123
8 *155:B0 *9:4 0.000114560127

*RES
1 *7:5 *7 7.62448
2 *7:4 *7:5 3.11448
3 *190:B0 *7:5 4.33564
4 *203:B *7:4 3.93507
5 *155:B0 *7:4 13.7014389
*END

*D_NET *8 0.00129998

*CONN
*P *8 I *C 0 19.095 *L 0
*I *203:A I *C 5.57 16.29 *L 0.000212 *D NOR2XL
*I *185:A0N I *C 5.94 18.36 *L 0.000211 *D AOI2BB1XL
*I *160:B0 I *C 9.965 14.415 *L 0.000389 *D AOI22X1

*CAP
1 *160:B0 0.000154256
2 *8 0.000190318
3 *203:A 3.27232e-05
4 *8:4 0.000238120547
5 *8:5 0.000234781
6 *160:B0 *155:A1 8.73804102e-05
7 *160:B0 *155:B0 0.00023651123
8 *160:B0 *160:A0 0.00012588501

*RES
1 *203:A *8:5 7.15468
2 *185:A0N *8:4 3.29994
3 *8:5 *8:4 4.53516
4 *8:4 *8 8.5127
5 *160:B0 *8:5 12.3045444
*END

*D_NET *9 0.000801563

*CONN
*P *9 I *C 0 17.575 *L 0
*I *204:B I *C 8.405 16.21 *L 0.000212 *D NOR2XL
*I *185:B0 I *C 5.75 18.16 *L 0.000212 *D AOI2BB1XL
*I *155:A0 I *C 9.3 16.435 *L 0.000391 *D AOI22X1

*CAP
1 *155:A0 4.19035e-05
2 *204:B 2.81332e-05
3 *185:B0 4.60137e-05
4 *9 0.000119627
5 *9:4 0.000177858
6 *9:5 0.000273466113
7 *9:4 *155:B0 0.000114560127

*RES
1 *9:5 *9 4.12749
2 *185:B0 *9:5 7.31098652
3 *9:4 *9:5 6.61911
4 *204:B *9:4 3.79137
5 *155:A0 *9:4 4.40292
*END

*D_NET *10 0.000907719

*CONN
*P *10 I *C 0 16.055 *L 0
*I *204:A I *C 8.17 16.29 *L 0.000212 *D NOR2XL
*I *182:A0N I *C 5.94 14.94 *L 0.000211 *D AOI2BB1XL
*I *160:A0 I *C 9.1 14.345 *L 0.000391 *D AOI22X1

*CAP
1 *160:A0 4.23205e-05
2 *204:A 2.13996e-05
3 *10 0.000128865
4 *182:A0N 7.06333e-05
5 *10:4 7.23008e-05
6 *10:5 0.000104844
7 *10:6 0.000252962109
8 *160:A0 *155:A1 8.85129004e-05
9 *160:A0 *160:B0 0.00012588501

*RES
1 *182:A0N *10:6 7.93910027
2 *10:6 *10 4.64152
3 *10:5 *10:6 1.93147
4 *204:A *10:5 6.75919
5 *10:4 *10:5 4.0942
6 *160:A0 *10:4 4.94037
*END

*D_NET *11 0.00113833

*CONN
*P *11 I *C 0 14.345 *L 0
*I *200:B I *C 5.605 11.15 *L 0.000212 *D NOR2XL
*I *195:B I *C 8.225 11.37 *L 0.000392 *D NOR4X1
*I *182:B0 I *C 5.75 14.74 *L 0.000212 *D AOI2BB1XL
*I *159:B0 I *C 9.365 12.945 *L 0.000389 *D AOI22X1

*CAP
1 *159:B0 0.000101626
2 *195:B 4.0768e-05
3 *182:B0 4.38115e-05
4 *200:B 8.80349e-05
5 *11 0.000107469
6 *11:5 0.000249089
7 *11:6 0.000232043
8 *11:7 0.000275492676

*RES
1 *11:7 *11:6 5.40574
2 *11:6 *11 3.73436
3 *200:B *11:7 5.3449
4 *182:B0 *11:6 7.44712
5 *11:5 *11:7 5.81587
6 *195:B *11:5 7.25342
7 *159:B0 *11:5 8.32402706
*END

*D_NET *12 0.000763655

*CONN
*P *12 I *C 0 12.825 *L 0
*I *200:A I *C 5.37 11.07 *L 0.000212 *D NOR2XL
*I *195:A I *C 8.02 11.05 *L 0.000392 *D NOR4X1
*I *181:A0N I *C 5.94 12.42 *L 0.000211 *D AOI2BB1XL
*I *161:B0 I *C 7.765 12.945 *L 0.000389 *D AOI22X1

*CAP
1 *195:A 7.54587e-05
2 *161:B0 8.64282e-06
3 *181:A0N 1.68678e-05
4 *200:A 7.73082e-05
5 *12 0.000115216
6 *12:5 0.000143528
7 *12:6 9.72153e-05
8 *12:7 0.000144124033
9 *12:8 8.52935e-05

*RES
1 *12:8 *12:7 3.3572
2 *12:7 *12 4.03677
3 *200:A *12:8 4.7184
4 *181:A0N *12:6 6.75916672
5 *12:6 *12:7 0.514033
6 *161:B0 *12:5 3.40248
7 *12:5 *12:6 4.75749
8 *195:A *12:5 4.96737
*END

*D_NET *13 0.000814319

*CONN
*P *13 I *C 0 11.115 *L 0
*I *195:D I *C 8.605 11.11 *L 0.000392 *D NOR4X1
*I *184:B0 I *C 6.96 10.95 *L 0.000212 *D AOI211XL
*I *181:B0 I *C 5.75 12.62 *L 0.000212 *D AOI2BB1XL
*I *159:A0 I *C 8.5 13.015 *L 0.000391 *D AOI22X1

*CAP
1 *159:A0 9.16122e-05
2 *184:B0 2.33053e-05
3 *181:B0 8.38635e-05
4 *13 0.00011784
5 *13:5 0.000142038
6 *13:6 0.000113844
7 *13:7 0.000241816035

*RES
1 *13:7 *13 4.15769
2 *181:B0 *13:7 7.84111023
3 *184:B0 *13:6 6.8051
4 *13:6 *13:7 1.08914
5 *13:5 *13:6 4.54774
6 *159:A0 *13:5 4.77997
7 *195:D *13:5 3.29995
*END

*D_NET *14 0.000854373

*CONN
*P *14 I *C 0 9.595 *L 0
*I *195:C I *C 8.385 11.56 *L 0.000392 *D NOR4X1
*I *184:C0 I *C 7.1 10.925 *L 0.000212 *D AOI211XL
*I *179:A0N I *C 6.34 9 *L 0.000211 *D AOI2BB1XL
*I *161:A0 I *C 6.9 13.015 *L 0.000391 *D AOI22X1

*CAP
1 *195:C 7.11092e-05
2 *184:C0 1.88943e-05
3 *161:A0 4.7384e-05
4 *14 0.000139117
5 *179:A0N 1.94908e-05
6 *14:5 0.000161709
7 *14:6 8.01081e-05
8 *14:7 8.7977e-05
9 *14:8 0.000228583809

*RES
1 *179:A0N *14:8 6.81197643
2 *14:8 *14 4.79269
3 *14:7 *14:6 1.081
4 *161:A0 *14:7 4.22225
5 *184:C0 *14:6 3.52583
6 *14:6 *14:5 0.536655
7 *14:5 *14:8 5.01356
8 *195:C *14:5 4.66068
*END

*D_NET *15 0.000818253

*CONN
*P *15 I *C 0 8.075 *L 0
*I *207:B I *C 6.9 7.695 *L 0.000393 *D NOR3X1
*I *194:B I *C 8.55 7.91 *L 0.000211 *D OR4X1
*I *179:B0 I *C 6.15 9.2 *L 0.000212 *D AOI2BB1XL
*I *156:B0 I *C 9.765 9.525 *L 0.000389 *D AOI22X1

*CAP
1 *156:B0 6.74129e-05
2 *194:B 1.97287e-05
3 *207:B 3.89827e-05
4 *179:B0 3.53471e-05
5 *15 0.000136911
6 *15:5 0.000107706
7 *15:6 0.000127257
8 *15:7 0.000207364551
9 *15:8 7.75446e-05

*RES
1 *15:8 *15:7 3.33635
2 *15:7 *15 4.64155
3 *179:B0 *15:8 4.01021
4 *207:B *15:8 4.10126
5 *194:B *15:6 6.81197643
6 *15:6 *15:7 1.87471
7 *156:B0 *15:5 4.48845
8 *15:5 *15:6 4.24543
*END

*D_NET *16 0.000947714

*CONN
*P *16 I *C 0 6.365 *L 0
*I *207:A I *C 6.74 7.75 *L 0.000392 *D NOR3X1
*I *194:A I *C 8.955 7.605 *L 0.000212 *D OR4X1
*I *178:A0N I *C 6.34 5.58 *L 0.000211 *D AOI2BB1XL
*I *154:B0 I *C 10.565 7.575 *L 0.000389 *D AOI22X1

*CAP
1 *154:B0 4.14239e-05
2 *194:A 4.11871e-05
3 *207:A 4.52992e-05
4 *178:A0N 4.02919e-05
5 *16 0.000134468
6 *16:5 8.94058e-05
7 *16:6 0.000114797
8 *16:7 4.90532e-05
9 *16:8 0.000118733
10 *16:9 0.000189244746
11 *16:5 *180:D 8.38041309e-05

*RES
1 *16:9 *16 4.64154
2 *178:A0N *16:9 7.20008
3 *207:A *16:8 7.53295422
4 *16:8 *16:9 0.483798
5 *194:A *16:7 7.44445
6 *16:7 *16:6 3.34682
7 *16:6 *16:8 1.69542
8 *154:B0 *16:5 4.20165
9 *16:5 *16:6 4.54775
*END

*D_NET *17 0.000932455

*CONN
*P *17 I *C 0 4.845 *L 0
*I *194:D I *C 8.16 7.545 *L 0.000208 *D OR4X1
*I *180:A I *C 9.82 6.05 *L 0.000392 *D NOR4X1
*I *178:B0 I *C 6.15 5.78 *L 0.000212 *D AOI2BB1XL
*I *156:A0 I *C 8.9 9.595 *L 0.000391 *D AOI22X1

*CAP
1 *180:A 3.26029e-05
2 *156:A0 8.5832e-05
3 *178:B0 3.36777e-05
4 *17 0.000140132
5 *17:5 3.75528e-05
6 *17:6 0.000173985
7 *17:7 0.000148058
8 *17:8 0.000280618672

*RES
1 *17:8 *17 4.64151
2 *178:B0 *17:8 7.21538067
3 *17:7 *17:6 1.37964
4 *194:D *17:7 3.29997
5 *17:5 *17:6 3.3363
6 *17:6 *17:8 6.12871
7 *156:A0 *17:7 5.64924
8 *180:A *17:5 1.22264
*END

*D_NET *18 0.000994205

*CONN
*P *18 I *C 0 3.135 *L 0
*I *194:C I *C 8.37 7.71 *L 0.00021 *D OR4X1
*I *180:B I *C 10.025 5.73 *L 0.000392 *D NOR4X1
*I *177:B I *C 7.5 6.175 *L 0.000212 *D NOR3BXL
*I *154:A0 I *C 9.7 7.505 *L 0.000391 *D AOI22X1

*CAP
1 *180:B 3.00402e-05
2 *154:A0 1.45425e-05
3 *194:C 6.21678e-05
4 *18 0.000218631
5 *18:5 7.45075e-05
6 *18:6 0.000133633
7 *18:7 6.97355e-05
8 *18:8 0.000269830234
9 *18:6 *2:8 0.000121116641

*RES
1 *18:8 *18 10.9418631
2 *177:B *18:8 3.29996
3 *194:C *18:7 7.66628
4 *18:6 *18:8 8.11474
5 *18:5 *18:6 1.19443
6 *18:7 *18:5 3.35722
7 *154:A0 *18:5 3.59681
8 *180:B *18:6 3.9501
*END

*D_NET *19 0.000398159

*CONN
*P *19 O *C 30.6 5.605 *L 0
*I *134:Y O *C 23.94 7.57 *L 0 *D NOR3XL

*CAP
1 *19 0.000143886
2 *134:Y 5.5193e-05
3 *19:2 0.000199079512

*RES
1 *19:2 *134:Y 8.06510448
2 *19 *19:2 5.09508
*END

*D_NET *20 0.000277519

*CONN
*P *20 O *C 30.6 6.935 *L 0
*I *132:Y O *C 25.34 7.57 *L 0 *D NOR3XL

*CAP
1 *132:Y 0.000138759609
2 *20 0.000138759609

*RES
1 *20 *132:Y 11.1619
*END

*D_NET *21 0.000401497

*CONN
*P *21 O *C 30.6 8.265 *L 0
*I *133:Y O *C 24.14 9.53 *L 0 *D NOR3XL

*CAP
1 *21 0.000157177
2 *133:Y 4.35713e-05
3 *21:2 0.000200748438

*RES
1 *21:2 *133:Y 7.21538067
2 *21 *21:2 4.94384
*END

*D_NET *22 0.000334859

*CONN
*P *22 O *C 30.6 9.785 *L 0
*I *136:Y O *C 25.34 10.99 *L 0 *D NOR3XL

*CAP
1 *22 0.000115396
2 *136:Y 5.20338e-05
3 *22:2 0.000167429453

*RES
1 *22:2 *136:Y 7.49123096
2 *22 *22:2 4.03676
*END

*D_NET *23 0.000405908

*CONN
*P *23 O *C 30.6 11.115 *L 0
*I *130:Y O *C 23.94 12.95 *L 0 *D NOR3XL

*CAP
1 *23 0.000144661
2 *130:Y 5.82925e-05
3 *23:2 0.000202953809

*RES
1 *23:2 *130:Y 7.69281387
2 *23 *23:2 5.06484
*END

*D_NET *24 0.000282526

*CONN
*P *24 O *C 30.6 12.445 *L 0
*I *137:Y O *C 25.34 12.95 *L 0 *D NOR3XL

*CAP
1 *24 0.000116647
2 *137:Y 2.46162e-05
3 *24:2 0.000141263008

*RES
1 *24:2 *137:Y 6.84988499
2 *24 *24:2 4.03681
*END

*D_NET *25 0.000404716

*CONN
*P *25 O *C 30.6 13.775 *L 0
*I *144:Y O *C 23.94 14.41 *L 0 *D NOR3XL

*CAP
1 *144:Y 0.000202357773
2 *25 0.000202357773

*RES
1 *25 *144:Y 12.2203
*END

*D_NET *26 0.000316143

*CONN
*P *26 O *C 30.6 15.105 *L 0
*I *142:Y O *C 25.34 14.41 *L 0 *D NOR3XL

*CAP
1 *26 3.85633e-05
2 *142:Y 0.000119508
3 *26:2 0.000158071514

*RES
1 *26:2 *142:Y 11.0644102
2 *26 *26:2 1.31535
*END

*D_NET *27 0.000266433

*CONN
*P *27 O *C 30.6 16.435 *L 0
*I *135:Y O *C 25.34 16.37 *L 0 *D NOR3XL

*CAP
1 *27 0.000113726
2 *135:Y 1.949e-05
3 *27:2 0.000133216377

*RES
1 *27:2 *135:Y 6.80506229
2 *27 *27:2 4.03677
*END

*D_NET *28 0.000437617

*CONN
*P *28 O *C 30.6 17.765 *L 0
*I *145:Y O *C 23.94 16.37 *L 0 *D NOR3XL

*CAP
1 *28 0.000150263
2 *145:Y 6.85457e-05
3 *28:2 0.000218808652

*RES
1 *28:2 *145:Y 7.64501095
2 *28 *28:2 5.09508
*END

*D_NET *29 0.000360489

*CONN
*P *29 O *C 30.6 19.285 *L 0
*I *138:Y O *C 25.34 17.83 *L 0 *D NOR3XL

*CAP
1 *29 2.61669e-05
2 *138:Y 0.000154078
3 *29:2 0.000180244453

*RES
1 *29:2 *138:Y 12.3761892
2 *29 *29:2 0.861703
*END

*D_NET *30 0.000535488

*CONN
*P *30 O *C 30.6 20.615 *L 0
*I *143:Y O *C 23.94 17.83 *L 0 *D NOR3XL

*CAP
1 *143:Y 0.000225424766
2 *30 0.000225424766
3 *30 *131:C 8.46385938e-05

*RES
1 *30 *143:Y 13.6373
*END

*D_NET *31 0.000434995

*CONN
*P *31 O *C 30.6 21.945 *L 0
*I *139:Y O *C 25.34 19.79 *L 0 *D NOR3XL

*CAP
1 *139:Y 0.000217497344
2 *31 0.000217497344

*RES
1 *31 *139:Y 14.3116
*END

*D_NET *32 0.000531793

*CONN
*P *32 O *C 30.6 23.275 *L 0
*I *140:Y O *C 23.94 19.79 *L 0 *D NOR3XL

*CAP
1 *32 0.000134768
2 *140:Y 0.000131128
3 *32:2 0.000265896328

*RES
1 *32:2 *140:Y 9.63580608
2 *32 *32:2 4.79276
*END

*D_NET *33 0.000387549

*CONN
*P *33 O *C 30.6 24.605 *L 0
*I *141:Y O *C 25.34 21.25 *L 0 *D NOR3XL

*CAP
1 *33 0.000109018
2 *141:Y 8.4757e-05
3 *33:2 0.000193774707

*RES
1 *33:2 *141:Y 8.79752636
2 *33 *33:2 4.03672
*END

*D_NET *34 0.000544429

*CONN
*P *34 O *C 30.6 25.935 *L 0
*I *131:Y O *C 23.94 21.25 *L 0 *D NOR3XL

*CAP
1 *34 0.000137447
2 *131:Y 0.000134768
3 *34:2 0.000272214414

*RES
1 *34:2 *131:Y 10.2516413
2 *34 *34:2 5.09516
*END

*D_NET *35 0.00168133

*CONN
*P *35 O *C 30.6 0.095 *L 0
*I *174:A I *C 21.7 7.695 *L 0.00039 *D NAND2X1
*I *166:AN I *C 17.7 11.115 *L 0.00021 *D NOR2BX1
*I *165:AN I *C 22.7 11.115 *L 0.00021 *D NAND2BX2
*I *164:A I *C 20.85 11.08 *L 0.000211 *D OR2X1
*I *126:Q O *C 18.765 8.935 *L 0 *D TLATX1

*CAP
1 *35 0.000161173
2 *165:AN 3.98136e-05
3 *174:A 1.81782e-05
4 *164:A 7.26577e-05
5 *126:Q 6.49919e-06
6 *166:AN 4.49995e-05
7 *35:6 0.000400304805
8 *35:7 0.000248435
9 *35:8 0.000357034
10 *35:9 0.000158491
11 *35:10 4.19027e-05
12 *35:11 0.000131847

*RES
1 *166:AN *35:11 1.64026
2 *35:10 *126:Q 0.239678
3 *35:9 *35:10 4.11026
4 *35:11 *35:9 3.54619
5 *164:A *35:11 2.59882
6 *174:A *35:8 3.67422
7 *35:8 *35:7 5.57589
8 *35:7 *35:9 6.07288
9 *165:AN *35:7 7.43331
10 *35:6 *35:8 10.3203058
11 *35 *35:6 5.851
*END

*D_NET *36 0.00150228

*CONN
*P *36 O *C 30.6 1.615 *L 0
*I *176:B I *C 20.365 7.575 *L 0.000392 *D NOR2BX1
*I *175:AN I *C 14.7 9.405 *L 0.00021 *D NOR2BX1
*I *173:A I *C 20.21 9.4 *L 0.000792 *D NAND2X2
*I *167:B I *C 18.575 7.925 *L 0.000392 *D NOR2X1
*I *125:Q O *C 15.965 8.165 *L 0 *D TLATX1

*CAP
1 *36 0.000222025
2 *176:B 5.18545e-05
3 *173:A 2.80115e-05
4 *167:B 1.18035e-05
5 *125:Q 9.90628e-05
6 *175:AN 6.37759e-05
7 *36:6 9.10178e-05
8 *36:7 0.00021148
9 *36:8 0.000368177891
10 *36:9 0.000142457
11 *36:10 8.17199e-05
12 *176:B *176:AN 0.000130891797

*RES
1 *175:AN *36:10 4.97653
2 *36:10 *125:Q 3.7913
3 *36:9 *125:Q 6.05032
4 *167:B *36:9 3.40202
5 *36:8 *36:7 8.18383
6 *36:7 *36:6 0.47621
7 *36:6 *36:9 7.75829
8 *173:A *36:6 4.12064
9 *176:B *36:7 10.8515024
10 *36 *36:8 8.39097
*END

*D_NET *37 0.00178027

*CONN
*P *37 O *C 30.6 2.945 *L 0
*I *176:AN I *C 20.7 7.695 *L 0.00021 *D NOR2BX1
*I *175:B I *C 14.365 9.525 *L 0.000392 *D NOR2BX1
*I *173:B I *C 19.9 9.595 *L 0.000796 *D NAND2X2
*I *167:A I *C 18.3 7.505 *L 0.000392 *D NOR2X1
*I *124:Q O *C 15.365 5.515 *L 0 *D TLATX1

*CAP
1 *37 0.000219582
2 *176:AN 6.37752e-05
3 *173:B 7.08111e-05
4 *167:A 2.71782e-05
5 *124:Q 2.71216e-05
6 *175:B 0.000143944
7 *37:6 0.00010997
8 *37:7 0.000308632852
9 *37:8 0.000165226
10 *37:9 0.000142635
11 *37:10 3.54055e-05
12 *37:11 0.000226853
13 *167:A *88:9 0.000108242031
14 *176:AN *176:B 0.000130891797

*RES
1 *175:B *37:11 9.91904736
2 *37:10 *124:Q 3.85798
3 *37:11 *37:10 3.35715
4 *37:9 *37:11 2.797
5 *167:A *37:9 7.07059
6 *173:B *37:8 5.33352
7 *37:7 *37:8 6.32472
8 *37:8 *37:6 3.33627
9 *37:6 *37:9 1.27
10 *176:AN *37:6 7.85808
11 *37 *37:7 8.08859
*END

*D_NET *38 0.00148082

*CONN
*P *38 O *C 30.6 4.275 *L 0
*I *174:B I *C 21.9 7.315 *L 0.000392 *D NAND2X1
*I *166:B I *C 17.365 10.995 *L 0.000392 *D NOR2BX1
*I *165:B I *C 22.14 11.295 *L 0.000796 *D NAND2BX2
*I *164:B I *C 20.5 10.925 *L 0.00021 *D OR2X1
*I *123:Q O *C 19.165 5.515 *L 0 *D TLATX1

*CAP
1 *38 0.000176788
2 *174:B 3.29628e-05
3 *165:B 6.71741e-05
4 *123:Q 4.21408e-05
5 *166:B 0.000154256
6 *38:6 0.000239253047
7 *38:7 0.000129401
8 *38:8 0.000237822
9 *38:9 0.000228228
10 *38:10 0.000172794

*RES
1 *166:B *38:10 10.9858513
2 *164:B *38:10 0.500043
3 *38:9 *123:Q 1.64027
4 *38:8 *38:9 6.60113
5 *38:10 *38:8 3.65921
6 *38:7 *38:9 4.55285
7 *165:B *38:8 4.9027
8 *174:B *38:7 4.1445
9 *38:6 *38:7 4.89633
10 *38 *38:6 6.4558
*END

*D_NET *39 0.00142896

*CONN
*P *39 O *C 30.6 27.265 *L 0
*I *148:Y O *C 18.09 14.17 *L 0 *D NOR3BX1
*I *146:B I *C 20.9 14.155 *L 0.000392 *D NAND2X1

*CAP
1 *39 0.000209687
2 *146:B 6.9442e-05
3 *148:Y 0.000132916
4 *39:3 0.000216248
5 *39:4 0.000302431
6 *39:5 0.000498235234

*RES
1 *39:5 *148:Y 13.9334202
2 *39:4 *39:5 8.6631
3 *39:3 *39:4 3.35707
4 *146:B *39:5 4.73923
5 *39 *39:3 7.8165
*END

*D_NET *40 0.00203353

*CONN
*P *40 I *C 0 1.615 *L 0
*I *183:B I *C 13.625 12.57 *L 0.000392 *D NOR4X1
*I *147:AN I *C 16.7 14.535 *L 0.00021 *D NAND3BXL
*I *146:A I *C 20.7 14.535 *L 0.00039 *D NAND2X1

*CAP
1 *146:A 5.16189e-05
2 *147:AN 9.86483e-05
3 *40 0.000290748
4 *183:B 4.12487e-05
5 *40:4 0.000143111
6 *40:5 0.000267985
7 *40:6 0.000240089
8 *40:7 0.000523984414
9 *40:8 0.000125945
10 *40:4 *92:12 0.000161886211
11 *146:A *93:10 8.82744824e-05

*RES
1 *183:B *40:8 7.16499
2 *40:7 *40 14.15205
3 *40:8 *40:6 3.35727
4 *40:6 *40:7 7.73724
5 *147:AN *40:5 8.60469
6 *40:5 *40:8 2.3283
7 *40:4 *40:5 6.74866
8 *146:A *40:4 4.98246
*END

*D_NET *46 0.000274062

*CONN
*I *129:Y O *C 17.16 15.92 *L 0 *D NAND3BXL
*I *117:G I *C 13.7 16.245 *L 0.00021 *D TLATX1

*CAP
1 *129:Y 1.4781e-05
2 *117:G 0.00012225
3 *46:2 0.000137031074

*RES
1 *117:G *46:2 9.17828083
2 *46:2 *129:Y 6.76677
*END

*D_NET *47 0.000286102

*CONN
*I *148:AN I *C 18.345 14.575 *L 0.00021 *D NOR3BX1
*I *127:Y O *C 16.365 12.975 *L 0 *D DLY4X1

*CAP
1 *127:Y 9.70373e-05
2 *148:AN 4.60139e-05
3 *47:2 0.000143051152

*RES
1 *148:AN *47:2 4.12063
2 *47:2 *127:Y 11.8656158
*END

*D_NET *48 0.000998259

*CONN
*I *183:A I *C 13.42 12.89 *L 0.000392 *D NOR4X1
*I *172:B I *C 15.3 13.205 *L 0.000392 *D NAND2X1
*I *147:B I *C 16.5 14.535 *L 0.000211 *D NAND3BXL
*I *127:A I *C 21.3 12.825 *L 0.00021 *D DLY4X1
*I *117:Q O *C 14.965 15.775 *L 0 *D TLATX1

*CAP
1 *127:A 0.000197829
2 *147:B 3.05756e-05
3 *117:Q 4.82924e-06
4 *183:A 9.95411e-05
5 *48:5 0.000270962715
6 *48:6 0.000125469
7 *48:7 6.97966e-05
8 *48:8 0.000117481
9 *127:A *2:6 8.17775732e-05

*RES
1 *183:A *48:8 11.6973
2 *48:7 *117:Q 0.165716
3 *48:8 *48:6 0.483485
4 *48:6 *48:7 4.95936
5 *172:B *48:8 3.29999
6 *147:B *48:5 3.72795
7 *48:5 *48:6 7.64343
8 *127:A *48:5 14.441967
*END

*D_NET *49 0.000595093

*CONN
*I *119:A I *C 14.3 21.375 *L 0.00021 *D DLY4X1
*I *118:Y O *C 9.565 19.815 *L 0 *D DLY4X1

*CAP
1 *118:Y 0.000297546387
2 *119:A 0.000297546387

*RES
1 *119:A *118:Y 21.4059
*END

*D_NET *50 0.000656724

*CONN
*I *120:A I *C 21.1 21.375 *L 0.00021 *D DLY4X1
*I *119:Y O *C 9.365 21.225 *L 0 *D DLY4X1

*CAP
1 *120:A 0.000130713
2 *119:Y 0.000197649
3 *50:2 0.000328361992

*RES
1 *50:2 *119:Y 12.5271082
2 *120:A *50:2 10.3576
*END

*D_NET *51 0.00041759

*CONN
*I *121:A I *C 21.1 19.665 *L 0.00021 *D DLY4X1
*I *120:Y O *C 16.165 21.225 *L 0 *D DLY4X1

*CAP
1 *121:A 0.000133096
2 *120:Y 3.36162e-05
3 *51:2 0.000175178047
4 *51:3 7.5698e-05

*RES
1 *51:3 *120:Y 4.05248
2 *51:2 *51:3 4.26522
3 *121:A *51:2 10.3428364
*END

*D_NET *52 0.000326872

*CONN
*I *122:A I *C 20.7 17.955 *L 0.00021 *D DLY4X1
*I *121:Y O *C 16.165 19.815 *L 0 *D DLY4X1

*CAP
1 *122:A 0.000146508
2 *121:Y 1.69284e-05
3 *52:2 0.000163435938

*RES
1 *52:2 *121:Y 3.71491
2 *122:A *52:2 13.956666
*END

*D_NET *53 0.0002985

*CONN
*I *129:AN I *C 17.3 16.245 *L 0.00021 *D NAND3BXL
*I *128:A I *C 15.765 15.99 *L 0.00021 *D AND2X1
*I *122:Y O *C 15.765 17.805 *L 0 *D DLY4X1

*CAP
1 *129:AN 8.25527e-05
2 *122:Y 5.36445e-05
3 *128:A 7.80781e-06
4 *53:3 8.77976465e-05
5 *53:4 6.66973e-05

*RES
1 *128:A *53:4 6.73153
2 *53:4 *122:Y 4.43754
3 *53:3 *53:4 3.33636
4 *129:AN *53:3 8.02922249
*END

*D_NET *54 0.000511408

*CONN
*I *183:Y O *C 14.14 12.185 *L 0 *D NOR4X1
*I *118:A I *C 14.5 19.665 *L 0.00021 *D DLY4X1

*CAP
1 *118:A 4.57173e-05
2 *183:Y 0.000209987
3 *54:2 0.000255703926

*RES
1 *54:2 *183:Y 7.75206089
2 *118:A *54:2 4.65306
*END

*D_NET *55 0.000114799

*CONN
*I *206:Y O *C 6.9 20.995 *L 0 *D INVXL
*I *199:A1 I *C 5.7 20.805 *L 0.000212 *D AOI21XL

*CAP
1 *206:Y 2.59875e-05
2 *199:A1 3.14117e-05
3 *55:2 5.73992725e-05

*RES
1 *199:A1 *55:2 7.09557533
2 *55:2 *206:Y 0.77413
*END

*D_NET *56 0.000871777

*CONN
*I *205:Y O *C 11.93 5.55 *L 0 *D INVX1
*I *187:B0 I *C 11.56 9.57 *L 0.000212 *D AOI211XL
*I *186:A I *C 12.62 9.47 *L 0.000392 *D NOR4X1
*I *183:C I *C 13.785 12.38 *L 0.000392 *D NOR4X1
*I *180:C I *C 10.185 5.54 *L 0.000392 *D NOR4X1

*CAP
1 *183:C 8.88108e-05
2 *186:A 1.16818e-05
3 *205:Y 2.71808e-05
4 *180:C 6.31813e-05
5 *56:5 0.000159501
6 *56:6 9.7932e-05
7 *56:7 0.000170648
8 *56:8 3.0876e-05
9 *56:9 0.000221967695

*RES
1 *180:C *56:9 4.77902
2 *56:8 *205:Y 0.976757
3 *56:9 *56:8 3.33634
4 *187:B0 *56:7 3.29992
5 *56:7 *56:9 4.04047
6 *56:6 *56:7 0.392972
7 *186:A *56:6 3.58639
8 *56:5 *56:6 8.17322731
9 *183:C *56:5 5.14905
*END

*D_NET *57 0.000278592

*CONN
*I *204:Y O *C 8.525 15.955 *L 0 *D NOR2XL
*I *196:A I *C 8.1 14.345 *L 0.000211 *D NAND2XL
*I *189:B0 I *C 7.065 14.575 *L 0.00039 *D OAI2BB1X1

*CAP
1 *204:Y 1.59745e-05
2 *196:A 5.60241e-06
3 *189:B0 6.24655e-05
4 *57:3 6.63993e-05
5 *57:4 6.08564e-05
6 *57:5 6.72936426e-05

*RES
1 *189:B0 *57:5 11.0646486
2 *57:4 *57:3 1.1452
3 *57:5 *57:4 3.33631
4 *196:A *57:4 3.43136
5 *57:3 *204:Y 3.64764
*END

*D_NET *58 0.000328064

*CONN
*I *203:Y O *C 5.925 15.955 *L 0 *D NOR2XL
*I *196:B I *C 8.4 14.585 *L 0.000212 *D NAND2XL
*I *189:A0N I *C 7.245 14.8 *L 0.000209 *D OAI2BB1X1

*CAP
1 *196:B 7.14072e-05
2 *189:A0N 6.55527e-06
3 *203:Y 8.60696e-05
4 *58:3 0.000164031992

*RES
1 *58:3 *203:Y 5.17099
2 *189:A0N *58:3 6.73151
3 *196:B *58:3 11.2310648
*END

*D_NET *59 0.000270128

*CONN
*I *202:Y O *C 7.325 18.245 *L 0 *D NOR2XL
*I *198:AN I *C 6.94 15.98 *L 0.00021 *D NAND2BXL
*I *197:B I *C 7.8 16.195 *L 0.000212 *D NAND2XL

*CAP
1 *197:B 2.56891e-05
2 *202:Y 9.53668e-05
3 *198:AN 6.79481e-06
4 *59:3 0.00010257959
5 *59:4 3.96967e-05

*RES
1 *198:AN *59:4 0.239632
2 *59:4 *59:3 3.35715
3 *59:3 *202:Y 4.86660004
4 *197:B *59:4 0.74949
*END

*D_NET *60 3.80278e-05

*CONN
*I *200:Y O *C 5.725 11.405 *L 0 *D NOR2XL
*I *184:A0 I *C 6.36 11.25 *L 0.000212 *D AOI211XL

*CAP
1 *200:Y 1.90138818e-05
2 *184:A0 1.90138818e-05

*RES
1 *184:A0 *200:Y 0.73719
*END

*D_NET *61 0.000294328

*CONN
*I *201:Y O *C 7.925 18.245 *L 0 *D NOR2XL
*I *198:B I *C 6.565 16.37 *L 0.000212 *D NAND2BXL
*I *197:A I *C 7.5 16.435 *L 0.000211 *D NAND2XL

*CAP
1 *201:Y 4.72666e-05
2 *198:B 5.12009e-05
3 *61:3 9.59631e-05
4 *61:4 9.98973828e-05

*RES
1 *198:B *61:4 7.5289011
2 *61:4 *61:3 7.45423
3 *197:A *61:4 0.499966
4 *61:3 *201:Y 4.19997
*END

*D_NET *62 0.000197887

*CONN
*I *199:Y O *C 6.14 21.25 *L 0 *D AOI21XL
*I *190:A1N I *C 6.34 19.68 *L 0.00021 *D AOI2BB1XL

*CAP
1 *199:Y 9.89437109e-05
2 *190:A1N 9.89437109e-05

*RES
1 *190:A1N *199:Y 8.48043
*END

*D_NET *63 0.00019598

*CONN
*I *198:Y O *C 6.52 15.88 *L 0 *D NAND2BXL
*I *189:A1N I *C 7.5 14.345 *L 0.00021 *D OAI2BB1X1

*CAP
1 *189:A1N 7.69491e-05
2 *198:Y 2.10409e-05
3 *63:2 9.79900391e-05

*RES
1 *63:2 *198:Y 3.68928
2 *189:A1N *63:2 5.04624844
*END

*D_NET *64 0.000914335

*CONN
*I *197:Y O *C 7.94 16.535 *L 0 *D NAND2XL
*I *192:A I *C 12.97 11.07 *L 0.000212 *D NOR2XL
*I *191:B I *C 11.565 10.99 *L 0.000212 *D NAND2BXL
*I *188:A I *C 12.22 12.89 *L 0.000392 *D NOR4X1

*CAP
1 *192:A 8.37438e-05
2 *188:A 1.16843e-05
3 *197:Y 0.000226676
4 *64:4 9.14313e-05
5 *64:5 0.000308513633
6 *64:6 7.78451e-05
7 *64:5 *149:A 0.000114440918

*RES
1 *191:B *64:6 3.29994
2 *64:6 *64:5 1.81628
3 *64:4 *64:6 3.34672
4 *64:5 *197:Y 15.3292418
5 *188:A *64:5 3.71162
6 *192:A *64:4 7.90204
*END

*D_NET *65 0.000764012

*CONN
*I *196:Y O *C 8.54 14.245 *L 0 *D NAND2XL
*I *192:B I *C 13.205 11.15 *L 0.000212 *D NOR2XL
*I *191:AN I *C 11.94 11.38 *L 0.00021 *D NAND2BXL
*I *188:B I *C 12.425 12.57 *L 0.000392 *D NOR4X1

*CAP
1 *192:B 4.44039e-05
2 *196:Y 0.000210821
3 *191:AN 6.467e-05
4 *65:4 8.58299e-05
5 *65:5 0.000231504434
6 *65:6 0.000126779

*RES
1 *191:AN *65:6 4.56773
2 *65:6 *65:5 0.347789
3 *65:5 *196:Y 14.1657591
4 *188:B *65:5 3.3
5 *65:4 *65:6 7.2919
6 *192:B *65:4 4.1445
*END

*D_NET *66 0.000504971

*CONN
*I *195:Y O *C 8.74 11.755 *L 0 *D NOR4X1
*I *193:A I *C 12.3 10.925 *L 0.000395 *D INVX1
*I *187:A0 I *C 10.96 9.27 *L 0.000212 *D AOI211XL

*CAP
1 *193:A 8.64849e-05
2 *187:A0 5.07822e-05
3 *195:Y 0.000115214
4 *66:3 0.000252485273

*RES
1 *66:3 *195:Y 8.91244411
2 *187:A0 *66:3 7.62663
3 *193:A *66:3 8.48543
*END

*D_NET *67 0.000376582

*CONN
*I *193:Y O *C 12.53 11.55 *L 0 *D INVX1
*I *188:C I *C 12.585 12.38 *L 0.000392 *D NOR4X1
*I *186:B I *C 12.825 9.15 *L 0.000392 *D NOR4X1

*CAP
1 *186:B 3.57632e-05
2 *188:C 3.41532e-05
3 *67:3 7.45654102e-05
4 *67:4 7.29566e-05
5 *67:3 *68:5 0.000159144404

*RES
1 *67:4 *193:Y 3.29996
2 *188:C *67:4 4.07859
3 *67:3 *67:4 0.959975
4 *186:B *67:3 4.36592102
*END

*D_NET *68 0.000764489

*CONN
*I *194:Y O *C 9.155 7.38 *L 0 *D OR4X1
*I *188:D I *C 12.805 12.83 *L 0.000392 *D NOR4X1
*I *187:C0 I *C 11.7 9.595 *L 0.000212 *D AOI211XL
*I *186:C I *C 12.985 8.96 *L 0.000392 *D NOR4X1

*CAP
1 *186:C 6.01915e-06
2 *188:D 5.68024e-05
3 *187:C0 1.71657e-05
4 *194:Y 0.00011921
5 *68:4 0.000109494
6 *68:5 0.000122726
7 *68:6 0.000173926348
8 *68:5 *67:3 0.000159144404

*RES
1 *68:6 *194:Y 9.37271118
2 *187:C0 *68:6 6.77825
3 *68:5 *68:4 1.47393
4 *188:D *68:5 4.94035
5 *68:4 *68:6 4.24544
6 *186:C *68:4 3.33628
*END

*D_NET *69 0.000216126

*CONN
*I *192:Y O *C 13.325 11.405 *L 0 *D NOR2XL
*I *186:D I *C 13.205 9.41 *L 0.000392 *D NOR4X1

*CAP
1 *192:Y 2.00868e-05
2 *186:D 7.84989e-05
3 *69:2 2.95644e-05
4 *69:3 8.79764551e-05

*RES
1 *69:3 *69:2 0.181453
2 *186:D *69:3 4.50956821
3 *69:2 *192:Y 3.62549
*END

*D_NET *70 0.000116348

*CONN
*I *191:Y O *C 11.52 11.48 *L 0 *D NAND2BXL
*I *187:A1 I *C 11.26 9.555 *L 0.000212 *D AOI211XL

*CAP
1 *187:A1 5.14384e-05
2 *70:2 5.81741309e-05
3 *70:3 6.73572e-06

*RES
1 *70:3 *191:Y 0.499995
2 *70:2 *70:3 3.3572
3 *187:A1 *70:2 4.28783894
*END

*D_NET *71 0.000175953

*CONN
*I *190:Y O *C 5.65 20.175 *L 0 *D AOI2BB1XL
*I *185:A1N I *C 6.34 17.94 *L 0.00021 *D AOI2BB1XL

*CAP
1 *190:Y 8.79764551e-05
2 *185:A1N 8.79764551e-05

*RES
1 *185:A1N *190:Y 8.53527
*END

*D_NET *72 0.00025034

*CONN
*I *189:Y O *C 6.935 15.02 *L 0 *D OAI2BB1X1
*I *184:A1 I *C 6.66 10.965 *L 0.000212 *D AOI211XL

*CAP
1 *189:Y 5.84124e-05
2 *184:A1 5.90083e-05
3 *72:2 6.61613e-05
4 *72:3 6.67572021e-05

*RES
1 *72:3 *72:2 0.181453
2 *184:A1 *72:3 4.50956821
3 *72:2 *189:Y 4.48727
*END

*D_NET *73 0.000223398

*CONN
*I *188:Y O *C 12.94 12.185 *L 0 *D NOR4X1
*I *183:D I *C 14.005 12.83 *L 0.000392 *D NOR4X1

*CAP
1 *188:Y 0.000111699102
2 *183:D 0.000111699102

*RES
1 *183:D *188:Y 8.51274
*END

*D_NET *74 0.000298619

*CONN
*I *185:Y O *C 5.65 17.445 *L 0 *D AOI2BB1XL
*I *182:A1N I *C 6.34 14.52 *L 0.00021 *D AOI2BB1XL

*CAP
1 *182:A1N 5.92477e-05
2 *185:Y 9.0062e-05
3 *74:2 0.000149309639

*RES
1 *74:2 *185:Y 5.31888008
2 *182:A1N *74:2 4.58512
*END

*D_NET *75 0.000210047

*CONN
*I *207:C I *C 7.16 7.845 *L 0.000392 *D NOR3X1
*I *184:Y O *C 7.34 11.555 *L 0 *D AOI211XL

*CAP
1 *207:C 9.24465e-05
2 *184:Y 1.25768e-05
3 *75:2 0.000105023389

*RES
1 *75:2 *184:Y 3.35713
2 *207:C *75:2 5.43618202
*END

*D_NET *76 0.000148416

*CONN
*I *182:Y O *C 5.65 14.025 *L 0 *D AOI2BB1XL
*I *181:A1N I *C 6.34 12.84 *L 0.00021 *D AOI2BB1XL

*CAP
1 *182:Y 7.42077832e-05
2 *181:A1N 7.42077832e-05

*RES
1 *181:A1N *182:Y 8.25214
*END

*D_NET *77 0.000324607

*CONN
*I *181:Y O *C 5.65 13.335 *L 0 *D AOI2BB1XL
*I *179:A1N I *C 6.74 9.42 *L 0.00021 *D AOI2BB1XL

*CAP
1 *181:Y 0.000162303447
2 *179:A1N 0.000162303447

*RES
1 *179:A1N *181:Y 9.96017
*END

*D_NET *78 0.000303864

*CONN
*I *179:Y O *C 6.05 9.915 *L 0 *D AOI2BB1XL
*I *178:A1N I *C 6.74 6 *L 0.00021 *D AOI2BB1XL

*CAP
1 *178:A1N 5.03056e-05
2 *179:Y 0.000101627
3 *78:2 0.000151932236

*RES
1 *78:2 *179:Y 5.7721138
2 *178:A1N *78:2 4.09066
*END

*D_NET *79 0.000169516

*CONN
*I *178:Y O *C 6.05 6.495 *L 0 *D AOI2BB1XL
*I *177:C I *C 7.3 6.175 *L 0.000212 *D NOR3BXL

*CAP
1 *178:Y 8.47578027e-05
2 *177:C 8.47578027e-05

*RES
1 *177:C *178:Y 8.24845
*END

*D_NET *80 0.00206137

*CONN
*I *176:Y O *C 20.32 7.365 *L 0 *D NOR2BX1
*I *171:A I *C 21.9 13.015 *L 0.000395 *D INVX1
*I *160:B1 I *C 9.74 14.61 *L 0.000392 *D AOI22X1
*I *156:B1 I *C 9.54 9.33 *L 0.000392 *D AOI22X1
*I *155:B1 I *C 9.94 16.17 *L 0.000392 *D AOI22X1
*I *154:B1 I *C 10.34 7.77 *L 0.000392 *D AOI22X1

*CAP
1 *171:A 0.000226733
2 *176:Y 2.86683e-05
3 *154:B1 1.79422e-05
4 *155:B1 0.000114085
5 *160:B1 1.96727e-05
6 *156:B1 4.63163e-05
7 *80:6 0.00045913457
8 *80:7 0.000211713
9 *80:8 6.78316e-05
10 *80:9 0.000388143
11 *80:10 0.000342605
12 *80:7 *88:9 0.000138521191

*RES
1 *156:B1 *80:10 4.69402
2 *160:B1 *80:9 0.485365
3 *155:B1 *80:9 8.78387
4 *80:9 *80:10 8.33934
5 *154:B1 *80:8 3.69687
6 *80:8 *80:7 3.35709
7 *80:7 *80:6 7.31761
8 *80:10 *80:8 0.907173
9 *80:6 *176:Y 6.8498
10 *171:A *80:6 12.1084452
*END

*D_NET *81 0.000909329

*CONN
*I *171:Y O *C 22.13 12.39 *L 0 *D INVX1
*I *140:B I *C 23.5 19.475 *L 0.000212 *D NOR3XL
*I *139:B I *C 24.9 19.475 *L 0.000212 *D NOR3XL
*I *137:A I *C 24.76 12.57 *L 0.000212 *D NOR3XL
*I *130:A I *C 23.36 12.57 *L 0.000212 *D NOR3XL

*CAP
1 *139:B 4.28553e-05
2 *140:B 5.85302e-05
3 *171:Y 2.6405e-05
4 *81:5 0.000279186
5 *81:6 0.000304281719
6 *81:7 0.000102699
7 *139:B *92:7 9.53674316e-05

*RES
1 *81:7 *171:Y 0.976877
2 *130:A *81:7 0.499967
3 *140:B *81:6 7.51528
4 *81:6 *81:5 8.36664
5 *81:5 *81:7 11.3612413
6 *137:A *81:5 3.29988
7 *139:B *81:6 7.36393
*END

*D_NET *82 0.00238532

*CONN
*I *170:Y O *C 14.33 11.55 *L 0 *D INVX1
*I *152:A0 I *C 11.945 18.185 *L 0.000392 *D OAI22X1
*I *143:B I *C 23.5 18.145 *L 0.000212 *D NOR3XL
*I *138:B I *C 24.9 18.145 *L 0.000212 *D NOR3XL
*I *136:A I *C 24.76 11.37 *L 0.000212 *D NOR3XL
*I *133:A I *C 23.56 9.15 *L 0.000212 *D NOR3XL

*CAP
1 *138:B 6.26436e-05
2 *136:A 3.90432e-05
3 *143:B 1.81786e-05
4 *133:A 2.0983e-05
5 *152:A0 4.03519e-05
6 *82:6 0.000304761
7 *82:7 4.26764e-05
8 *82:8 5.30464e-05
9 *82:9 4.34492e-05
10 *82:10 0.000368178
11 *82:11 0.000408411016
12 *82:12 0.000331459
13 *82:12 *83:5 8.33868945e-05
14 *82:10 *138:A 0.00021326541
15 *133:A *84:11 8.35657129e-05
16 *143:B *93:7 0.00014567375
17 *82:6 *89:5 0.000126242637

*RES
1 *82:12 *82:11 19.5635567
2 *152:A0 *82:12 4.12072
3 *82:11 *170:Y 3.3001
4 *82:10 *82:11 9.60595
5 *82:9 *82:8 3.33622
6 *82:8 *82:10 3.91653
7 *82:7 *82:8 0.706886
8 *133:A *82:7 4.3658
9 *143:B *82:6 6.7593
10 *82:6 *82:10 13.1914
11 *136:A *82:9 1.4684
12 *138:B *82:6 7.87784
*END

*D_NET *83 0.00107402

*CONN
*I *175:Y O *C 14.32 9.735 *L 0 *D NOR2BX1
*I *170:A I *C 14.1 10.925 *L 0.000395 *D INVX1
*I *161:A1 I *C 7.1 13.205 *L 0.000392 *D AOI22X1
*I *159:A1 I *C 8.7 13.205 *L 0.000392 *D AOI22X1

*CAP
1 *175:Y 4.83388e-05
2 *159:A1 2.43204e-05
3 *161:A1 6.05606e-05
4 *83:4 0.000330032
5 *83:5 0.000366568555
6 *83:5 *82:12 8.33868945e-05
7 *83:5 *153:A1 0.00016081333

*RES
1 *161:A1 *83:5 8.13223
2 *83:5 *83:4 9.58240032
3 *159:A1 *83:5 6.82535
4 *83:4 *175:Y 4.22227
5 *170:A *83:4 3.29994
*END

*D_NET *84 0.00174379

*CONN
*I *174:Y O *C 22.155 7.74 *L 0 *D NAND2X1
*I *169:A I *C 11.1 16.435 *L 0.000395 *D INVX1
*I *150:B0 I *C 11.5 14.535 *L 0.000392 *D OAI22X1
*I *144:B I *C 23.5 14.725 *L 0.000212 *D NOR3XL
*I *134:B I *C 23.5 7.885 *L 0.000212 *D NOR3XL
*I *133:B I *C 23.7 9.215 *L 0.000212 *D NOR3XL
*I *130:B I *C 23.5 12.635 *L 0.000212 *D NOR3XL

*CAP
1 *133:B 5.24739e-06
2 *144:B 6.08104e-06
3 *134:B 5.66422e-06
4 *174:Y 3.02796e-05
5 *150:B0 5.7099e-05
6 *169:A 5.82352e-05
7 *84:7 9.57264e-05
8 *84:8 4.649e-05
9 *84:9 0.000149308
10 *84:10 6.13357e-05
11 *84:11 0.000333549
12 *84:12 0.000374197969
13 *84:12 *90:6 9.36985059e-05
14 *84:12 *89:7 9.25064063e-05
15 *84:11 *133:A 8.35657129e-05
16 *144:B *134:C 0.0001142025
17 *144:B *145:B 0.000136613848

*RES
1 *169:A *84:12 4.56357
2 *84:12 *84:11 16.3421631
3 *150:B0 *84:12 3.93493
4 *84:10 *174:Y 1.01989
5 *84:11 *84:9 2.17718
6 *134:B *84:8 3.40204
7 *84:8 *84:10 4.14589
8 *84:7 *84:8 0.381773
9 *84:9 *84:7 2.6168
10 *130:B *84:9 3.30005
11 *144:B *84:11 3.49281
12 *133:B *84:7 3.49281
*END

*D_NET *85 0.000304103

*CONN
*I *169:Y O *C 11.33 15.81 *L 0 *D INVX1
*I *158:B1 I *C 8.94 18.03 *L 0.000392 *D AOI22X1
*I *157:B1 I *C 10.54 18.03 *L 0.000392 *D AOI22X1

*CAP
1 *169:Y 2.3305e-05
2 *158:B1 5.07832e-05
3 *85:3 7.65924e-05
4 *85:4 7.7962876e-05
5 *85:5 7.54599e-05

*RES
1 *158:B1 *85:5 1.39461
2 *85:5 *85:4 3.64403
3 *157:B1 *85:4 6.60002232
4 *85:3 *169:Y 0.731143
5 *85:4 *85:3 4.33469
*END

*D_NET *86 0.00234199

*CONN
*I *173:Y O *C 20.35 9.265 *L 0 *D NAND2X2
*I *168:A I *C 11.3 13.015 *L 0.000395 *D INVX1
*I *152:B0 I *C 12.7 17.955 *L 0.000392 *D OAI22X1
*I *145:B I *C 23.5 16.055 *L 0.000212 *D NOR3XL
*I *135:B I *C 24.9 16.055 *L 0.000212 *D NOR3XL
*I *134:A I *C 23.36 7.95 *L 0.000212 *D NOR3XL
*I *132:B I *C 24.9 7.885 *L 0.000212 *D NOR3XL

*CAP
1 *135:B 1.46663e-05
2 *132:B 1.78853e-05
3 *145:B 1.50782e-05
4 *134:A 1.62716e-05
5 *173:Y 2.21718e-05
6 *152:B0 4.24945e-05
7 *168:A 0.000205102
8 *86:7 0.000284434
9 *86:8 0.00023925
10 *86:9 0.000199798
11 *86:10 0.0001294
12 *86:11 0.000352622
13 *86:12 0.000550806523
14 *145:B *144:B 0.000136613848
15 *135:B *1:18 0.00011539459

*RES
1 *168:A *86:12 17.7497864
2 *86:12 *86:11 16.6521
3 *152:B0 *86:12 7.19054
4 *86:10 *173:Y 0.774061
5 *86:9 *86:10 6.73173
6 *134:A *86:9 3.84241
7 *86:11 *86:8 1.11884
8 *145:B *86:11 6.8119
9 *86:7 *86:9 5.23182
10 *132:B *86:7 6.75909
11 *86:8 *86:7 12.3509
12 *135:B *86:8 6.8119
*END

*D_NET *87 0.000406861

*CONN
*I *168:Y O *C 11.53 12.39 *L 0 *D INVX1
*I *161:B1 I *C 7.54 12.75 *L 0.000392 *D AOI22X1
*I *159:B1 I *C 9.14 12.75 *L 0.000392 *D AOI22X1

*CAP
1 *168:Y 6.56247e-05
2 *159:B1 5.0071e-06
3 *161:B1 5.07241e-05
4 *87:3 0.000129699707
5 *87:4 8.7082e-05
6 *87:5 6.87239e-05

*RES
1 *161:B1 *87:5 1.39464
2 *87:5 *87:4 3.53813
3 *159:B1 *87:4 6.64917
4 *87:4 *87:3 4.49856
5 *87:3 *168:Y 7.7726841
*END

*D_NET *88 0.00207168

*CONN
*I *167:Y O *C 18.715 7.57 *L 0 *D NOR2X1
*I *163:A I *C 19.7 14.345 *L 0.000395 *D INVX1
*I *160:A1 I *C 9.3 14.155 *L 0.000392 *D AOI22X1
*I *156:A1 I *C 9.1 9.785 *L 0.000392 *D AOI22X1
*I *155:A1 I *C 9.5 16.625 *L 0.000392 *D AOI22X1
*I *154:A1 I *C 9.9 7.315 *L 0.000392 *D AOI22X1

*CAP
1 *163:A 2.47943e-05
2 *155:A1 5.9484e-05
3 *88:6 0.000264944
4 *88:7 0.000406324883
5 *88:8 0.000258861
6 *88:9 0.000300706
7 *88:10 0.000333908
8 *88:9 *167:A 0.000108242031
9 *88:9 *80:7 0.000138521191
10 *155:A1 *160:A0 8.85129004e-05
11 *155:A1 *160:B0 8.73804102e-05

*RES
1 *88:10 *88:9 2.7993
2 *156:A1 *88:10 3.29986
3 *88:8 *88:10 4.03507
4 *160:A1 *88:8 3.29986
5 *155:A1 *88:8 5.66916
6 *88:9 *88:7 13.5611296
7 *154:A1 *88:9 3.29986
8 *88:7 *167:Y 3.29986
9 *88:6 *88:7 8.99261
10 *163:A *88:6 0.9769
*END

*D_NET *89 0.00119567

*CONN
*I *163:Y O *C 19.93 14.97 *L 0 *D INVX1
*I *144:A I *C 23.36 14.79 *L 0.000212 *D NOR3XL
*I *142:A I *C 24.76 14.79 *L 0.000212 *D NOR3XL
*I *141:A I *C 24.76 21.63 *L 0.000212 *D NOR3XL
*I *131:B I *C 23.5 21.565 *L 0.000212 *D NOR3XL

*CAP
1 *141:A 5.44191e-05
2 *142:A 6.12135e-05
3 *131:B 2.2292e-05
4 *144:A 1.49619e-05
5 *163:Y 6.02023e-05
6 *89:5 0.000232517715
7 *89:6 0.000130655
8 *89:7 0.000180007
9 *89:7 *84:12 9.25064063e-05
10 *89:5 *82:6 0.000126242637
11 *131:B *131:A 0.000114679336
12 *142:A *142:B 0.000105977061

*RES
1 *89:7 *89:6 3.43754
2 *89:6 *163:Y 8.98213
3 *144:A *89:7 3.58644
4 *89:5 *89:7 9.54830647
5 *131:B *89:5 6.84988
6 *142:A *89:6 8.22612
7 *141:A *89:5 7.62134
*END

*D_NET *90 0.00176764

*CONN
*I *162:Y O *C 15.13 14.97 *L 0 *D INVX1
*I *150:A0 I *C 10.745 14.765 *L 0.000392 *D OAI22X1
*I *142:B I *C 24.9 14.725 *L 0.000212 *D NOR3XL
*I *137:B I *C 24.9 12.635 *L 0.000212 *D NOR3XL
*I *136:B I *C 24.9 11.305 *L 0.000212 *D NOR3XL
*I *132:A I *C 24.76 7.95 *L 0.000212 *D NOR3XL

*CAP
1 *142:B 7.51094e-06
2 *132:A 7.65317e-05
3 *162:Y 3.54025e-05
4 *150:A0 0.000135721
5 *90:6 0.000312272
6 *90:7 7.40301e-05
7 *90:8 5.41798e-05
8 *90:9 0.00010282
9 *90:10 4.98878e-05
10 *90:11 0.000408828242
11 *132:A *1:21 0.000215888027
12 *90:6 *84:12 9.36985059e-05
13 *90:6 *148:C 9.48905957e-05
14 *142:B *142:A 0.000105977061

*RES
1 *150:A0 *90:11 9.28443
2 *90:11 *90:10 6.77821
3 *90:10 *162:Y 1.39459
4 *90:9 *90:8 0.680256
5 *132:A *90:9 5.62861
6 *90:8 *90:7 0.778604
7 *136:B *90:8 3.30001
8 *90:7 *90:6 1.56188
9 *137:B *90:7 3.30001
10 *90:6 *90:11 12.7630234
11 *142:B *90:6 3.57246
*END

*D_NET *91 0.00118291

*CONN
*I *166:Y O *C 17.32 10.785 *L 0 *D NOR2BX1
*I *162:A I *C 14.9 14.345 *L 0.000395 *D INVX1
*I *158:A1 I *C 8.5 17.575 *L 0.000392 *D AOI22X1
*I *157:A1 I *C 10.1 17.575 *L 0.000392 *D AOI22X1

*CAP
1 *166:Y 7.045e-05
2 *157:A1 1.85946e-05
3 *158:A1 5.2213e-05
4 *91:4 0.000211658
5 *91:5 0.000404179102
6 *91:6 0.000333785
7 *91:6 *152:A1 9.20295703e-05

*RES
1 *158:A1 *91:6 8.02915
2 *91:6 *91:5 9.937644
3 *157:A1 *91:6 6.73463
4 *91:4 *166:Y 2.70322
5 *91:5 *91:4 5.65392
6 *162:A *91:5 3.29991
*END

*D_NET *92 0.00199258

*CONN
*I *165:Y O *C 22.35 11.74 *L 0 *D NAND2BX2
*I *153:B0 I *C 10.7 12.825 *L 0.000392 *D OAI22X1
*I *151:B0 I *C 10.5 11.115 *L 0.000392 *D OAI22X1
*I *141:B I *C 24.9 21.565 *L 0.000212 *D NOR3XL
*I *139:A I *C 24.76 19.41 *L 0.000212 *D NOR3XL
*I *138:A I *C 24.76 18.21 *L 0.000212 *D NOR3XL
*I *135:A I *C 24.76 15.99 *L 0.000212 *D NOR3XL

*CAP
1 *141:B 3.93398e-05
2 *138:A 6.79395e-06
3 *135:A 3.458e-06
4 *165:Y 2.1457e-05
5 *153:B0 4.02348e-05
6 *151:B0 5.63276e-05
7 *92:7 6.47314e-05
8 *92:8 0.000226676
9 *92:9 6.23486e-05
10 *92:10 5.60893e-05
11 *92:11 0.000380873672
12 *92:12 0.000219882
13 *92:13 0.000155389
14 *92:12 *40:4 0.000161886211
15 *138:A *82:10 0.00021326541
16 *92:7 *139:B 9.53674316e-05
17 *141:B *141:C 0.000188469883

*RES
1 *151:B0 *92:13 4.16222
2 *92:13 *92:12 4.55994
3 *153:B0 *92:13 3.79127
4 *92:12 *92:11 7.46862
5 *92:11 *165:Y 6.81192
6 *92:10 *92:9 1.0885
7 *135:A *92:8 3.43152
8 *138:A *92:9 3.3546
9 *139:A *92:10 3.29983
10 *92:8 *92:11 15.9517527
11 *92:9 *92:8 1.33799
12 *92:7 *92:10 0.710498
13 *141:B *92:7 4.65316
*END

*D_NET *93 0.00184971

*CONN
*I *164:Y O *C 21.15 11.2 *L 0 *D OR2X1
*I *153:A0 I *C 9.945 12.595 *L 0.000392 *D OAI22X1
*I *151:A0 I *C 9.745 11.345 *L 0.000392 *D OAI22X1
*I *145:A I *C 23.36 15.99 *L 0.000212 *D NOR3XL
*I *143:A I *C 23.36 18.21 *L 0.000212 *D NOR3XL
*I *140:A I *C 23.36 19.41 *L 0.000212 *D NOR3XL
*I *131:A I *C 23.36 21.63 *L 0.000212 *D NOR3XL

*CAP
1 *131:A 4.85758e-05
2 *153:A0 6.10972e-05
3 *151:A0 7.74513e-06
4 *93:7 8.89927e-05
5 *93:8 9.73912e-05
6 *93:9 0.000117004
7 *93:10 0.000202956
8 *93:11 0.000475704688
9 *93:12 0.000401614
10 *93:10 *146:A 8.82744824e-05
11 *93:7 *143:B 0.00014567375
12 *131:A *131:B 0.000114679336

*RES
1 *151:A0 *93:12 3.34679
2 *93:12 *93:11 16.2158012
3 *153:A0 *93:12 4.52036
4 *93:10 *93:11 7.02736
5 *93:11 *164:Y 3.30002
6 *93:9 *93:10 2.19944
7 *93:8 *93:9 4.91601
8 *93:7 *93:8 1.06594
9 *145:A *93:9 0.500063
10 *143:A *93:8 3.30002
11 *140:A *93:7 3.30002
12 *131:A *93:7 4.9405
*END

*D_NET *94 0.000375628

*CONN
*I *161:Y O *C 7.555 12.355 *L 0 *D AOI22X1
*I *153:A1 I *C 10.1 12.825 *L 0.000391 *D OAI22X1

*CAP
1 *161:Y 0.000107407568
2 *153:A1 0.000107407568
3 *153:A1 *83:5 0.00016081333

*RES
1 *153:A1 *161:Y 16.0674
*END

*D_NET *95 0.000131011

*CONN
*I *160:Y O *C 9.755 15.005 *L 0 *D AOI22X1
*I *150:A1 I *C 10.9 14.535 *L 0.000391 *D OAI22X1

*CAP
1 *150:A1 5.3287e-05
2 *160:Y 1.22185e-05
3 *95:2 6.55055029e-05

*RES
1 *95:2 *160:Y 3.40199
2 *150:A1 *95:2 4.24873829
*END

*D_NET *96 0.000181556

*CONN
*I *159:Y O *C 9.155 12.355 *L 0 *D AOI22X1
*I *153:B1 I *C 10.5 12.635 *L 0.000392 *D OAI22X1

*CAP
1 *159:Y 9.07778711e-05
2 *153:B1 9.07778711e-05

*RES
1 *153:B1 *159:Y 14.6803
*END

*D_NET *97 0.000339627

*CONN
*I *158:Y O *C 8.955 18.425 *L 0 *D AOI22X1
*I *152:A1 I *C 12.1 17.955 *L 0.000391 *D OAI22X1

*CAP
1 *152:A1 0.000107051
2 *158:Y 1.67483e-05
3 *97:2 0.000123798848
4 *152:A1 *91:6 9.20295703e-05

*RES
1 *97:2 *158:Y 6.75183
2 *152:A1 *97:2 9.48059559
*END

*D_NET *98 0.000223994

*CONN
*I *157:Y O *C 10.555 18.425 *L 0 *D AOI22X1
*I *152:B1 I *C 12.5 18.145 *L 0.000392 *D OAI22X1

*CAP
1 *152:B1 8.89295e-05
2 *157:Y 2.30676e-05
3 *98:2 0.000111997129

*RES
1 *98:2 *157:Y 6.75916
2 *152:B1 *98:2 8.42225552
*END

*D_NET *99 0.000226378

*CONN
*I *156:Y O *C 9.555 8.935 *L 0 *D AOI22X1
*I *151:B1 I *C 10.3 11.305 *L 0.000392 *D OAI22X1

*CAP
1 *156:Y 0.000113189219
2 *151:B1 0.000113189219

*RES
1 *151:B1 *156:Y 15.0818
*END

*D_NET *100 0.00021255

*CONN
*I *155:Y O *C 9.955 15.775 *L 0 *D AOI22X1
*I *150:B1 I *C 11.3 14.725 *L 0.000392 *D OAI22X1

*CAP
1 *155:Y 0.000106275078
2 *150:B1 0.000106275078

*RES
1 *150:B1 *155:Y 11.8579
*END

*D_NET *101 0.000266433

*CONN
*I *154:Y O *C 10.355 8.165 *L 0 *D AOI22X1
*I *151:A1 I *C 9.9 11.115 *L 0.000391 *D OAI22X1

*CAP
1 *154:Y 7.87969e-05
2 *151:A1 4.81015e-05
3 *101:2 8.51154297e-05
4 *101:3 5.44188e-05

*RES
1 *101:3 *101:2 0.188914
2 *151:A1 *101:3 4.22231
3 *101:2 *154:Y 4.91297245
*END

*D_NET *102 0.000356317

*CONN
*I *153:Y O *C 10.57 13.04 *L 0 *D OAI22X1
*I *149:C I *C 12.785 14.98 *L 0.000392 *D NOR4X1

*CAP
1 *153:Y 0.000178158281
2 *149:C 0.000178158281

*RES
1 *149:C *153:Y 16.4369
*END

*D_NET *103 0.000294089

*CONN
*I *152:Y O *C 12.57 17.74 *L 0 *D OAI22X1
*I *149:D I *C 13.005 14.53 *L 0.000392 *D NOR4X1

*CAP
1 *149:D 8.77982e-05
2 *152:Y 5.92464e-05
3 *103:2 0.000147044658

*RES
1 *103:2 *152:Y 4.41882
2 *149:D *103:2 5.08403778
*END

*D_NET *104 0.000462294

*CONN
*I *151:Y O *C 10.37 10.9 *L 0 *D OAI22X1
*I *149:A I *C 12.42 14.47 *L 0.000392 *D NOR4X1

*CAP
1 *151:Y 0.000173926348
2 *149:A 0.000173926348
3 *149:A *64:5 0.000114440918

*RES
1 *149:A *151:Y 17.0662
*END

*D_NET *105 0.000207782

*CONN
*I *150:Y O *C 11.37 14.32 *L 0 *D OAI22X1
*I *149:B I *C 12.625 14.79 *L 0.000392 *D NOR4X1

*CAP
1 *150:Y 0.000103890898
2 *149:B 0.000103890898

*RES
1 *149:B *150:Y 14.89
*END

*D_NET *106 0.000451207

*CONN
*I *149:Y O *C 13.14 15.175 *L 0 *D NOR4X1
*I *148:C I *C 17.7 14.345 *L 0.000392 *D NOR3BX1
*I *147:C I *C 16.365 14.41 *L 0.000212 *D NAND3BXL

*CAP
1 *148:C 5.1796e-05
2 *149:Y 0.000105261
3 *147:C 2.11012e-05
4 *106:3 0.000178158281
5 *148:C *90:6 9.48905957e-05

*RES
1 *147:C *106:3 6.75916
2 *106:3 *149:Y 9.86654
3 *148:C *106:3 11.215806
*END

*D_NET *107 0.000187159

*CONN
*I *147:Y O *C 16.56 14.86 *L 0 *D NAND3BXL
*I *129:C I *C 16.965 16.37 *L 0.000212 *D NAND3BXL

*CAP
1 *147:Y 9.35792969e-05
2 *129:C 9.35792969e-05

*RES
1 *129:C *147:Y 8.60322
*END

*D_NET *108 8.67844e-05

*CONN
*I *116:A I *C 22.1 14.535 *L 0.00021 *D BUFX2
*I *146:Y O *C 21.155 14.58 *L 0 *D NAND2X1

*CAP
1 *146:Y 4.33921826e-05
2 *116:A 4.33921826e-05

*RES
1 *116:A *146:Y 7.36153
*END

*D_NET *109 0.00147712

*CONN
*I *172:Y O *C 15.555 12.78 *L 0 *D NAND2X1
*I *148:B I *C 17.9 14.345 *L 0.000393 *D NOR3BX1
*I *126:G I *C 17.5 9.405 *L 0.00021 *D TLATX1
*I *125:G I *C 14.7 7.695 *L 0.00021 *D TLATX1
*I *124:G I *C 14.1 5.985 *L 0.00021 *D TLATX1
*I *123:G I *C 17.9 5.985 *L 0.00021 *D TLATX1

*CAP
1 *148:B 0.000178218
2 *123:G 3.314e-05
3 *172:Y 6.16314e-05
4 *124:G 3.20665e-05
5 *109:6 0.000188708
6 *109:7 0.000106872
7 *109:8 0.000217139727
8 *109:9 0.000203429
9 *109:10 0.000181256
10 *109:11 0.000159143
11 *109:9 *2:7 0.000115513799

*RES
1 *124:G *109:11 4.07913
2 *109:11 *109:10 1.06583
3 *109:10 *109:9 6.92944
4 *125:G *109:10 3.29998
5 *109:9 *172:Y 7.31907
6 *109:8 *109:11 5.79232
7 *109:7 *109:8 5.59654
8 *126:G *109:7 3.29998
9 *123:G *109:8 7.14662
10 *109:6 *109:7 0.272145
11 *148:B *109:6 7.38215446
*END

*D_NET *110 0.000323176

*CONN
*I *128:Y O *C 15.94 16.345 *L 0 *D AND2X1
*I *117:D I *C 12.435 16.075 *L 0.000209 *D TLATX1

*CAP
1 *128:Y 4.82799e-05
2 *117:D 0.000107288
3 *110:2 5.43002e-05
4 *110:3 0.000113308428

*RES
1 *117:D *110:3 9.14800167
2 *110:3 *110:2 0.173926
3 *110:2 *128:Y 7.31913
*END

*D_NET *111 0.000221252

*CONN
*I *186:Y O *C 13.34 8.765 *L 0 *D NOR4X1
*I *126:D I *C 16.235 9.235 *L 0.000209 *D TLATX1

*CAP
1 *126:D 8.303e-05
2 *186:Y 2.75962e-05
3 *111:2 0.000110626221

*RES
1 *111:2 *186:Y 7.04467
2 *126:D *111:2 8.6414814
*END

*D_NET *112 0.000190854

*CONN
*I *187:Y O *C 11.94 8.965 *L 0 *D AOI211XL
*I *125:D I *C 13.435 7.865 *L 0.000209 *D TLATX1

*CAP
1 *187:Y 9.5427041e-05
2 *125:D 9.5427041e-05

*RES
1 *125:D *187:Y 15.4467
*END

*D_NET *113 0.000225663

*CONN
*I *180:Y O *C 10.54 5.345 *L 0 *D NOR4X1
*I *124:D I *C 12.835 5.815 *L 0.000209 *D TLATX1

*CAP
1 *180:Y 0.000112831592
2 *124:D 0.000112831592

*RES
1 *124:D *180:Y 15.4477
*END

*D_NET *114 0.000823617

*CONN
*I *177:Y O *C 7.64 6.475 *L 0 *D NOR3BXL
*I *123:D I *C 16.635 5.815 *L 0.000209 *D TLATX1

*CAP
1 *123:D 3.22473e-05
2 *177:Y 2.33064e-05
3 *114:2 3.8265e-05
4 *114:3 0.000347971
5 *114:4 3.159e-05
6 *114:5 0.000350236875

*RES
1 *114:5 *114:4 3.3468
2 *114:4 *177:Y 3.8555
3 *114:3 *114:5 12.1273994
4 *114:2 *114:3 3.3468
5 *123:D *114:2 4.14437
*END

*D_NET *115 0.000329375

*CONN
*I *207:Y O *C 7.34 7.555 *L 0 *D NOR3X1
*I *180:D I *C 10.405 5.99 *L 0.000392 *D NOR4X1

*CAP
1 *207:Y 0.000122785566
2 *180:D 0.000122785566
3 *180:D *16:5 8.38041309e-05

*RES
1 *180:D *207:Y 16.6267
*END

