*SPEF "IEEE 1481-1998"
*DESIGN "aer_traditional"
*DATE "Wed Aug 19 15:27:26 2026"
*VENDOR "Cadence Design Systems, Inc."
*PROGRAM "Innovus"
*VERSION "23.14-s088_1"
*DESIGN_FLOW "COUPLING C" "PIN_CAP NONE" "NAME_SCOPE LOCAL"
*DIVIDER /
*DELIMITER :
*BUS_DELIMITER []
*T_UNIT 1 NS
*C_UNIT 1 PF
*R_UNIT 1 OHM
*L_UNIT 1 HENRY

// MMMC spef file for corner 'rc_180nm'

*NAME_MAP

*1 clk
*2 rst_n
*3 src_req[15]
*4 src_req[14]
*5 src_req[13]
*6 src_req[12]
*7 src_req[11]
*8 src_req[10]
*9 src_req[9]
*10 src_req[8]
*11 src_req[7]
*12 src_req[6]
*13 src_req[5]
*14 src_req[4]
*15 src_req[3]
*16 src_req[2]
*17 src_req[1]
*18 src_req[0]
*19 src_ack[15]
*20 src_ack[14]
*21 src_ack[13]
*22 src_ack[12]
*23 src_ack[11]
*24 src_ack[10]
*25 src_ack[9]
*26 src_ack[8]
*27 src_ack[7]
*28 src_ack[6]
*29 src_ack[5]
*30 src_ack[4]
*31 src_ack[3]
*32 src_ack[2]
*33 src_ack[1]
*34 src_ack[0]
*35 aer_addr[3]
*36 aer_addr[2]
*37 aer_addr[1]
*38 aer_addr[0]
*39 aer_req
*40 aer_ack
*41 state_q[1]
*42 state_q[0]
*43 n_0
*44 n_1
*45 n_2
*46 n_3
*47 n_4
*48 n_5
*49 n_6
*50 n_7
*51 n_8
*52 n_9
*53 n_10
*54 n_11
*55 n_12
*56 n_13
*57 n_15
*58 n_17
*59 n_18
*60 n_19
*61 n_20
*62 n_21
*63 n_22
*64 n_23
*65 n_24
*66 n_25
*67 n_26
*68 n_27
*69 n_28
*70 n_29
*71 n_30
*72 n_31
*73 n_32
*74 n_33
*75 n_34
*76 n_35
*77 n_36
*78 n_37
*79 n_38
*80 n_39
*81 n_40
*82 n_41
*83 n_44
*84 n_47
*85 n_52
*86 n_54
*87 n_56
*88 n_58
*89 n_60
*90 n_62
*91 n_63
*92 n_64
*93 n_68
*94 n_69
*95 n_70
*96 n_71
*97 n_72
*98 n_73
*99 n_74
*100 n_75
*101 n_76
*102 n_77
*103 n_78
*104 n_79
*105 n_80
*106 n_81
*107 n_82
*108 n_83
*109 n_84
*110 n_85
*111 n_86
*112 n_87
*113 n_88
*114 state_q_reg\[0\]
*115 g2761__2398
*116 grant_q_reg\[2\]
*117 grant_q_reg\[3\]
*118 grant_q_reg\[1\]
*119 g2753
*120 g2765__5107
*121 grant_q_reg\[0\]
*122 g2754__6260
*123 g2756
*124 g2758__4319
*125 g2757__8428
*126 g2759__5526
*127 g2760__6783
*128 g2762__3680
*129 g2768__1617
*130 g2763
*131 g2772__2802
*132 g2764__1705
*133 g2769__5122
*134 g2783__8246
*135 g2766__7098
*136 g2767__6131
*137 g2777__1881
*138 g2779__5115
*139 g2790__7482
*140 g2799__4733
*141 g2785__6161
*142 g2773__9315
*143 g2787__9945
*144 g2781__2883
*145 g2786__2346
*146 g2770__1666
*147 g2778__7410
*148 g2784__6417
*149 g2780__5477
*150 g2788__2398
*151 g2789__5107
*152 g2774__6260
*153 g2775__4319
*154 g2776__8428
*155 state_q_reg\[1\]
*156 g2795__5526
*157 g2797__6783
*158 g2771__3680
*159 g2782__1617
*160 g2791__2802
*161 g2792__1705
*162 g2793__5122
*163 g2798__8246
*164 g2811
*165 g2816__7098
*166 g2796__6131
*167 g2802__1881
*168 g2814__5115
*169 g2813__7482
*170 g2812__4733
*171 g2815__6161
*172 g2803__9315
*173 g2808__9945
*174 g2801__2883
*175 g2800__2346
*176 g2805__1666
*177 g2819__7410
*178 g2804__6417
*179 g2807__5477
*180 g2817__2398
*181 g2818__5107
*182 g2828
*183 g2821
*184 g2820__6260
*185 g2822
*186 g2826__4319
*187 g2824__8428
*188 g2810__5526
*189 g2829__6783
*190 g2831__3680
*191 g2832__1617
*192 g2809__2802
*193 g2833__1705
*194 g2823__5122
*195 g2825__8246
*196 g2830__7098
*197 g2827__6131
*198 g2840
*199 g2834
*200 g2839
*201 g2837
*202 g2843
*203 g2835
*204 g2841
*205 g2836
*206 g2838
*207 g2842


*PORTS

*1 I *C 0 0.28
*2 I *C 0 4.76
*3 I *C 0 90.44
*4 I *C 0 85.4
*5 I *C 0 80.36
*6 I *C 0 75.32
*7 I *C 0 70.28
*8 I *C 0 65.24
*9 I *C 0 60.2
*10 I *C 0 55.16
*11 I *C 0 50.12
*12 I *C 0 45.08
*13 I *C 0 40.04
*14 I *C 0 35
*15 I *C 0 29.96
*16 I *C 0 24.92
*17 I *C 0 19.88
*18 I *C 0 14.84
*19 O *C 93.06 18.76
*20 O *C 93.06 23.24
*21 O *C 93.06 27.72
*22 O *C 93.06 32.2
*23 O *C 93.06 36.68
*24 O *C 93.06 41.16
*25 O *C 93.06 45.64
*26 O *C 93.06 50.12
*27 O *C 93.06 54.6
*28 O *C 93.06 59.08
*29 O *C 93.06 63.56
*30 O *C 93.06 68.04
*31 O *C 93.06 72.52
*32 O *C 93.06 77
*33 O *C 93.06 81.48
*34 O *C 93.06 85.96
*35 O *C 93.06 0.28
*36 O *C 93.06 5.32
*37 O *C 93.06 9.8
*38 O *C 93.06 14.28
*39 O *C 93.06 90.44
*40 I *C 0 9.8


*D_NET *1 0.0120484

*CONN
*P *1 I *C 0 0.28 *L 0
*I *155:CK I *C 53.79 22.68 *L 0.003 *D DFFRHQX1
*I *121:CK I *C 37.95 22.68 *L 0.003 *D DFFRHQX1
*I *118:CK I *C 22.77 27.72 *L 0.003 *D DFFRHQX1
*I *117:CK I *C 37.29 27.72 *L 0.003 *D DFFRHQX1
*I *116:CK I *C 22.77 22.68 *L 0.003 *D DFFRHQX1
*I *114:CK I *C 52.47 27.72 *L 0.003 *D DFFRHQX1

*CAP
1 *1 0.000145728
2 *155:CK 0.000139843
3 *121:CK 0.000139843
4 *118:CK 6.32983e-05
5 *117:CK 0.000139843
6 *116:CK 0.000139843
7 *114:CK 0.000139843
8 *1:7 0.000324396
9 *1:8 0.000394065
10 *1:9 9.75014e-05
11 *1:10 0.000918825
12 *1:11 0.000882796
13 *1:12 0.000820585
14 *1:13 0.00096305
15 *1:14 0.000203957
16 *1:15 0.000179873
17 *1:16 0.000883748
18 *1:17 0.000875046
19 *1:18 0.00127286
20 *1:19 0.00127286
21 *1:20 0.000365669
22 *1:21 0.000120595
23 *1:22 0.000120595
24 *1:23 0.000295981
25 *1:24 0.000120595
26 *1:25 0.000367534
27 *1:26 0.000120595
28 *1:27 0.000120595
29 *1:28 0.000297865
30 *1:29 0.000120595

*RES
1 *1:26 *114:CK 3.2
2 *1:27 *1:26 3.2
3 *1:21 *117:CK 3.2
4 *1:28 *1:27 3.2
5 *1:29 *155:CK 3.2
6 *1:22 *1:21 3.2
7 *1:25 *1:28 1.404
8 *1:9 *1:29 3.2
9 *1:23 *1:22 3.2
10 *1:24 *121:CK 3.2
11 *1:10 *1:25 3.2
12 *1:10 *1:9 0.367676
13 *1:7 *118:CK 6.4000001
14 *1:20 *1:23 1.404
15 *1:11 *1:24 3.2
16 *1:11 *1:10 4.04482
17 *1:8 *116:CK 3.2
18 *1:8 *1:7 1.404
19 *1:12 *1:20 3.2
20 *1:12 *1:11 0.183887
21 *1:13 *1:8 3.2
22 *1:13 *1:12 4.04482
23 *1:14 *1:13 0.919238
24 *1:19 *1:14 3.2
25 *1:18 *1:19 6.08398
26 *1:17 *1:18 3.2
27 *1:16 *1:17 4.59639
28 *1:15 *1:16 0.155957
29 *1 *1:15 0.788379
*END

*D_NET *2 0.0124712

*CONN
*P *2 I *C 0 4.76 *L 0
*I *155:RN I *C 65.01 22.12 *L 0.004 *D DFFRHQX1
*I *121:RN I *C 49.17 22.12 *L 0.004 *D DFFRHQX1
*I *118:RN I *C 33.99 28.28 *L 0.004 *D DFFRHQX1
*I *117:RN I *C 48.51 28.28 *L 0.004 *D DFFRHQX1
*I *116:RN I *C 33.99 22.12 *L 0.004 *D DFFRHQX1
*I *114:RN I *C 63.69 28.28 *L 0.004 *D DFFRHQX1

*CAP
1 *2 0.00174552
2 *155:RN 0.000139846
3 *121:RN 0.000139846
4 *118:RN 0.000139846
5 *117:RN 3.98595e-05
6 *116:RN 0.000139846
7 *114:RN 0.000139846
8 *2:7 0.00043505
9 *2:8 0.00042043
10 *2:9 0.00101286
11 *2:10 0.00177098
12 *2:11 0.00132701
13 *2:12 0.000434753
14 *2:13 0.000250994
15 *2:14 0.000558466
16 *2:15 0.000259695
17 *2:16 0.000558466
18 *2:17 0.000112904
19 *2:18 0.00043805
20 *2:19 7.51792e-05
21 *2:20 0.00043805
22 *2:21 0.000901096
23 *2:22 0.00081027
24 *2:23 0.000182354

*RES
1 *2:23 *155:RN 3.2
2 *2:8 *2:23 0.36777
3 *117:RN *2:19 0.223885
4 *2:18 *121:RN 3.2
5 *2:7 *114:RN 3.2
6 *2:8 *2:7 1.71597
7 *2:20 *2:19 3.2
8 *2:18 *2:20 1.71597
9 *2:22 *2:7 3.2
10 *2:21 *2:20 3.2
11 *2:21 *2:22 4.04489
12 *2:17 *2:21 0.36777
13 *2:16 *2:17 0.155971
14 *2:14 *2:16 2.57396
15 *2:14 *2:15 0.155971
16 *2:13 *2:15 1.28705
17 *2:12 *118:RN 3.2
18 *2:12 *2:13 3.2
19 *2:11 *116:RN 3.2
20 *2:11 *2:12 1.71597
21 *2:9 *2:11 4.83597
22 *2:10 *2:9 3.2
23 *2 *2:10 9.42964268
*END

*D_NET *3 0.00931998

*CONN
*P *3 I *C 0 90.44 *L 0
*I *199:A I *C 20.79 57.4 *L 0.00346 *D INVX1
*I *172:B2 I *C 39.27 57.4 *L 0.00464 *D AOI33X1

*CAP
1 *3 0.000655471
2 *199:A 0.000475483
3 *172:B2 4.17277e-05
4 *3:3 9.79405e-05
5 *3:4 9.79405e-05
6 *3:5 0.000385835
7 *3:6 0.000324865
8 *3:7 0.000614912
9 *3:8 0.000614912
10 *3:9 0.000535072
11 *3:10 0.000526354
12 *3:11 0.0017102
13 *3:12 0.0017418
14 *3:13 0.000510806
15 *3:14 0.000152187
16 *3:15 0.000680906
17 *3:16 0.000153595

*RES
1 *3:16 *172:B2 0.223874
2 *3:4 *3:16 3.20004
3 *3:4 *3:3 0.312067
4 *3:5 *3:3 3.20004
5 *3:6 *3:5 1.28694
6 *3:6 *3:7 0.156033
7 *3:8 *3:7 3.3094
8 *3:13 *199:A 2.68594
9 *3:9 *3:8 0.156033
10 *3:14 *3:13 3.20004
11 *3:10 *3:9 2.57401
12 *3:14 *3:12 0.312067
13 *3:12 *3:10 3.20004
14 *3:12 *3:11 8.8920002
15 *3:15 *3:11 3.20004
16 *3 *3:15 3.54616
*END

*D_NET *4 0.00994029

*CONN
*P *4 I *C 0 85.4 *L 0
*I *181:A1 I *C 26.73 67.48 *L 0.00443 *D AOI21X1
*I *179:AN I *C 23.43 57.4 *L 0.0024 *D NAND3BX1
*I *171:B1 I *C 33.99 47.32 *L 0.00434 *D AOI22X1

*CAP
1 *4 0.00130361
2 *181:A1 6.33004e-05
3 *179:AN 0.000139849
4 *171:B1 0.000139849
5 *4:4 0.000450554
6 *4:5 0.000450554
7 *4:6 0.000100901
8 *4:7 0.00017057
9 *4:8 0.00121455
10 *4:9 0.000664032
11 *4:10 0.000120599
12 *4:11 0.000107045
13 *4:12 0.000671115
14 *4:13 0.000102126
15 *4:14 0.00133776
16 *4:15 8.16721e-05
17 *4:16 0.000896208
18 *4:17 0.000107045
19 *4:18 0.000865446
20 *4:19 9.34299e-05
21 *4:20 0.000120599
22 *4:12 *6:17 4.525e-05
23 *4:8 *6:18 4.525e-05
24 *4:17 *6:11 3.712e-05
25 *4:11 *6:12 3.712e-05
26 *4:4 *6:8 0.00024669
27 *4:5 *6:9 0.00024669
28 *4:4 *6:9 3.182e-05
29 *4:5 *6:10 3.182e-05
30 *4:16 *6:19 8.86e-06
31 *4:15 *6:20 8.85999317e-06

*RES
1 *4:20 *171:B1 3.19998
2 *4:10 *179:AN 3.19998
3 *4:4 *4:20 3.19998
4 *4:7 *4:10 3.19998
5 *4:5 *4:4 2.57397
6 *4:7 *4:6 0.367679
7 *4:9 *4:5 3.19998
8 *4:8 *4:6 3.19998
9 *4:9 *4:8 2.80802
10 *4:8 *4:12 3.43199
11 *4:11 *4:12 3.19998
12 *4:15 *181:A1 6.39996
13 *4:11 *4:17 0.551572
14 *4:15 *4:16 0.468004
15 *4:16 *4:17 3.19998
16 *4:16 *4:18 4.21204
17 *4:19 *4:18 3.19998
18 *4:13 *4:19 0.367679
19 *4:13 *4:14 0.155965
20 *4 *4:14 7.03950024
*END

*D_NET *5 0.0104901

*CONN
*P *5 I *C 0 80.36 *L 0
*I *204:A I *C 25.41 67.48 *L 0.00346 *D INVX1
*I *178:A0N I *C 20.79 68.6 *L 0.00247 *D AOI2BB1XL
*I *170:B1 I *C 34.65 53.48 *L 0.00434 *D AOI22X1
*I *159:C I *C 26.07 52.92 *L 0.004 *D OR4X2

*CAP
1 *5 0.000793834
2 *204:A 8.85997e-05
3 *178:A0N 0.000414007
4 *170:B1 0.000139844
5 *159:C 0.000139844
6 *5:5 0.000394542
7 *5:6 0.000489867
8 *5:7 0.000246884
9 *5:8 0.000269575
10 *5:9 0.000131406
11 *5:10 0.000226619
12 *5:11 0.000226619
13 *5:12 0.000473903
14 *5:13 0.000543587
15 *5:14 0.000484904
16 *5:15 0.00041522
17 *5:16 0.000130143
18 *5:17 0.000449337
19 *5:18 0.000757679
20 *5:19 0.000733526
21 *5:20 0.0008193
22 *5:21 0.000182363
23 *5:22 0.000200465
24 *5:12 *13:16 0.00033869
25 *5:13 *13:17 0.00033869
26 *5:10 *13:14 8.13e-06
27 *5:11 *13:15 8.12998723e-06
28 *5:7 *78:9 0.00014515
29 *5:8 *78:10 0.00014515
30 *5:8 *78:9 5.813e-05
31 *5:9 *78:10 5.813e-05
32 *5:5 *78:13 0.00020066
33 *5:6 *78:14 0.000200660002
34 *5:7 *56:2 8.357e-05
35 *5:8 *56:3 8.357e-05
36 *5:8 *56:4 3.468e-05
37 *5:9 *56:5 3.46800043e-05

*RES
1 *5:11 *170:B1 3.2
2 *5:11 *5:10 0.780007
3 *5:12 *5:10 3.2
4 *5:9 *159:C 3.2
5 *5:13 *5:12 2.39013
6 *5:9 *5:8 0.936021
7 *5:8 *5:13 3.2
8 *5:8 *5:7 1.09197
9 *5:22 *204:A 0.44766
10 *5:6 *5:7 0.551604
11 *5:5 *5:22 3.2
12 *5:6 *5:5 2.02799
13 *5:14 *5:5 3.2
14 *5:15 *5:14 2.02244
15 *5:21 *5:15 3.2
16 *5:17 *178:A0N 1.79064
17 *5:16 *5:21 0.367692
18 *5:18 *5:17 3.2
19 *5:16 *5:18 0.312029
20 *5:18 *5:19 3.27598
21 *5:20 *5:19 3.2
22 *5 *5:20 4.28164291
*END

*D_NET *6 0.0104172

*CONN
*P *6 I *C 0 75.32 *L 0
*I *181:B0 I *C 28.05 67.48 *L 0.00441 *D AOI21X1
*I *178:A1N I *C 21.45 68.04 *L 0.00223 *D AOI2BB1XL
*I *169:B1 I *C 37.95 47.32 *L 0.00434 *D AOI22X1
*I *136:D I *C 29.37 47.88 *L 0.00469 *D NOR4X1

*CAP
1 *6 7.77367e-05
2 *181:B0 6.33001e-05
3 *178:A1N 0.000184169
4 *169:B1 3.98629e-05
5 *136:D 4.2246e-05
6 *6:5 7.75791e-05
7 *6:6 0.000127487
8 *6:7 0.000127487
9 *6:8 0.000523477
10 *6:9 0.000563221
11 *6:10 5.31374e-05
12 *6:11 0.00052001
13 *6:12 0.000589692
14 *6:13 5.73128e-05
15 *6:14 0.000126994
16 *6:15 0.00129072
17 *6:16 0.00113452
18 *6:17 0.000368161
19 *6:18 0.00031329
20 *6:19 0.000147733
21 *6:20 7.80518e-05
22 *6:21 0.000413558
23 *6:22 0.000413558
24 *6:23 0.000526845
25 *6:24 0.000581715
26 *6:25 0.000468449
27 *6:26 0.000468449
28 *6:27 0.000103202
29 *6:28 0.000120613
30 *6:29 7.5196e-05
31 *6:17 *4:12 4.525e-05
32 *6:18 *4:8 4.525e-05
33 *6:11 *4:17 3.712e-05
34 *6:12 *4:11 3.712e-05
35 *6:8 *4:4 0.00024669
36 *6:9 *4:5 0.00024669
37 *6:9 *4:4 3.182e-05
38 *6:10 *4:5 3.182e-05
39 *6:19 *4:16 8.86e-06
40 *6:20 *4:15 8.85999317e-06

*RES
1 *6:29 *169:B1 0.223828
2 *6:7 *6:29 3.2
3 *6:5 *136:D 0.223828
4 *6:7 *6:6 0.155957
5 *6:28 *6:5 3.2
6 *6:8 *6:6 3.2
7 *6:9 *6:28 3.2
8 *6:9 *6:8 2.39014
9 *6:10 *6:9 0.183887
10 *6:24 *6:10 3.2
11 *6:24 *6:23 2.34004
12 *6:23 *6:22 0.183887
13 *6:22 *6:21 1.87197
14 *6:20 *181:B0 6.4000001
15 *6:18 *6:21 0.183887
16 *6:20 *6:19 0.312012
17 *6:18 *6:17 1.55996
18 *6:11 *6:19 3.2
19 *6:11 *6:17 3.2
20 *6:12 *6:11 2.57402
21 *6:13 *6:12 3.2
22 *6:14 *6:13 0.155957
23 *6:15 *6:14 3.2
24 *6:15 *178:A1N 0.895312
25 *6:16 *6:15 5.81943
26 *6:25 *6:16 3.2
27 *6:25 *6:26 2.02803
28 *6:27 *6:26 3.2
29 *6 *6:27 0.420605
*END

*D_NET *7 0.00750599

*CONN
*P *7 I *C 0 70.28 *L 0
*I *192:C I *C 26.73 63 *L 0.004 *D OR4X2
*I *172:A2 I *C 43.23 57.4 *L 0.00494 *D AOI33X1

*CAP
1 *7 0.000835496
2 *192:C 0.000139844
3 *172:A2 6.33009e-05
4 *7:3 0.000581482
5 *7:4 0.000566872
6 *7:5 0.000263003
7 *7:6 0.000193321
8 *7:7 0.000990279
9 *7:8 0.00165937
10 *7:9 0.000862032
11 *7:10 0.000102294
12 *7:11 0.00090381
13 *7:12 0.000238948
14 *7:13 0.000105991

*RES
1 *7:13 *172:A2 6.4000001
2 *7:13 *7:4 0.367676
3 *7:6 *192:C 3.2
4 *7:4 *7:3 2.34004
5 *7:6 *7:5 0.77998
6 *7:7 *7:3 3.2
7 *7:8 *7:5 3.2
8 *7:8 *7:7 4.96416
9 *7:9 *7:8 2.9417
10 *7:9 *7:12 0.936035
11 *7:10 *7:12 0.183887
12 *7:10 *7:11 0.312012
13 *7 *7:11 4.28164
*END

*D_NET *8 0.00523788

*CONN
*P *8 I *C 0 65.24 *L 0
*I *203:A I *C 30.03 67.48 *L 0.00346 *D INVX1
*I *192:D I *C 28.05 62.44 *L 0.00407 *D OR4X2
*I *173:B1 I *C 28.71 57.4 *L 0.00434 *D AOI22X1

*CAP
1 *8 0.000655466
2 *203:A 3.98574e-05
3 *192:D 0.000139844
4 *173:B1 3.98574e-05
5 *8:4 0.000113851
6 *8:5 0.000113851
7 *8:6 0.000103961
8 *8:7 0.000221471
9 *8:8 7.51883e-05
10 *8:9 0.000470446
11 *8:10 0.000407821
12 *8:11 0.000970321
13 *8:12 0.000979030938
14 *8:13 0.000689617
15 *8:14 7.51883e-05
16 *8:15 0.0001421

*RES
1 *8:8 *203:A 0.223837
2 *8:15 *8:8 3.19999
3 *8:14 *173:B1 0.223837
4 *8:4 *8:15 0.183832
5 *8:10 *8:14 3.19999
6 *8:5 *8:4 0.468
7 *8:9 *192:D 3.19999
8 *8:10 *8:9 1.404
9 *8:6 *8:5 0.183832
10 *8:9 *8:7 0.624022
11 *8:7 *8:6 0.311979
12 *8:11 *8:7 3.19999
13 *8:12 *8:11 4.22871447
14 *8:12 *8:13 0.156022
15 *8 *8:13 3.54623
*END

*D_NET *9 0.00804827

*CONN
*P *9 I *C 0 60.2 *L 0
*I *192:B I *C 26.07 64.68 *L 0.00412 *D OR4X2
*I *166:B1 I *C 30.03 63 *L 0.00419 *D OAI22X1
*I *158:A2 I *C 20.79 63 *L 0.00459 *D OAI31X1
*I *140:A1 I *C 35.97 57.4 *L 0.00363 *D AOI221XL

*CAP
1 *9 0.000801838
2 *192:B 6.32957e-05
3 *166:B1 0.000139846
4 *158:A2 0.000321162
5 *140:A1 0.000139846
6 *9:5 0.000497074
7 *9:6 0.000497074
8 *9:7 0.000127765
9 *9:8 5.80694e-05
10 *9:9 0.000317905
11 *9:10 0.000454116
12 *9:11 0.000686002
13 *9:12 0.000526336
14 *9:13 0.000244662
15 *9:14 0.0008273
16 *9:15 0.000356496
17 *9:16 0.000244662
18 *9:17 9.75062e-05
19 *9:18 0.000106204
20 *9:19 0.000117161
21 *9:20 0.000117161
22 *9:9 *10:22 0.00018801
23 *9:10 *10:17 0.00018801
24 *9:10 *10:22 0.00018494
25 *9:11 *10:17 0.00018494
26 *9:11 *10:22 3.182e-05
27 *9:12 *10:17 3.182e-05
28 *9:11 *10:17 0.00024863
29 *9:12 *10:14 0.000248629988

*RES
1 *9:6 *140:A1 3.2
2 *9:8 *166:B1 3.2
3 *9:6 *9:5 1.71602
4 *9:20 *192:B 6.4000001
5 *9:8 *9:7 0.155957
6 *9:9 *9:5 3.2
7 *9:19 *9:20 0.312012
8 *9:10 *9:7 3.2
9 *9:10 *9:9 1.65469
10 *9:11 *9:19 3.2
11 *9:11 *9:10 1.10312
12 *9:12 *9:11 2.57402
13 *9:18 *9:12 0.155957
14 *9:15 *158:A2 1.79062
15 *9:17 *9:18 0.367676
16 *9:16 *9:15 3.2
17 *9:16 *9:17 3.2
18 *9:13 *9:16 0.77998
19 *9:14 *9:13 3.2
20 *9 *9:14 4.28164
*END

*D_NET *10 0.00840406

*CONN
*P *10 I *C 0 55.16 *L 0
*I *192:A I *C 25.41 63.56 *L 0.00429 *D OR4X2
*I *168:B1 I *C 29.37 53.48 *L 0.00434 *D AOI22X1
*I *158:A1 I *C 21.45 63.56 *L 0.00469 *D OAI31X1
*I *146:A1 I *C 33.99 63.56 *L 0.00324 *D OAI21XL

*CAP
1 *10 0.000655463
2 *192:A 0.000139839
3 *168:B1 3.98608e-05
4 *158:A1 0.000139839
5 *146:A1 0.000139839
6 *10:5 0.000426736
7 *10:6 0.000454696
8 *10:7 0.000110175
9 *10:8 0.000207239
10 *10:9 0.000550254
11 *10:10 0.000262515
12 *10:11 0.000305375
13 *10:12 0.000407984
14 *10:13 0.00068962
15 *10:14 0.000334071
16 *10:15 0.000182362
17 *10:16 7.19979e-05
18 *10:17 0.000674393
19 *10:18 0.00014167
20 *10:19 0.00015173
21 *10:20 0.000120603
22 *10:21 0.000120603
23 *10:22 0.000423411
24 *10:22 *9:9 0.00018801
25 *10:17 *9:10 0.00018801
26 *10:22 *9:10 0.00018494
27 *10:17 *9:11 0.00018494
28 *10:22 *9:11 3.182e-05
29 *10:17 *9:12 3.182e-05
30 *10:17 *9:11 0.00024863
31 *10:14 *9:12 0.000248629988
32 *10:5 *80:7 0.00011162
33 *10:6 *80:6 0.00011162
34 *10:5 *80:5 6.187e-05
35 *10:6 *80:4 6.18700002e-05

*RES
1 *10:18 *192:A 3.2
2 *10:21 *146:A1 3.2
3 *10:16 *10:18 0.155957
4 *10:22 *10:21 3.2
5 *10:19 *168:B1 0.223828
6 *10:17 *10:16 6.4000001
7 *10:17 *10:22 2.39014
8 *10:15 *158:A1 3.2
9 *10:20 *10:19 3.2
10 *10:14 *10:17 1.4709
11 *10:7 *10:15 0.367676
12 *10:10 *10:20 3.2
13 *10:5 *10:14 3.2
14 *10:5 *10:7 0.155957
15 *10:11 *10:10 1.4709
16 *10:6 *10:5 2.34004
17 *10:11 *10:8 0.312012
18 *10:9 *10:6 3.2
19 *10:9 *10:8 0.919238
20 *10:12 *10:9 2.02246
21 *10:12 *10:13 0.155957
22 *10 *10:13 3.54619
*END

*D_NET *11 0.00729637

*CONN
*P *11 I *C 0 50.12 *L 0
*I *176:D I *C 24.75 48.44 *L 0.00474 *D NOR4BX1
*I *165:B1 I *C 44.55 53.48 *L 0.00434 *D AOI22X1
*I *159:D I *C 27.39 52.36 *L 0.00407 *D OR4X2

*CAP
1 *11 0.000793836
2 *176:D 0.000139844
3 *165:B1 0.000126245
4 *159:D 7.97331e-05
5 *11:4 0.000264364
6 *11:5 0.000158867
7 *11:6 0.000171222
8 *11:7 0.000394264
9 *11:8 0.000402964
10 *11:9 0.000530847
11 *11:10 0.000827993
12 *11:11 0.000958244688
13 *11:12 7.65455e-05
14 *11:13 0.000142095
15 *11:14 7.85049e-05
16 *11:15 0.000117033
17 *11:16 0.000458206
18 *11:17 0.000364699
19 *11:18 0.000238103
20 *11:19 0.000295011
21 *11:7 *60:6 0.0001748
22 *11:8 *60:7 0.000174799993
23 *11:7 *70:4 0.00016407
24 *11:8 *70:5 0.000164069993

*RES
1 *11:15 *159:D 0.44766
2 *11:18 *165:B1 0.671489
3 *11:14 *11:15 0.189922
4 *11:19 *11:18 3.2
5 *11:12 *11:14 0.22383
6 *11:17 *11:19 0.936021
7 *11:13 *11:12 3.2
8 *11:7 *11:17 3.2
9 *11:5 *176:D 3.2
10 *11:6 *11:13 0.183846
11 *11:8 *11:7 2.94173
12 *11:5 *11:4 0.312029
13 *11:4 *11:6 0.623993
14 *11:16 *11:8 0.156014
15 *11:11 *11:4 3.2
16 *11:11 *11:16 2.02244
17 *11:9 *11:11 2.57398
18 *11:9 *11:10 0.156014
19 *11 *11:10 4.28164291
*END

*D_NET *12 0.00731335

*CONN
*P *12 I *C 0 45.08 *L 0
*I *180:A1 I *C 28.05 43.4 *L 0.00314 *D AOI21XL
*I *176:C I *C 25.41 47.32 *L 0.00475 *D NOR4BX1
*I *173:A1 I *C 30.69 57.96 *L 0.00472 *D AOI22X1
*I *136:C I *C 30.03 47.32 *L 0.0049 *D NOR4X1

*CAP
1 *12 0.000570261
2 *180:A1 6.32955e-05
3 *176:C 6.32955e-05
4 *173:A1 6.32955e-05
5 *136:C 0.000139839
6 *12:5 0.000239169
7 *12:6 0.000264801
8 *12:7 0.00016329
9 *12:8 0.000255112
10 *12:9 9.83399e-05
11 *12:10 9.22234e-05
12 *12:11 0.000161899
13 *12:12 0.0001901
14 *12:13 0.000334664
15 *12:14 0.0008214
16 *12:15 0.000719701
17 *12:16 0.000638583
18 *12:17 8.83003e-05
19 *12:18 8.83003e-05
20 *12:19 0.000777632
21 *12:20 0.000777632
22 *12:21 0.0001206
23 *12:12 *15:21 6.162e-05
24 *12:13 *15:20 6.162e-05
25 *12:13 *15:21 4.898e-05
26 *12:14 *15:20 4.898e-05
27 *12:14 *15:21 5.822e-05
28 *12:15 *15:20 5.822e-05
29 *12:16 *15:19 0.00012197
30 *12 *15:18 0.000121970003

*RES
1 *12:21 *173:A1 6.4000001
2 *12:18 *12:21 3.2
3 *12:5 *136:C 3.2
4 *12:18 *12:17 0.183887
5 *12:9 *180:A1 6.4000001
6 *12:6 *12:5 0.624023
7 *12:19 *12:17 3.2
8 *12:9 *12:8 0.467969
9 *12:8 *12:6 0.551562
10 *12:20 *12:19 3.27598
11 *12:10 *176:C 6.4000001
12 *12:8 *12:7 0.312012
13 *12:12 *12:20 3.2
14 *12:11 *12:10 0.312012
15 *12:13 *12:7 3.2
16 *12:13 *12:12 0.919238
17 *12:14 *12:11 3.2
18 *12:14 *12:13 0.735449
19 *12:15 *12:14 3.49326
20 *12:16 *12:15 0.312012
21 *12 *12:16 3.54619
*END

*D_NET *13 0.00789368

*CONN
*P *13 I *C 0 40.04 *L 0
*I *205:A I *C 25.41 43.4 *L 0.00346 *D INVX1
*I *196:A I *C 22.11 53.48 *L 0.0043 *D NOR2X1
*I *140:B1 I *C 33.33 56.84 *L 0.0035 *D AOI221XL

*CAP
1 *13 0.000508462
2 *205:A 0.000139831
3 *196:A 6.32998e-05
4 *140:B1 0.000139831
5 *13:4 0.000207677
6 *13:5 0.000137995
7 *13:6 0.000115888
8 *13:7 0.000185569
9 *13:8 0.00023517
10 *13:9 0.0006392
11 *13:10 0.000426113
12 *13:11 0.000331038
13 *13:12 0.000331038
14 *13:13 0.000542625
15 *13:14 0.000164097
16 *13:15 0.000164097
17 *13:16 0.000622478
18 *13:17 0.000552797
19 *13:18 0.00078612
20 *13:19 0.000120602
21 *13:20 0.00078612
22 *13:16 *5:12 0.00033869
23 *13:17 *5:13 0.00033869
24 *13:14 *5:10 8.13e-06
25 *13:15 *5:11 8.12998723e-06

*RES
1 *13:14 *140:B1 3.2
2 *13:15 *13:14 0.312012
3 *13:16 *13:15 3.2
4 *13:17 *13:16 3.12559
5 *13:4 *13:17 3.2
6 *13:5 *196:A 6.4000001
7 *13:5 *13:4 0.624023
8 *13:19 *13:5 3.2
9 *13:6 *205:A 3.2
10 *13:20 *13:19 3.2
11 *13:7 *13:6 0.624023
12 *13:18 *13:20 3.43203
13 *13:8 *13:7 3.2
14 *13:9 *13:18 3.2
15 *13:9 *13:8 0.919238
16 *13:10 *13:9 1.83857
17 *13:11 *13:10 0.155957
18 *13:12 *13:11 1.4709
19 *13:13 *13:12 0.155957
20 *13 *13:13 2.81074
*END

*D_NET *14 0.00961467

*CONN
*P *14 I *C 0 35 *L 0
*I *196:B I *C 21.45 52.92 *L 0.00385 *D NOR2X1
*I *180:B0 I *C 29.37 43.4 *L 0.00319 *D AOI21XL
*I *168:A1 I *C 31.35 52.92 *L 0.00472 *D AOI22X1

*CAP
1 *14 0.000658228
2 *196:B 4.97468e-05
3 *180:B0 6.32975e-05
4 *168:A1 6.32975e-05
5 *14:4 0.000586332
6 *14:5 0.000525361
7 *14:6 0.00108167
8 *14:7 0.000587074
9 *14:8 0.000324113
10 *14:9 0.000324113
11 *14:10 0.000176507
12 *14:11 0.000167792
13 *14:12 0.000454158
14 *14:13 0.000454158
15 *14:14 0.000683696
16 *14:15 0.000468798
17 *14:16 0.000604355
18 *14:17 0.000182366
19 *14:18 0.000490568
20 *14:19 0.000120587
21 *14:20 0.00017139
22 *14:21 0.000110403
23 *14:22 0.000120587
24 *14:23 0.000143331
25 *14:24 0.000120587
26 *14:25 0.000134633
27 *14:4 *17:11 0.00025042
28 *14:5 *17:12 0.00025042
29 *14:4 *17:12 0.00012333
30 *14:5 *17:14 0.000123329982

*RES
1 *14:24 *168:A1 6.4000001
2 *14:25 *14:24 3.2
3 *14:23 *14:25 0.551562
4 *14:22 *180:B0 6.4000001
5 *14:12 *14:23 0.155957
6 *14:4 *14:22 3.2
7 *14:13 *14:12 2.20625
8 *14:5 *14:4 2.57402
9 *14:13 *14:21 0.155957
10 *14:5 *14:8 0.155957
11 *14:20 *14:21 0.367676
12 *14:9 *14:8 1.28701
13 *14:19 *14:20 3.2
14 *14:10 *14:9 0.155957
15 *14:18 *14:19 3.2
16 *14:18 *196:B 0.447656
17 *14:11 *14:10 0.551562
18 *14:15 *14:18 2.68594
19 *14:17 *14:11 3.2
20 *14:16 *14:15 3.2
21 *14:6 *14:17 0.367676
22 *14:6 *14:16 2.65195
23 *14:7 *14:6 2.34004
24 *14:14 *14:7 3.2
25 *14 *14:14 3.3624
*END

*D_NET *15 0.00963416

*CONN
*P *15 I *C 0 29.96 *L 0
*I *188:C I *C 22.11 42.84 *L 0.004 *D OR4X2
*I *165:A1 I *C 46.53 52.92 *L 0.00472 *D AOI22X1

*CAP
1 *15 7.77391e-05
2 *188:C 0.000139837
3 *165:A1 6.32964e-05
4 *15:3 0.000216948
5 *15:4 0.000286626
6 *15:5 0.000417786
7 *15:6 0.000351887
8 *15:7 0.000199537
9 *15:8 0.000335115
10 *15:9 0.000615097
11 *15:10 0.000623796
12 *15:11 0.000258175
13 *15:12 0.000249795
14 *15:13 0.000230272
15 *15:14 0.000230272
16 *15:15 0.00074822
17 *15:16 0.000103199
18 *15:17 0.00074822
19 *15:18 0.000665469
20 *15:19 0.000674169
21 *15:20 0.000623305
22 *15:21 0.000545247
23 *15:11 *63:6 0.00012559
24 *15:12 *63:7 0.00012559
25 *15:13 *63:6 9.44e-06
26 *15:14 *63:7 9.44000221e-06
27 *15:21 *12:12 6.162e-05
28 *15:20 *12:13 6.162e-05
29 *15:21 *12:13 4.898e-05
30 *15:20 *12:14 4.898e-05
31 *15:21 *12:14 5.822e-05
32 *15:20 *12:15 5.822e-05
33 *15:19 *12:16 0.00012197
34 *15:18 *12 0.000121970003
35 *15:11 *93:6 4.941e-05
36 *15:12 *93:7 4.941e-05
37 *15:13 *93:6 0.000115
38 *15:14 *93:7 0.000115
39 *15:11 *93:9 2.485e-05
40 *15:12 *93:8 2.48499976e-05

*RES
1 *15:7 *165:A1 6.4000001
2 *15:8 *15:7 0.77998
3 *15:5 *15:8 0.735449
4 *15:6 *15:5 1.24805
5 *15:11 *15:6 3.2
6 *15:12 *15:11 1.83857
7 *15:13 *15:12 0.0780273
8 *15:14 *15:13 1.28701
9 *15:21 *15:14 0.0780273
10 *15:20 *15:21 2.9417
11 *15:3 *15:20 3.2
12 *15:4 *188:C 3.2
13 *15:4 *15:3 0.624023
14 *15:9 *15:4 3.2
15 *15:10 *15:9 2.02246
16 *15:19 *15:10 0.155957
17 *15:18 *15:19 3.67715
18 *15:17 *15:18 3.2
19 *15:15 *15:17 3.43203
20 *15:16 *15:15 3.2
21 *15 *15:16 0.420605
*END

*D_NET *16 0.00855962

*CONN
*P *16 I *C 0 24.92 *L 0
*I *198:A I *C 37.29 43.4 *L 0.00346 *D INVX1
*I *188:D I *C 23.43 42.28 *L 0.00407 *D OR4X2
*I *171:A1 I *C 35.97 47.88 *L 0.00472 *D AOI22X1

*CAP
1 *16 0.000657921
2 *198:A 3.98609e-05
3 *188:D 8.34342e-05
4 *171:A1 6.32987e-05
5 *16:4 5.51204e-05
6 *16:5 0.000316006
7 *16:6 0.000246081
8 *16:7 0.000331376
9 *16:8 0.000331376
10 *16:9 6.96153e-05
11 *16:10 0.000124492
12 *16:11 0.000199814
13 *16:12 0.000214608
14 *16:13 7.51894e-05
15 *16:14 0.00072624
16 *16:15 0.000442138
17 *16:16 0.000453275
18 *16:17 0.000399285
19 *16:18 0.000398388
20 *16:19 0.00060033
21 *16:20 0.000153083
22 *16:21 0.000182361
23 *16:22 7.85139e-05
24 *16:23 0.000120735
25 *16:24 0.000606181
26 *16:25 0.000573501
27 *16:26 0.000563328
28 *16:27 0.000100024
29 *16:28 0.000221601
30 *16:29 0.000132438

*RES
1 *16:11 *171:A1 6.4000001
2 *16:12 *16:11 0.77998
3 *16:13 *198:A 0.223828
4 *16:12 *16:29 0.183887
5 *16:28 *16:13 3.2
6 *16:28 *16:29 0.467969
7 *16:27 *16:28 0.467969
8 *16:9 *16:27 0.183887
9 *16:10 *16:9 0.155957
10 *16:26 *16:10 3.2
11 *16:23 *188:D 0.447656
12 *16:24 *16:26 2.57402
13 *16:22 *16:23 0.189941
14 *16:24 *16:25 0.312012
15 *16:20 *16:22 0.223828
16 *16:19 *16:25 1.83857
17 *16:21 *16:20 3.2
18 *16:4 *16:19 3.2
19 *16:5 *16:21 0.367676
20 *16:5 *16:4 0.155957
21 *16:6 *16:5 0.936035
22 *16:7 *16:6 0.183887
23 *16:8 *16:7 1.71602
24 *16:8 *16:18 0.183887
25 *16:16 *16:18 1.71602
26 *16:17 *16:16 3.2
27 *16:15 *16:17 2.02246
28 *16:14 *16:15 0.312012
29 *16 *16:14 3.54619
*END

*D_NET *17 0.0108445

*CONN
*P *17 I *C 0 19.88 *L 0
*I *188:B I *C 21.45 44.52 *L 0.00412 *D OR4X2
*I *170:A1 I *C 36.63 52.92 *L 0.00472 *D AOI22X1
*I *133:B1 I *C 32.01 42.28 *L 0.00332 *D OAI221XL
*I *128:D I *C 24.09 37.8 *L 0.00305 *D OR4X1

*CAP
1 *17 0.00079384
2 *188:B 6.33039e-05
3 *170:A1 6.33039e-05
4 *133:B1 8.85987e-05
5 *128:D 0.000139844
6 *17:5 0.00039294
7 *17:6 0.000471865
8 *17:7 0.000224925
9 *17:8 0.000155256
10 *17:9 0.000976836094
11 *17:10 0.000910924
12 *17:11 0.000498368
13 *17:12 0.000485981
14 *17:13 0.000146358
15 *17:14 0.00020364
16 *17:15 6.78203e-05
17 *17:16 6.78203e-05
18 *17:17 0.00042542
19 *17:18 0.000355736
20 *17:19 0.000147163
21 *17:20 0.000202045
22 *17:21 0.000370642
23 *17:22 0.000370642
24 *17:23 0.000195248
25 *17:24 0.000140351
26 *17:25 0.000862153
27 *17:26 0.000381597
28 *17:27 0.000338729
29 *17:28 0.000234614
30 *17:29 0.000200465
31 *17:30 0.000120601
32 *17:11 *14:4 0.00025042
33 *17:12 *14:5 0.00025042
34 *17:12 *14:4 0.00012333
35 *17:14 *14:5 0.000123329982

*RES
1 *17:30 *170:A1 6.4000001
2 *17:17 *17:30 3.2
3 *17:18 *17:17 1.10312
4 *17:23 *17:18 3.2
5 *17:24 *17:23 0.467969
6 *17:24 *17:21 0.183887
7 *17:22 *17:21 1.55996
8 *17:29 *133:B1 0.447656
9 *17:19 *17:22 0.183887
10 *17:15 *188:B 6.4000001
11 *17:8 *17:29 3.2
12 *17:20 *17:19 0.467969
13 *17:16 *17:15 0.155957
14 *17:8 *17:7 0.467969
15 *17:13 *17:20 3.2
16 *17:14 *17:16 3.2
17 *17:11 *17:7 3.2
18 *17:11 *17:13 0.551562
19 *17:14 *17:12 0.735449
20 *17:12 *17:11 1.83857
21 *17:5 *17:12 6.4000001
22 *17:6 *128:D 3.2
23 *17:6 *17:5 1.71602
24 *17:28 *17:6 0.467969
25 *17:9 *17:28 0.735449
26 *17:10 *17:9 4.21201
27 *17:27 *17:10 3.2
28 *17:26 *17:27 1.65469
29 *17:25 *17:26 0.312012
30 *17 *17:25 4.28164
*END

*D_NET *18 0.0110737

*CONN
*P *18 I *C 0 14.84 *L 0
*I *188:A I *C 20.79 43.4 *L 0.00429 *D OR4X2
*I *169:A1 I *C 39.93 47.88 *L 0.00472 *D AOI22X1
*I *128:C I *C 22.77 38.36 *L 0.00288 *D OR4X1
*I *125:A2 I *C 39.27 42.84 *L 0.00351 *D OAI32XL

*CAP
1 *18 0.000553525
2 *188:A 0.000583396
3 *169:A1 6.33081e-05
4 *128:C 6.33081e-05
5 *125:A2 0.000139843
6 *18:5 0.000141651
7 *18:6 7.19771e-05
8 *18:7 0.000207411
9 *18:8 0.000222198
10 *18:9 0.00104431
11 *18:10 0.00094187
12 *18:11 0.000248477
13 *18:12 0.000908408
14 *18:13 0.000716204
15 *18:14 0.000139942
16 *18:15 0.000194829
17 *18:16 0.00138255
18 *18:17 0.000578987
19 *18:18 0.0016232
20 *18:19 0.000618716
21 *18:20 0.000361248
22 *18:21 0.000206817
23 *18:22 6.15e-05

*RES
1 *18:7 *169:A1 6.40001
2 *18:8 *18:7 0.779952
3 *18:14 *18:8 0.183831
4 *18:15 *125:A2 3.19995
5 *18:15 *18:14 0.623962
6 *18:22 *18:15 3.19995
7 *18:21 *18:22 0.183831
8 *18:9 *18:21 0.779952
9 *18:6 *128:C 6.40001
10 *18:10 *18:9 3.86097
11 *18:6 *18:5 0.15599
12 *18:11 *18:10 0.311981
13 *18:12 *18:5 3.19995
14 *18:12 *18:11 0.551596
15 *18:19 *188:A 3.35738
16 *18:13 *18:12 3.30948
17 *18:20 *18:19 3.19995
18 *18:18 *18:13 3.19995
19 *18:18 *18:20 1.24803
20 *18:16 *18:18 6.70800018
21 *18:17 *18:16 3.19995
22 *18 *18:17 2.99463
*END

*D_NET *19 0.00359063

*CONN
*P *19 O *C 93.06 18.76 *L 0
*I *141:Y O *C 68.31 26.6 *L 0 *D NOR2BXL

*CAP
1 *19 0.00116523
2 *141:Y 8.45749e-05
3 *19:2 0.000515117
4 *19:3 0.00119068
5 *19:4 0.000119913
6 *19:5 0.000515117

*RES
1 *19:3 *19 6.30407143
2 *19:2 *19:3 3.20004
3 *19:2 *19:5 2.18395
4 *19:4 *19:5 3.20004
5 *141:Y *19:4 0.44768
*END

*D_NET *20 0.00312714

*CONN
*P *20 O *C 93.06 23.24 *L 0
*I *142:Y O *C 72.27 27.72 *L 0 *D NOR2XL

*CAP
1 *20 7.77439e-05
2 *142:Y 8.23871e-05
3 *20:2 0.000119687
4 *20:3 0.000429019
5 *20:4 0.0006777
6 *20:5 0.000429019
7 *20:6 0.000266323
8 *20:7 0.000103204
9 *20:8 0.000675735
10 *20:9 0.000266323

*RES
1 *20:7 *20 0.420647
2 *20:6 *20:7 3.2
3 *20:6 *20:9 0.935991
4 *20:8 *20:9 3.2
5 *20:4 *20:8 3.80504346
6 *20:4 *20:5 0.189915
7 *20:3 *20:5 2.23828
8 *20:2 *20:3 0.189915
9 *142:Y *20:2 0.447645
*END

*D_NET *21 0.0033582

*CONN
*P *21 O *C 93.06 27.72 *L 0
*I *143:Y O *C 68.31 33.88 *L 0 *D NOR2BXL

*CAP
1 *21 0.00116523
2 *143:Y 7.56178e-05
3 *21:2 0.000328616
4 *21:3 0.000328616
5 *21:4 0.00119068
6 *21:5 0.000156523
7 *21:6 0.000112918

*RES
1 *21:4 *21 6.30407143
2 *21:3 *21:4 3.20004
3 *21:3 *21:2 1.09198
4 *21:5 *21:2 3.20004
5 *21:5 *21:6 0.189884
6 *143:Y *21:6 0.44768
*END

*D_NET *22 0.00255006

*CONN
*P *22 O *C 93.06 32.2 *L 0
*I *144:Y O *C 71.61 32.76 *L 0 *D NOR2XL

*CAP
1 *22 0.00109724
2 *144:Y 0.000139843
3 *22:2 0.000120593
4 *22:3 0.00119238

*RES
1 *22:3 *22 5.93635702
2 *22:2 *22:3 3.19998
3 *144:Y *22:2 3.19998
*END

*D_NET *23 0.00269898

*CONN
*P *23 O *C 93.06 36.68 *L 0
*I *145:Y O *C 70.95 36.68 *L 0 *D NOR2BXL

*CAP
1 *23 0.000519536
2 *145:Y 8.23883e-05
3 *23:2 0.000119686
4 *23:3 0.00046889
5 *23:4 0.000187979
6 *23:5 0.00046889
7 *23:6 0.000186008
8 *23:7 0.000120601
9 *23:8 0.000545

*RES
1 *23:8 *23 2.81079
2 *23:7 *23:8 3.20000005
3 *23:6 *23:7 3.20000005
4 *23:4 *23:6 0.895312
5 *23:4 *23:5 0.189893
6 *23:3 *23:5 2.46211
7 *23:2 *23:3 0.189893
8 *145:Y *23:2 0.447656
*END

*D_NET *24 0.00279217

*CONN
*P *24 O *C 93.06 41.16 *L 0
*I *137:Y O *C 71.61 42.84 *L 0 *D NOR2XL

*CAP
1 *24 0.000247666
2 *137:Y 0.000965825
3 *24:2 0.000152202
4 *24:3 0.000273117
5 *24:4 0.00100116
6 *24:5 0.000152202

*RES
1 *24:3 *24 1.33991
2 *24:2 *24:3 3.19998
3 *24:2 *24:5 0.311989
4 *24:4 *24:5 3.19998
5 *137:Y *24:4 5.5956521
*END

*D_NET *25 0.00303108

*CONN
*P *25 O *C 93.06 45.64 *L 0
*I *154:Y O *C 68.97 47.88 *L 0 *D AND2XL

*CAP
1 *25 0.000655463
2 *154:Y 0.000139839
3 *25:2 8.47832e-05
4 *25:3 0.000154466
5 *25:4 0.000657809
6 *25:5 0.000649107
7 *25:6 0.00068962

*RES
1 *25:6 *25 3.54621434
2 *25:6 *25:4 0.156002
3 *25:5 *25:4 3.12556
4 *25:2 *154:Y 3.20001
5 *25:3 *25:5 3.20001
6 *25:3 *25:2 0.312004
*END

*D_NET *26 0.00288101

*CONN
*P *26 O *C 93.06 50.12 *L 0
*I *147:Y O *C 70.95 46.76 *L 0 *D NOR2BXL

*CAP
1 *26 7.77374e-05
2 *147:Y 0.00115164
3 *26:2 0.00118698
4 *26:3 0.000180723
5 *26:4 0.000180723
6 *26:5 0.000103203

*RES
1 *26:5 *26 0.420596
2 *26:4 *26:5 3.20001
3 *26:3 *26:4 0.468035
4 *26:2 *26:3 3.20001
5 *147:Y *26:2 6.71478271
*END

*D_NET *27 0.00294036

*CONN
*P *27 O *C 93.06 54.6 *L 0
*I *138:Y O *C 68.31 56.84 *L 0 *D NOR2BXL

*CAP
1 *27 0.00106326
2 *138:Y 4.12142e-05
3 *27:2 7.65329e-05
4 *27:3 0.000120603
5 *27:4 0.000163832
6 *27:5 0.0011999
7 *27:6 0.000275024

*RES
1 *27:5 *27 5.75250006
2 *27:5 *27:6 0.624001
3 *27:4 *27:6 0.735389
4 *27:3 *27:4 3.19997
5 *27:2 *27:3 3.19997
6 *138:Y *27:2 0.223829
*END

*D_NET *28 0.00276687

*CONN
*P *28 O *C 93.06 59.08 *L 0
*I *148:Y O *C 71.61 57.96 *L 0 *D NOR2XL

*CAP
1 *28 7.77374e-05
2 *148:Y 0.00115164
3 *28:2 0.00118698
4 *28:3 0.000123652
5 *28:4 0.000123652
6 *28:5 0.000103203

*RES
1 *28:5 *28 0.420596
2 *28:4 *28:5 3.20001
3 *28:3 *28:4 0.156046
4 *28:2 *28:3 3.20001
5 *148:Y *28:2 6.71478271
*END

*D_NET *29 0.00273545

*CONN
*P *29 O *C 93.06 63.56 *L 0
*I *149:Y O *C 68.31 64.12 *L 0 *D NOR2BXL

*CAP
1 *29 0.00072344
2 *149:Y 4.12122e-05
3 *29:2 7.65403e-05
4 *29:3 0.000120596
5 *29:4 0.000503679
6 *29:5 0.0007576
7 *29:6 0.000512384

*RES
1 *29:5 *29 3.91392851
2 *29:5 *29:6 0.155993
3 *29:4 *29:6 2.57401
4 *29:3 *29:4 3.20001
5 *29:2 *29:3 3.20001
6 *149:Y *29:2 0.223837
*END

*D_NET *30 0.003212

*CONN
*P *30 O *C 93.06 68.04 *L 0
*I *150:Y O *C 71.61 63 *L 0 *D NOR2XL

*CAP
1 *30 7.77439e-05
2 *150:Y 7.32559e-05
3 *30:2 0.000110556
4 *30:3 0.000452059
5 *30:4 0.000452059
6 *30:5 0.0006777
7 *30:6 0.000675735
8 *30:7 0.000294844
9 *30:8 0.000294844
10 *30:9 0.000103204

*RES
1 *30:9 *30 0.420647
2 *30:8 *30:9 3.2
3 *30:7 *30:8 1.092
4 *30:6 *30:7 3.2
5 *30:5 *30:6 3.80504346
6 *30:4 *30:5 0.189915
7 *30:3 *30:4 2.46211
8 *30:3 *30:2 0.189915
9 *150:Y *30:2 0.447645
*END

*D_NET *31 0.00384931

*CONN
*P *31 O *C 93.06 72.52 *L 0
*I *139:Y O *C 61.71 66.92 *L 0 *D NOR2BXL

*CAP
1 *31 0.00157302
2 *139:Y 0.000139835
3 *31:2 0.000234156
4 *31:3 0.000303817
5 *31:4 0.00159848

*RES
1 *31:4 *31 8.5103569
2 *31:3 *31:4 3.19995
3 *31:2 *31:3 1.09197
4 *139:Y *31:2 3.19995
*END

*D_NET *32 0.00330986

*CONN
*P *32 O *C 93.06 77 *L 0
*I *151:Y O *C 71.61 68.04 *L 0 *D NOR2XL

*CAP
1 *32 0.00102928
2 *151:Y 6.97527e-05
3 *32:2 0.000105096
4 *32:3 0.000525495
5 *32:4 0.000525495
6 *32:5 0.00105474

*RES
1 *32:5 *32 5.56864309
2 *32:4 *32:5 3.2
3 *32:3 *32:4 2.34001
4 *32:2 *32:3 3.2
5 *151:Y *32:2 0.447626
*END

*D_NET *33 0.00443408

*CONN
*P *33 O *C 93.06 81.48 *L 0
*I *152:Y O *C 65.67 68.04 *L 0 *D AND2XL

*CAP
1 *33 0.0014031
2 *152:Y 6.33026e-05
3 *33:2 0.000801049
4 *33:3 0.000738073
5 *33:4 0.00142856

*RES
1 *33:4 *33 7.59107161
2 *33:2 *33:4 3.20005
3 *33:3 *33:2 3.58797
4 *152:Y *33:3 6.39999
*END

*D_NET *34 0.0045836

*CONN
*P *34 O *C 93.06 85.96 *L 0
*I *153:Y O *C 68.31 66.92 *L 0 *D NOR2BXL

*CAP
1 *34 0.00123317
2 *153:Y 6.33017e-05
3 *34:2 0.00104573
4 *34:3 0.000982751
5 *34:4 0.00125864

*RES
1 *34:4 *34 6.67178583
2 *34:2 *34:4 3.19999
3 *34:3 *34:2 4.83597
4 *153:Y *34:3 6.39997
*END

*D_NET *35 0.0215051

*CONN
*P *35 O *C 93.06 0.28 *L 0
*I *202:A I *C 61.71 53.48 *L 0.00346 *D INVX1
*I *194:A I *C 39.27 53.48 *L 0.0043 *D NOR2X1
*I *189:A I *C 50.49 53.48 *L 0.0043 *D NOR2X1
*I *172:B1 I *C 39.93 57.96 *L 0.00474 *D AOI33X1
*I *161:B I *C 69.63 53.48 *L 0.00375 *D NAND2X1
*I *160:B I *C 61.71 57.96 *L 0.00385 *D NOR2X1
*I *131:A1 I *C 47.85 58.52 *L 0.00348 *D OAI221XL
*I *126:B1 I *C 36.63 37.24 *L 0.00434 *D AOI22X1
*I *117:Q O *C 49.83 26.6 *L 0 *D DFFRHQX1

*CAP
1 *35 0.00177693
2 *202:A 7.97457e-05
3 *194:A 6.32809e-05
4 *189:A 6.32809e-05
5 *172:B1 3.98502e-05
6 *161:B 0.00013986
7 *160:B 8.44951e-05
8 *131:A1 0.00013986
9 *126:B1 0.00013986
10 *117:Q 0.00013986
11 *35:10 0.000501859
12 *35:11 0.000501859
13 *35:12 0.000224355
14 *35:13 0.000224355
15 *35:14 0.000304825
16 *35:15 0.000166367
17 *35:16 0.000252264
18 *35:17 0.000281032
19 *35:18 0.000707172
20 *35:19 0.000157682
21 *35:20 0.000157682
22 *35:21 0.000149721
23 *35:22 0.00084088
24 *35:23 0.000704593
25 *35:24 0.000507016
26 *35:25 0.000507016
27 *35:26 0.000762763
28 *35:27 0.000622134
29 *35:28 0.000267281
30 *35:29 0.000108559
31 *35:30 0.000154018
32 *35:31 0.000149404
33 *35:32 0.00018939
34 *35:33 0.000209609
35 *35:34 7.51771e-05
36 *35:35 0.000569211
37 *35:36 0.00158152
38 *35:37 0.00296434
39 *35:38 0.00150341
40 *35:39 0.000120591
41 *35:40 0.000650676
42 *35:41 0.00181108
43 *35:42 0.000577896
44 *35:43 0.000115073
45 *35:30 *53:6 6.999e-05
46 *35:26 *53:7 6.999e-05
47 *35:26 *53:8 3.343e-05
48 *35:27 *53:9 3.343e-05
49 *35:17 *53:11 5.17e-06
50 *35:31 *53:10 5.17000837e-06

*RES
1 *35:20 *161:B 3.20005
2 *35:20 *35:19 0.31201
3 *35:43 *202:A 0.447699
4 *35:24 *35:19 3.20005
5 *35:31 *35:43 3.20005
6 *35:25 *35:24 2.57398
7 *35:31 *35:17 0.31201
8 *35:17 *35:25 3.20005
9 *35:17 *35:16 0.936031
10 *35:18 *35:16 3.20005
11 *35:18 *160:B 0.447699
12 *35:34 *172:B1 0.223849
13 *35:40 *35:18 3.35745
14 *35:29 *194:A 6.39995
15 *35:33 *35:34 3.20005
16 *35:15 *189:A 6.39995
17 *35:32 *35:40 3.20005
18 *35:41 *35 9.61349964
19 *35:12 *131:A1 3.20005
20 *35:29 *35:28 0.624021
21 *35:28 *35:33 0.624021
22 *35:15 *35:14 0.624021
23 *35:14 *35:32 0.624021
24 *35:41 *35:42 0.155932
25 *35:13 *35:12 0.779953
26 *35:27 *35:28 3.20005
27 *35:30 *35:14 3.20005
28 *35:35 *35:42 2.94173
29 *35:26 *35:13 3.20005
30 *35:27 *35:26 2.39017
31 *35:26 *35:30 0.735359
32 *35:36 *35:35 3.20005
33 *35:38 *35:26 3.20005
34 *35:39 *117:Q 3.20005
35 *35:36 *35:37 7.95605
36 *35:37 *35:38 7.33202
37 *35:21 *35:39 3.20005
38 *35:22 *35:37 3.20005
39 *35:22 *35:21 0.551556
40 *35:10 *126:B1 3.20005
41 *35:23 *35:22 3.12553
42 *35:11 *35:10 2.18407
43 *35:11 *35:23 3.20005
*END

*D_NET *36 0.0210275

*CONN
*P *36 O *C 93.06 5.32 *L 0
*I *207:A I *C 53.13 47.32 *L 0.00346 *D INVX1
*I *197:B I *C 66.99 37.24 *L 0.00375 *D NAND2X1
*I *195:B I *C 63.69 47.88 *L 0.00385 *D NOR2X1
*I *194:B I *C 38.61 52.92 *L 0.00385 *D NOR2X1
*I *191:B I *C 52.47 52.92 *L 0.00385 *D NOR2X1
*I *190:B I *C 66.33 43.4 *L 0.00375 *D NAND2X1
*I *122:A1 I *C 31.35 33.32 *L 0.00443 *D AOI21X1
*I *116:Q O *C 35.31 23.8 *L 0 *D DFFRHQX1

*CAP
1 *36 0.001641
2 *207:A 6.21994e-05
3 *197:B 4.22572e-05
4 *195:B 0.000139822
5 *194:B 6.33011e-05
6 *191:B 4.17205e-05
7 *190:B 0.000139822
8 *122:A1 0.000122365
9 *116:Q 0.000139822
10 *36:9 0.000570077
11 *36:10 0.000633067
12 *36:11 0.000405765
13 *36:12 0.000406358
14 *36:13 7.70855e-05
15 *36:14 9.75362e-05
16 *36:15 0.000476297
17 *36:16 0.000463021
18 *36:17 0.000277271
19 *36:18 0.000207557
20 *36:19 0.000166035
21 *36:20 0.000824128
22 *36:21 0.00185115359
23 *36:22 0.00109276
24 *36:23 0.000389213
25 *36:24 0.000397913
26 *36:25 0.000533384
27 *36:26 0.000542084
28 *36:27 0.000110869
29 *36:28 0.000171853
30 *36:29 0.000148154
31 *36:30 0.000217811
32 *36:31 0.000153352
33 *36:32 0.000392574
34 *36:33 0.000392574
35 *36:34 0.000397602
36 *36:35 7.99949e-05
37 *36:36 0.000159651
38 *36:37 0.000120614
39 *36:38 0.000511578
40 *36:39 0.000136093
41 *36:40 0.00100737
42 *36:41 5.09007e-05
43 *36:42 0.00100737
44 *36:43 0.00166645
45 *36:44 0.000272638
46 *36:45 0.000142081
47 *36:46 0.000286959
48 *36:32 *69:8 0.0002928
49 *36:33 *69:9 0.000292800011
50 *36:32 *64:11 0.00034676
51 *36:33 *64:12 0.000346759996
52 *36:25 *48:5 4.791e-05
53 *36:26 *48:6 4.791e-05
54 *36:27 *48:6 1.506e-05
55 *36:28 *48:7 1.506e-05
56 *36:25 *48:6 6.691e-05
57 *36:26 *48:7 6.691e-05
58 *36:29 *48:5 4.599e-05
59 *36:30 *48:6 4.599e-05
60 *36:19 *48:8 6.267e-05
61 *36:15 *48:9 6.267e-05
62 *36:15 *48:8 2.089e-05
63 *36:16 *48:9 2.08900048e-05

*RES
1 *36:41 *194:B 6.39994
2 *36:33 *36:41 6.39994
3 *36:14 *207:A 0.447588
4 *36:13 *191:B 0.223794
5 *36:33 *36:32 3.67716
6 *36:31 *36:14 3.20004
7 *36:11 *36:13 3.20004
8 *36:11 *36:32 3.20004
9 *36:31 *36:12 0.311984
10 *36:12 *36:11 1.24794
11 *36:28 *36:12 3.20004
12 *36:28 *36:27 0.367662
13 *36:26 *36:27 0.15606
14 *36:26 *36:25 2.9417
15 *36:17 *195:B 3.20004
16 *36:17 *36:25 3.20004
17 *36:18 *36:17 0.780028
18 *36:30 *36:18 3.20004
19 *36:30 *36:29 0.735459
20 *36:19 *36:29 3.20004
21 *36:15 *190:B 3.20004
22 *36:15 *36:19 0.468044
23 *36:16 *36:15 1.71598
24 *36:46 *36:16 3.20004
25 *36:46 *197:B 0.223794
26 *36:44 *36:46 1.56683
27 *36:43 *36 8.87807178
28 *36:45 *36:44 3.20004
29 *36:22 *36:43 3.20004
30 *36:20 *36:45 0.183831
31 *36:22 *36:21 5.14794
32 *36:21 *36:20 3.74395
33 *36:23 *36:21 3.20004
34 *36:24 *36:23 1.83858
35 *36:24 *36:42 0.15606
36 *36:40 *36:42 4.78028
37 *36:36 *122:A1 0.671518
38 *36:39 *36:40 0.15606
39 *36:37 *116:Q 3.20004
40 *36:35 *36:36 0.189927
41 *36:38 *36:39 0.551628
42 *36:38 *36:37 3.20004
43 *36:9 *36:35 6.39994
44 *36:34 *36:38 1.65475
45 *36:10 *36:9 2.49601
46 *36:10 *36:34 3.20004
*END

*D_NET *37 0.0211676

*CONN
*P *37 O *C 93.06 9.8 *L 0
*I *200:A I *C 58.41 47.32 *L 0.00346 *D INVX1
*I *197:A I *C 67.65 37.8 *L 0.00403 *D NAND2X1
*I *195:A I *C 64.35 47.32 *L 0.0043 *D NOR2X1
*I *193:B I *C 55.77 47.32 *L 0.00375 *D NAND2X1
*I *172:A1 I *C 42.57 57.96 *L 0.005 *D AOI33X1
*I *156:B0 I *C 43.23 47.32 *L 0.00441 *D AOI21X1
*I *131:B1 I *C 45.87 58.52 *L 0.00332 *D OAI221XL
*I *124:A0N I *C 26.73 37.24 *L 0.00185 *D OAI2BB1X1
*I *118:Q O *C 35.31 26.6 *L 0 *D DFFRHQX1

*CAP
1 *37 0.00133513
2 *200:A 3.98535e-05
3 *197:A 0.000139841
4 *195:A 6.33031e-05
5 *193:B 0.000111894
6 *172:A1 6.33031e-05
7 *156:B0 6.33031e-05
8 *131:B1 3.98535e-05
9 *124:A0N 0.000139841
10 *118:Q 0.000139841
11 *37:10 0.000441687
12 *37:11 0.000441687
13 *37:12 0.000928217
14 *37:13 0.000971069
15 *37:14 0.000609282
16 *37:15 0.000486809
17 *37:16 0.000665389
18 *37:17 0.000223681
19 *37:18 0.000469933
20 *37:19 0.000192715
21 *37:20 0.000303902
22 *37:21 0.00123161
23 *37:22 0.000931322
24 *37:23 0.000392047
25 *37:24 0.000249636
26 *37:25 0.000163397
27 *37:26 0.000276276
28 *37:27 0.000238971
29 *37:28 0.000169501
30 *37:29 6.4845e-05
31 *37:30 6.4845e-05
32 *37:31 0.000844377
33 *37:32 0.00081022
34 *37:33 0.000144573
35 *37:34 0.000162477
36 *37:35 0.000162477
37 *37:36 0.000224259
38 *37:37 0.000112686
39 *37:38 0.000114442
40 *37:39 0.000186975
41 *37:40 0.000151748
42 *37:41 7.99855e-05
43 *37:42 0.00012061
44 *37:43 5.09252e-05
45 *37:44 0.000134637
46 *37:45 0.00027981
47 *37:46 0.00027981
48 *37:47 0.000442843
49 *37:48 0.000442843
50 *37:49 0.00140344
51 *37:50 0.000170165
52 *37:51 0.00100829
53 *37:52 0.00111513
54 *37:53 0.000102878
55 *37:54 0.000130075
56 *37:55 0.00025242
57 *37:56 0.000133138
58 *37:57 0.000139006
59 *37:58 0.000193893
60 *37:59 0.00012061

*RES
1 *37:38 *131:B1 0.223856
2 *37:38 *37:39 0.379817
3 *37:36 *37:39 0.447602
4 *37:37 *37:36 3.20001
5 *37:28 *37:37 0.367693
6 *37:24 *172:A1 6.40002
7 *37:24 *37:28 0.467993
8 *37:40 *200:A 0.223856
9 *193:B *37:27 0.569726
10 *37:25 *37:24 0.780025
11 *37:40 *37:26 0.569726
12 *37:27 *37:26 0.671458
13 *37:17 *156:B0 6.40002
14 *37:25 *37:18 0.183846
15 *37:26 *37:41 0.189909
16 *37:17 *37:16 0.623954
17 *37:16 *37:18 1.56005
18 *37:42 *37:41 3.20001
19 *37:22 *37:16 3.20001
20 *37:43 *195:A 6.40002
21 *37:21 *37:42 3.20001
22 *37:22 *37:21 4.04484
23 *37:44 *37:43 6.40002
24 *37:21 *37:23 1.83857
25 *37:44 *37:20 0.467993
26 *37:20 *37:23 0.155961
27 *37:20 *37:19 0.735386
28 *37:58 *37:19 3.20001
29 *37:57 *37:58 0.467993
30 *37:59 *197:A 3.20001
31 *37:48 *37:57 0.183846
32 *37:29 *37:59 3.20001
33 *37:47 *37:48 2.184
34 *37:30 *37:29 0.183846
35 *37:47 *37:56 0.183846
36 *37:55 *37:30 3.20001
37 *37:55 *37:56 0.467993
38 *37:54 *37:55 0.467993
39 *37:49 *37 7.2233572
40 *37:46 *37:54 0.183846
41 *37:49 *37:50 0.312032
42 *37:45 *37:46 1.24802
43 *37:51 *37:50 3.20001
44 *37:45 *37:53 0.183846
45 *37:51 *37:52 5.30399
46 *37:52 *37:53 0.467993
47 *37:12 *37:52 3.20001
48 *37:13 *37:12 4.41253
49 *37:13 *37:31 0.312032
50 *37:32 *37:31 3.861
51 *37:35 *118:Q 3.20001
52 *37:33 *37:32 0.155961
53 *37:35 *37:34 0.312032
54 *37:14 *37:33 0.551539
55 *37:14 *37:34 3.20001
56 *37:10 *124:A0N 3.20001
57 *37:15 *37:14 2.39011
58 *37:11 *37:10 1.87197
59 *37:11 *37:15 3.20001
*END

*D_NET *38 0.0116002

*CONN
*P *38 O *C 93.06 14.28 *L 0
*I *206:A I *C 61.05 43.4 *L 0.00346 *D INVX1
*I *174:B I *C 61.05 47.32 *L 0.00375 *D NAND2X1
*I *129:A1 I *C 47.19 42.84 *L 0.00472 *D AOI22X1
*I *121:Q O *C 50.49 23.8 *L 0 *D DFFRHQX1

*CAP
1 *38 0.00204877
2 *206:A 0.000139848
3 *174:B 0.000139848
4 *129:A1 6.3313e-05
5 *121:Q 0.000139848
6 *38:5 0.000625947
7 *38:6 0.000800312
8 *38:7 0.000507203
9 *38:8 0.000305917
10 *38:9 0.000243367
11 *38:10 0.000783594
12 *38:11 0.000605923
13 *38:12 0.000124814
14 *38:13 0.000514927
15 *38:14 0.000514927
16 *38:15 0.000270669
17 *38:16 0.000270669
18 *38:17 0.000161397
19 *38:18 0.00208294
20 *38:19 0.000170106
21 *38:13 *99:9 0.00025611
22 *38:14 *99:10 0.00025611
23 *38:15 *99:7 2.034e-05
24 *38:16 *99:8 2.03399768e-05
25 *38:13 *59:17 9.469e-05
26 *38:14 *59:13 9.469e-05
27 *38:13 *59:12 2.527e-05
28 *38:14 *59:8 2.527e-05
29 *38:13 *59:8 0.00010728
30 *38:14 *59:9 0.00010728
31 *38:15 *59:16 3.928e-05
32 *38:16 *59:15 3.92799939e-05

*RES
1 *38:18 *38 11.0843573
2 *38:18 *38:19 0.155941
3 *38:15 *174:B 3.20001
4 *38:17 *38:19 0.735394
5 *38:16 *206:A 3.20001
6 *38:16 *38:15 1.09193
7 *38:11 *38:17 3.20001
8 *38:13 *38:16 3.20001
9 *38:11 *38:10 2.49608
10 *38:10 *121:Q 3.20001
11 *38:14 *38:13 3.86099
12 *38:10 *38:9 0.935987
13 *38:12 *38:14 3.20001
14 *38:9 *38:8 0.183849
15 *38:5 *129:A1 6.40003
16 *38:5 *38:12 0.155941
17 *38:8 *38:7 1.24804
18 *38:6 *38:5 3.12001
19 *38:6 *38:7 1.10309
*END

*D_NET *39 0.0091689

*CONN
*P *39 O *C 93.06 90.44 *L 0
*I *177:Y O *C 59.73 38.92 *L 0 *D OAI21XL

*CAP
1 *39 0.000655452
2 *177:Y 0.000123595
3 *39:2 0.00099482
4 *39:3 0.00099482
5 *39:4 0.000158914
6 *39:5 0.000120607
7 *39:6 0.00271988
8 *39:7 0.00271988
9 *39:8 0.000680935

*RES
1 *39:8 *39 3.54617
2 *39:7 *39:8 3.19994
3 *39:6 *39:7 14.3520002
4 *39:2 *39:6 3.19994
5 *39:3 *39:2 4.96416
6 *39:5 *39:3 3.19994
7 *39:4 *39:5 3.19994
8 *177:Y *39:4 0.671436
*END

*D_NET *40 0.0101181

*CONN
*P *40 I *C 0 9.8 *L 0
*I *184:B1 I *C 49.83 37.8 *L 0.00335 *D OAI2BB2XL
*I *184:A0N I *C 47.85 37.24 *L 0.0019 *D OAI2BB2XL
*I *167:A0N I *C 49.83 33.32 *L 0.00185 *D OAI2BB1X1
*I *132:D I *C 45.87 38.36 *L 0.00407 *D OR4X2

*CAP
1 *40 0.00235964
2 *184:B1 0.000139828
3 *184:A0N 0.000139828
4 *167:A0N 0.000258074
5 *132:D 0.000139828
6 *40:5 0.00161017
7 *40:6 0.00138238
8 *40:7 0.000115808
9 *40:8 0.000244281
10 *40:9 0.000118428
11 *40:10 0.00238512
12 *40:11 0.000293377
13 *40:12 0.000389786
14 *40:13 0.000161992
15 *40:14 0.000120612
16 *40:15 7.35171e-05
17 *40:16 0.000120612
18 *40:17 6.48188e-05

*RES
1 *40:16 *184:B1 3.19993
2 *40:17 *40:16 3.19993
3 *40:15 *40:17 0.183886
4 *40:14 *184:A0N 3.19993
5 *40:7 *40:15 0.156089
6 *40:8 *40:14 3.19993
7 *40:8 *40:7 0.367772
8 *40:9 *40:8 0.551658
9 *40:13 *132:D 3.19993
10 *40:11 *167:A0N 1.34299
11 *40:12 *40:9 3.19993
12 *40:12 *40:13 0.311984
13 *40:5 *40:11 3.19993
14 *40:5 *40:12 1.09204
15 *40:6 *40:5 6.55206
16 *40:10 *40:6 3.19993
17 *40 *40:10 12.7390718
*END

*D_NET *41 0.00651682

*CONN
*I *186:B I *C 55.77 37.24 *L 0.00375 *D NAND2X1
*I *184:B0 I *C 50.49 37.24 *L 0.00348 *D OAI2BB2XL
*I *184:A1N I *C 48.51 37.8 *L 0.00224 *D OAI2BB2XL
*I *177:A1 I *C 58.41 37.24 *L 0.00324 *D OAI21XL
*I *155:Q O *C 66.33 23.8 *L 0 *D DFFRHQX1
*I *132:B I *C 43.89 36.12 *L 0.00412 *D OR4X2

*CAP
1 *186:B 3.98631e-05
2 *184:B0 0.000139837
3 *184:A1N 6.3296e-05
4 *177:A1 0.000139837
5 *155:Q 0.000139837
6 *132:B 6.3296e-05
7 *41:6 0.000141171
8 *41:7 0.000141171
9 *41:8 0.0002086
10 *41:9 0.000513285
11 *41:10 0.000403496
12 *41:11 0.000158706
13 *41:12 0.0009404
14 *41:13 0.000902288
15 *41:14 0.000166728
16 *41:15 0.000166728
17 *41:16 0.000120594
18 *41:17 0.00029276
19 *41:18 0.000182914
20 *41:19 0.000308487
21 *41:20 0.000113233
22 *41:21 7.51918e-05
23 *41:22 0.000452414
24 *41:23 0.000120594
25 *41:24 0.000522095

*RES
1 *41:23 *155:Q 3.2
2 *41:24 *41:23 3.2
3 *41:22 *41:24 2.20625
4 *41:21 *186:B 0.223828
5 *41:13 *41:22 3.2
6 *41:11 *177:A1 3.2
7 *41:14 *41:21 3.2
8 *41:13 *41:12 3.9
9 *41:12 *41:11 0.312012
10 *41:6 *184:B0 3.2
11 *41:15 *41:14 0.312012
12 *41:8 *41:12 3.2
13 *41:20 *184:A1N 6.4000001
14 *41:7 *41:6 0.312012
15 *41:9 *41:15 3.2
16 *41:9 *41:8 0.919238
17 *41:18 *41:20 0.467969
18 *41:10 *41:7 3.2
19 *41:10 *41:9 1.28701
20 *41:19 *41:18 3.2
21 *41:19 *41:10 0.551562
22 *41:17 *41:19 1.28701
23 *41:16 *41:17 3.2
24 *132:B *41:16 6.4000001
*END

*D_NET *42 0.00736226

*CONN
*I *201:A I *C 55.11 43.4 *L 0.00346 *D INVX1
*I *167:A1N I *C 49.17 32.2 *L 0.00148 *D OAI2BB1X1
*I *132:C I *C 44.55 37.8 *L 0.004 *D OR4X2
*I *120:B1 I *C 49.83 43.4 *L 0.00434 *D AOI22X1
*I *114:Q O *C 65.01 26.6 *L 0 *D DFFRHQX1

*CAP
1 *201:A 3.98555e-05
2 *167:A1N 0.000259639
3 *132:C 0.000139841
4 *120:B1 3.98555e-05
5 *114:Q 0.000139841
6 *42:5 0.000281973
7 *42:6 0.000281973
8 *42:7 0.000257978
9 *42:8 0.000587637
10 *42:9 0.000450266
11 *42:10 0.000342366
12 *42:11 0.000342366
13 *42:12 0.000183354
14 *42:13 0.000376105
15 *42:14 0.000275835
16 *42:15 0.000334231
17 *42:16 0.00034265
18 *42:17 0.000646969
19 *42:18 0.000317709
20 *42:19 0.000193823
21 *42:20 7.51915e-05
22 *42:21 0.0006888
23 *42:22 7.51915e-05
24 *42:23 0.0006888

*RES
1 *42:11 *114:Q 3.20001
2 *42:11 *42:10 1.09203
3 *42:23 *42:10 3.20001
4 *42:21 *42:23 3.58121729
5 *42:22 *201:A 0.223826
6 *42:20 *120:B1 0.223826
7 *42:9 *42:21 3.20001
8 *42:7 *42:22 3.20001
9 *42:5 *42:20 3.20001
10 *42:9 *42:8 1.87198
11 *42:8 *42:7 0.936015
12 *42:6 *42:5 0.936015
13 *42:16 *42:8 3.20001
14 *42:17 *42:6 3.20001
15 *42:17 *42:16 1.47088
16 *42:18 *42:17 1.287
17 *42:12 *42:18 3.20001
18 *42:13 *132:C 3.20001
19 *42:13 *42:12 0.623992
20 *42:14 *42:13 1.24798
21 *42:19 *42:14 3.20001
22 *42:15 *167:A1N 1.56678
23 *42:15 *42:19 0.379838
*END

*D_NET *43 0.000760949

*CONN
*I *205:Y O *C 26.07 42.84 *L 0 *D INVX1
*I *180:A0 I *C 28.71 42.84 *L 0.00314 *D AOI21XL

*CAP
1 *205:Y 7.97308e-05
2 *180:A0 0.000139841
3 *43:2 0.000115059
4 *43:3 0.0001421
5 *43:4 7.10598e-05
6 *43:5 7.10598e-05
7 *43:6 0.0001421

*RES
1 *43:6 *180:A0 3.20000005
2 *43:5 *43:6 0.183838
3 *43:4 *43:5 0.156006
4 *43:3 *43:4 0.183838
5 *43:2 *43:3 3.20000005
6 *205:Y *43:2 0.447656
*END

*D_NET *44 0.00016104

*CONN
*I *204:Y O *C 26.07 68.04 *L 0 *D INVX1
*I *181:A0 I *C 27.39 66.92 *L 0.00465 *D AOI21X1

*CAP
1 *44:2 8.052e-05
2 *44:3 8.052e-05

*RES
1 *44:3 *181:A0 3.20000005
2 *44:2 *44:3 0.367725
3 *204:Y *44:2 3.20000005
*END

*D_NET *45 0.000664582

*CONN
*I *203:Y O *C 30.69 68.04 *L 0 *D INVX1
*I *166:B0 I *C 30.69 63.56 *L 0.00457 *D OAI22X1

*CAP
1 *203:Y 0.00013984
2 *166:B0 6.32997e-05
3 *45:2 0.00023072
4 *45:3 0.00023072

*RES
1 *45:3 *203:Y 3.2
2 *45:2 *45:3 0.936035
3 *166:B0 *45:2 6.4000001
*END

*D_NET *46 0.000699351

*CONN
*I *199:Y O *C 21.45 57.96 *L 0 *D INVX1
*I *179:C I *C 24.09 58.52 *L 0.00444 *D NAND3BX1

*CAP
1 *199:Y 7.97308e-05
2 *179:C 0.000139841
3 *46:2 0.000115059
4 *46:3 0.00018236
5 *46:4 0.00018236

*RES
1 *46:4 *179:C 3.20000005
2 *46:3 *46:4 0.367725
3 *46:2 *46:3 3.20000005
4 *199:Y *46:2 0.447656
*END

*D_NET *47 0.00130054

*CONN
*I *198:Y O *C 37.95 42.84 *L 0 *D INVX1
*I *133:B0 I *C 32.67 43.4 *L 0.00352 *D OAI221XL

*CAP
1 *198:Y 0.000139839
2 *133:B0 0.000139839
3 *47:2 0.00042467
4 *47:3 0.00035499
5 *47:4 0.0001206
6 *47:5 0.0001206

*RES
1 *47:5 *198:Y 3.20000005
2 *47:2 *47:5 3.20000005
3 *47:3 *47:2 1.47085
4 *47:4 *47:3 3.20000005
5 *133:B0 *47:4 3.20000005
*END

*D_NET *48 0.00327099

*CONN
*I *200:Y O *C 59.07 47.88 *L 0 *D INVX1
*I *190:A I *C 66.99 42.84 *L 0.00403 *D NAND2X1
*I *157:B0 I *C 49.83 47.32 *L 0.00441 *D AOI21X1

*CAP
1 *200:Y 0.000139845
2 *190:A 0.000139845
3 *157:B0 6.32961e-05
4 *48:3 5.59454e-05
5 *48:4 0.000125631
6 *48:5 0.000430805
7 *48:6 0.00079756
8 *48:7 0.000449839
9 *48:8 0.00015081
10 *48:9 0.00015081
11 *48:10 0.000158709
12 *48:11 8.90234e-05
13 *48:5 *36:25 4.791e-05
14 *48:6 *36:26 4.791e-05
15 *48:6 *36:27 1.506e-05
16 *48:7 *36:28 1.506e-05
17 *48:6 *36:25 6.691e-05
18 *48:7 *36:26 6.691e-05
19 *48:5 *36:29 4.599e-05
20 *48:6 *36:30 4.599e-05
21 *48:8 *36:19 6.267e-05
22 *48:9 *36:15 6.267e-05
23 *48:8 *36:15 2.089e-05
24 *48:9 *36:16 2.08900048e-05

*RES
1 *48:9 *190:A 3.2
2 *48:9 *48:8 0.936035
3 *48:3 *200:Y 3.2
4 *48:5 *48:8 3.2
5 *48:4 *48:3 0.155957
6 *48:6 *48:5 2.20625
7 *48:6 *48:4 3.2
8 *48:11 *157:B0 6.4000001
9 *48:7 *48:6 2.57402
10 *48:10 *48:11 0.312012
11 *48:10 *48:7 3.2
*END

*D_NET *49 0.00231828

*CONN
*I *207:Y O *C 53.79 47.88 *L 0 *D INVX1
*I *193:A I *C 56.43 47.88 *L 0.00403 *D NAND2X1
*I *189:B I *C 49.83 52.92 *L 0.00385 *D NOR2X1
*I *187:B I *C 54.45 52.92 *L 0.00385 *D NOR2X1

*CAP
1 *207:Y 0.00016185
2 *193:A 6.32975e-05
3 *189:B 7.45896e-05
4 *187:B 7.45896e-05
5 *49:4 0.000188491
6 *49:5 0.000117449
7 *49:6 0.00036726
8 *49:7 0.000244857
9 *49:8 0.00036726
10 *49:9 0.000198192
11 *49:10 0.000115062
12 *49:11 0.000142101
13 *49:12 6.87782e-05
14 *49:13 6.87782e-05
15 *49:14 6.57184e-05

*RES
1 *49:14 *193:A 6.4000001
2 *49:12 *49:14 0.183887
3 *49:12 *49:13 0.155957
4 *49:11 *49:13 0.183887
5 *49:10 *49:11 3.2
6 *207:Y *49:10 0.447656
7 *49:5 *207:Y 0.447656
8 *49:6 *49:5 3.2
9 *49:9 *187:B 0.379785
10 *49:6 *49:8 0.936035
11 *49:7 *49:9 0.671484
12 *49:7 *49:8 3.2
13 *49:4 *189:B 0.379785
14 *49:4 *49:7 0.895312
*END

*D_NET *50 0.0017079

*CONN
*I *201:Y O *C 55.77 42.84 *L 0 *D INVX1
*I *186:A I *C 56.43 37.8 *L 0.00403 *D NAND2X1
*I *177:A0 I *C 59.07 37.24 *L 0.00336 *D OAI21XL

*CAP
1 *201:Y 8.34311e-05
2 *186:A 0.000139842
3 *177:A0 7.45894e-05
4 *50:3 0.000142098
5 *50:4 7.10634e-05
6 *50:5 0.00031785
7 *50:6 0.000195298
8 *50:7 0.00027225
9 *50:8 0.000115058
10 *50:9 0.000142098
11 *50:10 0.00015432

*RES
1 *177:A0 *50:10 0.379834
2 *50:3 *186:A 3.20000005
3 *50:8 *50:10 0.447656
4 *50:3 *50:4 0.183838
5 *50:9 *50:8 3.20000005
6 *50:4 *50:5 0.156006
7 *50:5 *50:9 0.183838
8 *50:5 *50:7 1.09199
9 *50:6 *50:7 3.20000005
10 *201:Y *50:6 0.447656
*END

*D_NET *51 0.00108652

*CONN
*I *184:Y O *C 51.81 37.24 *L 0 *D OAI2BB2XL
*I *120:B0 I *C 50.49 42.84 *L 0.00433 *D AOI22X1

*CAP
1 *184:Y 0.000139841
2 *120:B0 0.000139841
3 *51:2 0.00025104
4 *51:3 0.000236238
5 *51:4 8.87326e-05
6 *51:5 8.87326e-05
7 *51:6 0.000142097

*RES
1 *51:6 *184:Y 3.20000005
2 *51:4 *51:6 0.183838
3 *51:3 *120:B0 3.20000005
4 *51:4 *51:5 0.312012
5 *51:2 *51:3 0.935986
6 *51:2 *51:5 0.183838
*END

*D_NET *52 0.0035203

*CONN
*I *186:Y O *C 56.43 38.36 *L 0 *D NAND2X1
*I *183:A I *C 57.75 43.4 *L 0.00346 *D INVX1
*I *177:B0 I *C 59.73 38.36 *L 0.00302 *D OAI21XL
*I *167:B0 I *C 50.49 32.76 *L 0.00343 *D OAI2BB1X1

*CAP
1 *186:Y 0.000139839
2 *183:A 0.000139839
3 *177:B0 6.33057e-05
4 *167:B0 0.000139839
5 *52:4 0.000202465
6 *52:5 0.000132794
7 *52:6 0.000408793
8 *52:7 0.00050021
9 *52:8 0.000269816
10 *52:9 0.000362691
11 *52:10 0.000189818
12 *52:11 0.000488715
13 *52:12 0.000120139
14 *52:13 0.000222616
15 *52:14 0.000139419

*RES
1 *52:13 *183:A 3.2
2 *52:13 *52:6 0.551562
3 *52:7 *177:B0 6.4000001
4 *52:7 *52:6 1.404
5 *52:8 *52:7 0.936035
6 *52:12 *186:Y 3.2
7 *52:14 *52:8 3.2
8 *52:10 *52:12 0.467969
9 *52:11 *52:14 0.735449
10 *52:11 *52:10 3.2
11 *52:9 *52:11 1.83857
12 *52:4 *52:9 3.2
13 *52:5 *52:4 0.624023
14 *167:B0 *52:5 3.2
*END

*D_NET *53 0.00214902

*CONN
*I *182:Y O *C 57.09 52.92 *L 0 *D INVX1
*I *165:A0 I *C 45.87 53.48 *L 0.00465 *D AOI22X1

*CAP
1 *182:Y 0.000139839
2 *165:A0 6.32996e-05
3 *53:2 0.0001493
4 *53:3 7.96183e-05
5 *53:4 0.000177569
6 *53:5 9.95136e-05
7 *53:6 0.00035087
8 *53:7 0.00035087
9 *53:8 8.84095e-05
10 *53:9 9.67884e-05
11 *53:10 6.3776e-05
12 *53:11 6.3776e-05
13 *53:6 *35:30 6.999e-05
14 *53:7 *35:26 6.999e-05
15 *53:8 *35:26 3.343e-05
16 *53:9 *35:27 3.343e-05
17 *53:11 *35:17 5.17e-06
18 *53:10 *35:31 5.17000837e-06
19 *53:6 *69:19 5.223e-05
20 *53:7 *69:16 5.223e-05
21 *53:8 *69:8 5.187e-05
22 *53:9 *69:9 5.18700007e-05

*RES
1 *53:10 *182:Y 3.2
2 *53:10 *53:11 0.155957
3 *53:4 *53:11 3.2
4 *53:5 *53:4 0.367676
5 *53:5 *53:6 0.0780273
6 *53:7 *53:6 2.20625
7 *53:8 *53:7 0.0780273
8 *53:9 *53:8 0.551562
9 *53:2 *53:9 3.2
10 *53:3 *53:2 0.312012
11 *165:A0 *53:3 6.4000001
*END

*D_NET *54 0.00154989

*CONN
*I *181:Y O *C 28.05 66.92 *L 0 *D AOI21X1
*I *166:A1 I *C 32.67 63 *L 0.00456 *D OAI22X1

*CAP
1 *181:Y 8.34798e-05
2 *166:A1 0.000139837
3 *54:2 0.00050539
4 *54:3 0.000439493
5 *54:4 0.000118807
6 *54:5 0.000262886

*RES
1 *54:3 *166:A1 3.20000005
2 *54:3 *54:2 1.71602
3 *54:5 *54:2 0.735449
4 *54:4 *54:5 3.20000005
5 *181:Y *54:4 0.447656
*END

*D_NET *55 0.00112476

*CONN
*I *180:Y O *C 30.03 43.96 *L 0 *D AOI21XL
*I *133:A1 I *C 33.99 42.28 *L 0.00348 *D OAI221XL

*CAP
1 *180:Y 0.000139841
2 *133:A1 0.000139841
3 *55:2 0.00030194
4 *55:3 0.00030194
5 *55:4 0.000120601
6 *55:5 0.000120601

*RES
1 *55:5 *133:A1 3.20000005
2 *55:2 *55:5 3.20000005
3 *55:3 *55:2 1.10312
4 *55:4 *55:3 3.20000005
5 *180:Y *55:4 3.20000005
*END

*D_NET *56 0.00119063

*CONN
*I *179:Y O *C 24.75 59.08 *L 0 *D NAND3BX1
*I *159:A I *C 24.75 53.48 *L 0.00429 *D OR4X2

*CAP
1 *179:Y 4.16996e-05
2 *159:A 0.000139842
3 *56:2 0.00012515
4 *56:3 0.000139951
5 *56:4 0.00022263
6 *56:5 0.000207829
7 *56:6 7.70296e-05
8 *56:2 *5:7 8.357e-05
9 *56:3 *5:8 8.357e-05
10 *56:4 *5:8 3.468e-05
11 *56:5 *5:9 3.46800043e-05

*RES
1 *56:6 *179:Y 0.223828
2 *56:2 *56:6 6.4000001
3 *56:3 *56:2 0.624023
4 *56:4 *56:3 0.183887
5 *56:5 *56:4 0.77998
6 *159:A *56:5 3.2
*END

*D_NET *57 0.0012612

*CONN
*I *178:Y O *C 23.43 69.16 *L 0 *D AOI2BB1XL
*I *158:A0 I *C 22.11 63 *L 0.00482 *D OAI31X1

*CAP
1 *178:Y 0.000139839
2 *158:A0 0.000139839
3 *57:2 0.00026345
4 *57:3 0.000248829
5 *57:4 0.000262152
6 *57:5 0.00020709

*RES
1 *57:5 *178:Y 3.20000005
2 *57:4 *57:5 0.935986
3 *57:3 *57:4 0.367725
4 *57:2 *57:3 0.77998
5 *158:A0 *57:2 3.20000005
*END

*D_NET *58 0.00259372

*CONN
*I *196:Y O *C 22.77 52.92 *L 0 *D NOR2X1
*I *179:B I *C 24.75 57.4 *L 0.00444 *D NAND3BX1
*I *176:AN I *C 24.09 47.32 *L 0.00263 *D NOR4BX1
*I *135:A1 I *C 21.45 47.32 *L 0.00443 *D AOI21X1

*CAP
1 *196:Y 0.000162127
2 *179:B 6.33011e-05
3 *176:AN 6.33011e-05
4 *135:A1 6.33011e-05
5 *58:4 6.3783e-05
6 *58:5 7.85805e-05
7 *58:6 0.00018526
8 *58:7 0.000240142
9 *58:8 0.000219201
10 *58:9 0.00027464
11 *58:10 5.52633e-05
12 *58:11 7.99886e-05
13 *58:12 0.000117031
14 *58:13 7.31829e-05
15 *58:14 0.0001537
16 *58:15 8.47786e-05
17 *58:16 9.95803e-05
18 *58:17 0.0001197
19 *58:18 7.99886e-05
20 *58:4 *80:7 5.17e-06
21 *58:5 *80:6 5.17e-06
22 *58:6 *80:7 1.034e-05
23 *58:7 *80:6 1.034e-05
24 *58:8 *80:3 0.00010115
25 *58:9 *80:2 0.00010115
26 *58:9 *80:3 4.178e-05
27 *58:10 *80:2 4.17800025e-05

*RES
1 *58:4 *179:B 6.4000001
2 *58:5 *58:4 0.155957
3 *58:6 *58:5 0.183887
4 *58:7 *58:6 0.624023
5 *58:18 *58:7 3.2
6 *58:17 *58:18 0.189941
7 *196:Y *58:17 0.447656
8 *58:15 *176:AN 6.4000001
9 *58:15 *58:16 0.312012
10 *58:12 *196:Y 0.447656
11 *58:13 *58:16 0.183887
12 *58:11 *58:12 0.189941
13 *58:13 *58:14 0.155957
14 *58:8 *58:11 3.2
15 *58:9 *58:14 0.551562
16 *58:9 *58:8 0.77998
17 *58:10 *58:9 0.312012
18 *135:A1 *58:10 6.4000001
*END

*D_NET *59 0.0032872

*CONN
*I *183:Y O *C 58.41 42.84 *L 0 *D INVX1
*I *175:A I *C 63.03 42.84 *L 0.00319 *D AND2X2
*I *174:A I *C 61.71 47.88 *L 0.00403 *D NAND2X1
*I *120:A1 I *C 51.81 42.84 *L 0.00472 *D AOI22X1

*CAP
1 *183:Y 3.98612e-05
2 *175:A 0.000139845
3 *174:A 0.000139845
4 *120:A1 6.32993e-05
5 *59:4 6.05002e-05
6 *59:5 0.000130182
7 *59:6 0.000104659
8 *59:7 0.000159538
9 *59:8 0.00038058
10 *59:9 0.000304249
11 *59:10 7.51926e-05
12 *59:11 0.0001206
13 *59:12 9.84334e-05
14 *59:13 0.000176727
15 *59:14 0.000142098
16 *59:15 0.000225259
17 *59:16 0.000225259
18 *59:17 0.000168028
19 *59:17 *38:13 9.469e-05
20 *59:13 *38:14 9.469e-05
21 *59:12 *38:13 2.527e-05
22 *59:8 *38:14 2.527e-05
23 *59:8 *38:13 0.00010728
24 *59:9 *38:14 0.00010728
25 *59:16 *38:15 3.928e-05
26 *59:15 *38:16 3.92799939e-05

*RES
1 *59:14 *174:A 3.2
2 *59:14 *59:16 0.183887
3 *59:15 *59:16 1.09199
4 *59:15 *59:6 0.183887
5 *59:7 *175:A 3.2
6 *59:7 *59:6 0.312012
7 *59:17 *59:7 3.2
8 *59:13 *59:17 1.10312
9 *59:10 *183:Y 0.223828
10 *59:12 *59:13 0.155957
11 *59:11 *59:10 3.2
12 *59:8 *59:12 0.367676
13 *59:8 *59:11 3.2
14 *59:4 *120:A1 6.4000001
15 *59:9 *59:8 1.65469
16 *59:5 *59:4 0.155957
17 *59:5 *59:9 3.2
*END

*D_NET *60 0.00454134

*CONN
*I *173:Y O *C 30.69 58.52 *L 0 *D AOI22X1
*I *157:A0 I *C 49.17 46.76 *L 0.00465 *D AOI21X1

*CAP
1 *173:Y 6.97147e-05
2 *157:A0 0.000139834
3 *60:2 0.000277466
4 *60:3 0.000347145
5 *60:4 0.000454913
6 *60:5 0.000454913
7 *60:6 0.00078005
8 *60:7 0.00078005
9 *60:8 0.000181577
10 *60:6 *64:11 0.00032777
11 *60:7 *64:12 0.00032777
12 *60:6 *64:13 2.527e-05
13 *60:7 *64:14 2.52700267e-05
14 *60:6 *11:7 0.0001748
15 *60:7 *11:8 0.000174799993

*RES
1 *60:3 *157:A0 3.20002
2 *60:3 *60:2 0.936034
3 *60:6 *60:2 3.20002
4 *60:7 *60:6 4.59642839
5 *60:5 *60:7 3.20002
6 *60:5 *60:4 1.56003
7 *60:8 *60:4 3.20002
8 *173:Y *60:8 0.447678
*END

*D_NET *61 0.00535082

*CONN
*I *185:Y O *C 65.01 57.96 *L 0 *D INVX1
*I *172:B0 I *C 40.59 57.4 *L 0.00476 *D AOI33X1
*I *165:B0 I *C 45.21 52.92 *L 0.00433 *D AOI22X1

*CAP
1 *185:Y 0.000139839
2 *172:B0 0.000139839
3 *165:B0 0.000139839
4 *61:3 0.000126929
5 *61:4 7.20465e-05
6 *61:5 6.99193e-05
7 *61:6 0.00025178
8 *61:7 0.000192691
9 *61:8 0.000753759
10 *61:9 0.00079662
11 *61:10 0.000282923
12 *61:11 0.000240062
13 *61:12 0.000330147
14 *61:13 0.000330147
15 *61:14 0.000169438
16 *61:15 9.97492e-05
17 *61:16 0.000142099
18 *61:17 0.000120596
19 *61:8 *68:10 3.722e-05
20 *61:9 *68:11 3.722e-05
21 *61:10 *68:10 0.00025089
22 *61:11 *68:11 0.00025089
23 *61:12 *68:10 0.00018809
24 *61:13 *68:11 0.000188089989

*RES
1 *61:17 *185:Y 3.19998
2 *61:8 *61:17 3.19998
3 *61:9 *61:8 4.04485703
4 *61:10 *61:9 0.311993
5 *61:11 *61:10 1.47084
6 *61:3 *61:11 3.19998
7 *61:16 *165:B0 3.19998
8 *61:4 *61:3 0.156027
9 *61:7 *61:16 0.183863
10 *61:5 *61:4 0.183863
11 *61:7 *61:6 0.935978
12 *61:6 *61:5 0.156027
13 *61:12 *61:6 3.19998
14 *61:15 *172:B0 3.19998
15 *61:13 *61:12 1.10311
16 *61:14 *61:15 0.311993
17 *61:14 *61:13 3.19998
*END

*D_NET *62 0.00133968

*CONN
*I *172:Y O *C 42.57 58.52 *L 0 *D AOI33X1
*I *131:C0 I *C 49.17 57.96 *L 0.00329 *D OAI221XL

*CAP
1 *172:Y 0.000139842
2 *131:C0 0.000139842
3 *62:2 0.000346043
4 *62:3 0.00041572
5 *62:4 0.000120596
6 *62:5 5.39767e-05
7 *62:6 0.00012366

*RES
1 *62:5 *131:C0 3.20000005
2 *62:5 *62:6 0.156006
3 *62:2 *62:6 3.20000005
4 *62:3 *62:2 1.47085
5 *62:4 *62:3 3.20000005
6 *172:Y *62:4 3.20000005
*END

*D_NET *63 0.0022146

*CONN
*I *171:Y O *C 35.97 48.44 *L 0 *D AOI22X1
*I *157:A1 I *C 48.51 47.32 *L 0.00443 *D AOI21X1

*CAP
1 *171:Y 6.33042e-05
2 *157:A1 0.000139843
3 *63:2 0.000185902
4 *63:3 0.000116224
5 *63:4 0.000339919
6 *63:5 0.000278937
7 *63:6 0.000319418
8 *63:7 0.0003804
9 *63:8 0.000120601
10 *63:6 *15:11 0.00012559
11 *63:7 *15:12 0.00012559
12 *63:6 *15:13 9.44e-06
13 *63:7 *15:14 9.44000221e-06

*RES
1 *63:2 *157:A1 3.2
2 *63:3 *63:2 0.312012
3 *63:4 *63:3 3.2
4 *63:5 *63:4 1.28701
5 *63:5 *63:6 0.155957
6 *63:7 *63:6 2.02246
7 *63:8 *63:7 3.2
8 *171:Y *63:8 6.4000001
*END

*D_NET *64 0.00597985

*CONN
*I *187:Y O *C 55.77 52.92 *L 0 *D NOR2X1
*I *171:B0 I *C 34.65 47.88 *L 0.00433 *D AOI22X1
*I *170:B0 I *C 35.31 52.92 *L 0.00433 *D AOI22X1
*I *169:B0 I *C 38.61 47.88 *L 0.00433 *D AOI22X1

*CAP
1 *187:Y 0.000139839
2 *171:B0 0.000139839
3 *170:B0 0.000139839
4 *169:B0 0.000139839
5 *64:4 0.00013899
6 *64:5 9.08084e-05
7 *64:6 0.000295834
8 *64:7 0.000369098
9 *64:8 6.93111e-05
10 *64:9 0.000288908
11 *64:10 0.000349888
12 *64:11 0.00053527
13 *64:12 0.00053527
14 *64:13 0.000124598
15 *64:14 0.000132978
16 *64:15 0.000120596
17 *64:16 0.000136
18 *64:17 0.000118963
19 *64:18 0.000120596
20 *64:19 0.000127343
21 *64:11 *36:32 0.00034676
22 *64:12 *36:33 0.000346759996
23 *64:11 *60:6 0.00032777
24 *64:12 *60:7 0.00032777
25 *64:13 *60:6 2.527e-05
26 *64:14 *60:7 2.52700267e-05
27 *64:9 *70:4 0.00018819
28 *64:10 *70:5 0.00018819
29 *64:6 *70:2 4.502e-05
30 *64:7 *70:3 4.50200109e-05

*RES
1 *64:18 *187:Y 3.2
2 *64:19 *64:18 3.2
3 *64:17 *64:19 0.551562
4 *64:11 *64:17 0.0780273
5 *64:12 *64:11 4.78027
6 *64:15 *169:B0 3.2
7 *64:12 *64:13 0.0780273
8 *64:16 *64:15 3.2
9 *64:4 *170:B0 3.2
10 *64:14 *64:13 0.367676
11 *64:16 *64:9 0.155957
12 *64:5 *64:4 0.155957
13 *64:5 *64:14 6.4000001
14 *64:10 *64:9 1.10312
15 *64:6 *64:5 0.183887
16 *64:7 *64:10 3.2
17 *64:7 *64:6 1.09199
18 *64:8 *64:7 0.155957
19 *171:B0 *64:8 3.2
*END

*D_NET *65 0.00249574

*CONN
*I *194:Y O *C 39.93 52.92 *L 0 *D NOR2X1
*I *171:A0 I *C 35.31 47.32 *L 0.00465 *D AOI22X1
*I *170:A0 I *C 35.97 53.48 *L 0.00465 *D AOI22X1
*I *169:A0 I *C 39.27 47.32 *L 0.00465 *D AOI22X1

*CAP
1 *194:Y 0.000111312
2 *171:A0 6.33038e-05
3 *170:A0 6.33038e-05
4 *169:A0 6.33038e-05
5 *65:4 0.000146638
6 *65:5 0.000362621
7 *65:6 0.000377421484
8 *65:7 0.000239751
9 *65:8 0.00010417
10 *65:9 0.000254171
11 *65:10 0.000324092
12 *65:11 6.9921e-05
13 *65:12 6.57226e-05
14 *65:13 9.7484e-05
15 *65:14 0.000152541

*RES
1 *65:13 *169:A0 6.4000001
2 *65:4 *194:Y 0.447656
3 *65:13 *65:14 0.467969
4 *65:12 *65:4 6.4000001
5 *65:9 *65:14 0.367676
6 *65:11 *65:12 0.183887
7 *65:8 *170:A0 6.4000001
8 *65:9 *65:10 0.77998
9 *65:10 *65:11 0.155957
10 *65:7 *65:8 0.467969
11 *65:7 *65:10 0.551562
12 *65:6 *65:7 0.183887
13 *65:5 *65:6 1.24805
14 *171:A0 *65:5 6.4000001
*END

*D_NET *66 0.000854177

*CONN
*I *170:Y O *C 36.63 52.36 *L 0 *D AOI22X1
*I *164:A I *C 41.25 53.48 *L 0.00346 *D INVX1

*CAP
1 *170:Y 3.98408e-05
2 *164:A 3.98575e-05
3 *66:2 0.000235498
4 *66:3 0.000114427
5 *66:4 0.0002728
6 *66:5 0.00015175

*RES
1 *66:5 *164:A 0.223826
2 *66:4 *66:5 0.569743
3 *66:2 *66:4 0.895304322
4 *66:2 *66:3 0.379824
5 *170:Y *66:3 0.223826
*END

*D_NET *67 0.00015946

*CONN
*I *169:Y O *C 39.93 48.44 *L 0 *D AOI22X1
*I *156:A1 I *C 41.91 47.32 *L 0.00443 *D AOI21X1

*CAP
1 *169:Y 7.973e-05
2 *156:A1 7.973e-05

*RES
1 *169:Y *156:A1 0.447652
*END

*D_NET *68 0.00632517

*CONN
*I *191:Y O *C 53.79 52.92 *L 0 *D NOR2X1
*I *173:B0 I *C 29.37 57.96 *L 0.00433 *D AOI22X1
*I *172:A0 I *C 41.25 57.96 *L 0.0049 *D AOI33X1
*I *168:B0 I *C 30.03 52.92 *L 0.00433 *D AOI22X1
*I *140:A0 I *C 34.65 57.4 *L 0.00356 *D AOI221XL

*CAP
1 *191:Y 0.000139841
2 *173:B0 0.000139841
3 *172:A0 6.33002e-05
4 *168:B0 6.33002e-05
5 *140:A0 0.000139841
6 *68:5 5.77596e-05
7 *68:6 0.000316821
8 *68:7 0.000287267
9 *68:8 0.000348008
10 *68:9 0.000642438
11 *68:10 0.000739965
12 *68:11 0.00074867
13 *68:12 0.000420368
14 *68:13 6.57221e-05
15 *68:14 0.000120591
16 *68:15 0.000117221
17 *68:16 0.000120591
18 *68:17 0.000178203
19 *68:18 0.000331489
20 *68:19 0.000331489
21 *68:10 *61:8 3.722e-05
22 *68:11 *61:9 3.722e-05
23 *68:10 *61:10 0.00025089
24 *68:11 *61:11 0.00025089
25 *68:10 *61:12 0.00018809
26 *68:11 *61:13 0.000188089989

*RES
1 *68:18 *191:Y 3.2
2 *68:18 *68:19 1.09199
3 *68:16 *172:A0 6.4000001
4 *68:10 *68:19 3.2
5 *68:17 *68:16 3.2
6 *68:11 *68:10 4.04482
7 *68:15 *68:17 0.551562
8 *68:14 *140:A0 3.2
9 *68:11 *68:8 0.155957
10 *68:8 *68:15 0.155957
11 *68:9 *68:14 3.2
12 *68:9 *68:8 1.28701
13 *68:5 *173:B0 3.2
14 *68:12 *68:9 1.4709
15 *68:13 *168:B0 6.4000001
16 *68:6 *68:5 0.155957
17 *68:6 *68:12 3.2
18 *68:7 *68:13 0.183887
19 *68:7 *68:6 1.24805
*END

*D_NET *69 0.00499965

*CONN
*I *189:Y O *C 51.15 52.92 *L 0 *D NOR2X1
*I *173:A0 I *C 30.03 57.4 *L 0.00465 *D AOI22X1
*I *168:A0 I *C 30.69 53.48 *L 0.00465 *D AOI22X1
*I *140:B0 I *C 33.99 57.96 *L 0.00357 *D AOI221XL

*CAP
1 *189:Y 4.12076e-05
2 *173:A0 6.33016e-05
3 *168:A0 3.9864e-05
4 *140:B0 0.000121441
5 *69:4 0.000223131
6 *69:5 0.00038183
7 *69:6 0.000158517
8 *69:7 0.000156769
9 *69:8 0.00066206
10 *69:9 0.00066206
11 *69:10 7.51921e-05
12 *69:11 0.000193087
13 *69:12 0.000373879
14 *69:13 0.000117622
15 *69:14 0.000181712
16 *69:15 0.00010365
17 *69:16 9.89024e-05
18 *69:17 7.65357e-05
19 *69:18 0.000120602
20 *69:19 0.000107277
21 *69:19 *53:6 5.223e-05
22 *69:16 *53:7 5.223e-05
23 *69:8 *53:8 5.187e-05
24 *69:9 *53:9 5.18700007e-05
25 *69:8 *74:2 0.0001236
26 *69:9 *74:3 0.000123600005
27 *69:8 *36:32 0.0002928
28 *69:9 *36:33 0.000292800011

*RES
1 *189:Y *69:17 0.223828
2 *69:18 *69:17 3.2
3 *69:19 *69:18 3.2
4 *69:16 *69:19 0.551562
5 *69:8 *69:16 0.0780273
6 *69:9 *69:8 4.59639
7 *69:9 *69:15 0.0780273
8 *69:14 *69:15 0.367676
9 *69:7 *140:B0 0.671484
10 *69:6 *69:14 3.2
11 *69:4 *69:7 3.2
12 *69:13 *173:A0 6.4000001
13 *69:6 *69:5 0.467969
14 *69:5 *69:4 0.624023
15 *69:12 *69:13 0.467969
16 *69:12 *69:5 0.551562
17 *69:11 *69:12 0.624023
18 *69:10 *168:A0 0.223828
19 *69:10 *69:11 6.4000001
*END

*D_NET *70 0.00297926

*CONN
*I *168:Y O *C 31.35 52.36 *L 0 *D AOI22X1
*I *156:A0 I *C 42.57 46.76 *L 0.00465 *D AOI21X1

*CAP
1 *168:Y 8.34039e-05
2 *156:A0 0.00013984
3 *70:2 0.000254937
4 *70:3 0.000254937
5 *70:4 0.000413466
6 *70:5 0.00048315
7 *70:6 0.000195273
8 *70:7 0.00017985
9 *70:8 0.00017985
10 *70:4 *11:7 0.00016407
11 *70:5 *11:8 0.000164069993
12 *70:4 *64:9 0.00018819
13 *70:5 *64:10 0.00018819
14 *70:2 *64:6 4.502e-05
15 *70:3 *64:7 4.50200109e-05

*RES
1 *70:7 *156:A0 3.20000005
2 *70:7 *70:8 0.312012
3 *70:4 *70:8 3.20000005
4 *70:5 *70:4 2.57402
5 *70:3 *70:5 3.20000005
6 *70:3 *70:2 1.09199
7 *70:6 *70:2 3.20000005
8 *168:Y *70:6 0.447656
*END

*D_NET *71 0.00160178

*CONN
*I *167:Y O *C 51.81 31.64 *L 0 *D OAI2BB1X1
*I *155:D I *C 54.45 23.8 *L 0.00184 *D DFFRHQX1

*CAP
1 *167:Y 0.000166887
2 *155:D 6.32997e-05
3 *71:2 0.00054641
4 *71:3 0.00054641
5 *71:4 0.000278762

*RES
1 *71:3 *155:D 6.4000001
2 *71:3 *71:2 2.18398
3 *71:4 *71:2 3.2
4 *167:Y *71:4 0.895312
*END

*D_NET *72 0.00030864

*CONN
*I *166:Y O *C 31.35 61.88 *L 0 *D OAI22X1
*I *146:A0 I *C 34.65 63.56 *L 0.00336 *D OAI21XL

*CAP
1 *166:Y 7.97302e-05
2 *146:A0 7.45898e-05
3 *72:2 0.00015432

*RES
1 *72:2 *146:A0 0.379824
2 *166:Y *72:2 0.447652161
*END

*D_NET *73 0.000930077

*CONN
*I *165:Y O *C 46.53 52.36 *L 0 *D AOI22X1
*I *131:A0 I *C 47.19 58.52 *L 0.00361 *D OAI221XL

*CAP
1 *165:Y 0.000139839
2 *131:A0 6.33005e-05
3 *73:2 0.00039831
4 *73:3 0.000328628

*RES
1 *73:3 *131:A0 6.4000001
2 *73:2 *73:3 1.24805
3 *165:Y *73:2 3.2
*END

*D_NET *74 0.00173188

*CONN
*I *164:Y O *C 41.91 52.92 *L 0 *D INVX1
*I *140:C0 I *C 36.63 57.96 *L 0.00343 *D AOI221XL

*CAP
1 *164:Y 0.000139841
2 *140:C0 0.000139841
3 *74:2 0.000240982
4 *74:3 0.000240982
5 *74:4 0.00025983
6 *74:5 0.000190149
7 *74:6 7.28801e-05
8 *74:7 0.00012776
9 *74:8 7.24202e-05
10 *74:2 *69:8 0.0001236
11 *74:3 *69:9 0.000123600005

*RES
1 *74:8 *164:Y 3.20000005
2 *74:6 *74:8 0.183838
3 *74:6 *74:7 0.156006
4 *74:2 *74:7 3.20000005
5 *74:5 *140:C0 3.20000005
6 *74:3 *74:2 1.28701
7 *74:4 *74:5 0.935986
8 *74:4 *74:3 3.20000005
*END

*D_NET *75 0.00279165

*CONN
*I *202:Y O *C 62.37 52.92 *L 0 *D INVX1
*I *191:A I *C 53.13 53.48 *L 0.0043 *D NOR2X1
*I *187:A I *C 55.11 53.48 *L 0.0043 *D NOR2X1
*I *163:B I *C 66.99 53.48 *L 0.00375 *D NAND2X1
*I *162:B I *C 63.69 52.92 *L 0.00385 *D NOR2X1

*CAP
1 *202:Y 0.000219568
2 *191:A 6.3301e-05
3 *187:A 6.3301e-05
4 *163:B 3.98619e-05
5 *162:B 3.73019e-05
6 *75:5 0.00055736
7 *75:6 0.000220784
8 *75:7 0.000120598
9 *75:8 0.000120598
10 *75:9 0.000120598
11 *75:10 0.000419659
12 *75:11 0.000214031
13 *75:12 0.000154328
14 *75:13 0.000288618
15 *75:14 0.000151751

*RES
1 *75:14 *163:B 0.223828
2 *75:13 *75:14 0.569727
3 *75:11 *75:13 0.895312
4 *75:11 *75:12 0.189941
5 *75:12 *162:B 0.189941
6 *202:Y *75:12 0.447656
7 *75:9 *202:Y 3.2
8 *75:8 *187:A 6.4000001
9 *75:10 *75:9 3.2
10 *75:5 *75:8 3.2
11 *75:5 *75:10 2.02246
12 *75:6 *75:5 0.551562
13 *75:7 *75:6 3.2
14 *191:A *75:7 6.4000001
*END

*D_NET *76 0.00241806

*CONN
*I *175:Y O *C 65.01 42.28 *L 0 *D AND2X2
*I *163:A I *C 67.65 52.92 *L 0.00403 *D NAND2X1
*I *161:A I *C 70.29 52.92 *L 0.00403 *D NAND2X1

*CAP
1 *175:Y 0.000139841
2 *163:A 0.000139841
3 *161:A 0.000139841
4 *76:3 0.000230008
5 *76:4 0.000174952
6 *76:5 0.000203969
7 *76:6 0.000203969
8 *76:7 0.000249488
9 *76:8 0.00039584
10 *76:9 0.00016097
11 *76:10 0.000222621
12 *76:11 0.000156717

*RES
1 *76:11 *161:A 3.20000005
2 *76:10 *76:11 0.312012
3 *76:9 *163:A 3.20000005
4 *76:8 *76:10 0.735449
5 *76:8 *76:9 0.312012
6 *76:7 *76:8 0.77998
7 *76:6 *76:7 0.367725
8 *76:5 *76:6 0.77998
9 *76:3 *76:5 0.367725
10 *76:4 *76:3 0.624023
11 *175:Y *76:4 3.20000005
*END

*D_NET *77 0.00193087

*CONN
*I *174:Y O *C 61.71 48.44 *L 0 *D NAND2X1
*I *162:A I *C 64.35 53.48 *L 0.0043 *D NOR2X1
*I *160:A I *C 62.37 57.4 *L 0.0043 *D NOR2X1

*CAP
1 *174:Y 3.73001e-05
2 *162:A 6.32981e-05
3 *160:A 6.32981e-05
4 *77:3 0.000119697
5 *77:4 0.000246811
6 *77:5 0.000151493
7 *77:6 0.000194271
8 *77:7 7.24249e-05
9 *77:8 0.000339953
10 *77:9 0.00042938
11 *77:10 0.00021295

*RES
1 *77:5 *160:A 6.4000001
2 *77:4 *77:5 0.624023
3 *77:4 *77:10 0.551562
4 *77:9 *162:A 6.4000001
5 *77:9 *77:10 0.467969
6 *77:8 *77:9 1.24805
7 *77:7 *77:8 0.183887
8 *77:6 *77:7 3.2
9 *77:3 *77:6 0.447656
10 *174:Y *77:3 0.189941
*END

*D_NET *78 0.00775412

*CONN
*I *192:Y O *C 28.71 64.68 *L 0 *D OR4X2
*I *178:B0 I *C 22.11 68.6 *L 0.00314 *D AOI2BB1XL
*I *166:A0 I *C 32.01 63 *L 0.00456 *D OAI22X1
*I *159:B I *C 25.41 54.6 *L 0.00412 *D OR4X2
*I *127:A1 I *C 30.03 37.24 *L 0.00342 *D AOI211XL

*CAP
1 *192:Y 0.000262259
2 *178:B0 6.32977e-05
3 *166:A0 0.000139849
4 *159:B 6.32977e-05
5 *127:A1 0.000139849
6 *78:5 0.000221347
7 *78:6 8.5765e-05
8 *78:7 7.02245e-05
9 *78:8 7.02245e-05
10 *78:9 0.000409359
11 *78:10 0.000464254
12 *78:11 0.000288571
13 *78:12 0.000186795
14 *78:13 0.000486916
15 *78:14 0.00040639
16 *78:15 9.84667e-05
17 *78:16 0.000138729
18 *78:17 0.000184848
19 *78:18 0.0010631
20 *78:19 0.0010631
21 *78:20 0.000120593
22 *78:21 0.000215199
23 *78:22 0.000134187
24 *78:23 0.000120593
25 *78:24 0.000194257
26 *78:25 0.000112677
27 *78:26 0.000142087
28 *78:9 *5:7 0.00014515
29 *78:10 *5:8 0.00014515
30 *78:9 *5:8 5.813e-05
31 *78:10 *5:9 5.813e-05
32 *78:13 *5:5 0.00020066
33 *78:14 *5:6 0.000200660002

*RES
1 *78:23 *127:A1 3.2
2 *78:7 *78:23 3.2
3 *78:8 *78:7 0.183887
4 *78:26 *166:A0 3.2
5 *78:19 *78:8 3.2
6 *78:15 *78:26 0.183887
7 *78:20 *159:B 6.4000001
8 *78:19 *78:18 4.67998
9 *78:16 *78:15 0.312012
10 *78:12 *78:20 3.2
11 *78:17 *78:18 3.2
12 *78:25 *78:16 0.367676
13 *78:12 *78:11 0.367676
14 *78:11 *78:17 0.735449
15 *78:24 *78:25 3.2
16 *78:10 *78:11 3.2
17 *192:Y *78:24 0.447656
18 *78:10 *78:9 2.02803
19 *78:21 *192:Y 0.895312
20 *78:22 *78:9 0.183887
21 *78:22 *78:21 3.2
22 *78:14 *78:22 0.367676
23 *78:14 *78:13 2.34004
24 *78:5 *78:13 0.735449
25 *78:6 *78:5 0.467969
26 *178:B0 *78:6 6.4000001
*END

*D_NET *79 0.00125897

*CONN
*I *159:Y O *C 28.05 54.6 *L 0 *D OR4X2
*I *136:A I *C 32.01 47.32 *L 0.0052 *D NOR4X1

*CAP
1 *159:Y 0.000139838
2 *136:A 0.000139838
3 *79:2 0.000273719
4 *79:3 0.000244741
5 *79:4 0.00046084

*RES
1 *79:3 *136:A 3.20000005
2 *79:3 *79:4 1.09199
3 *79:2 *79:4 1.10312
4 *159:Y *79:2 3.20000005
*END

*D_NET *80 0.00305194

*CONN
*I *158:Y O *C 24.09 64.12 *L 0 *D OAI31X1
*I *135:A0 I *C 22.11 46.76 *L 0.00465 *D AOI21X1

*CAP
1 *158:Y 3.7303e-05
2 *135:A0 0.000139838
3 *80:2 0.00036009
4 *80:3 0.000299699
5 *80:4 9.46668e-05
6 *80:5 0.000114799
7 *80:6 0.000304353
8 *80:7 0.000304353
9 *80:8 0.000203279
10 *80:9 0.000142102
11 *80:10 0.000182361
12 *80:11 0.000205252
13 *80:7 *58:4 5.17e-06
14 *80:6 *58:5 5.17e-06
15 *80:7 *58:6 1.034e-05
16 *80:6 *58:7 1.034e-05
17 *80:3 *58:8 0.00010115
18 *80:2 *58:9 0.00010115
19 *80:3 *58:9 4.178e-05
20 *80:2 *58:10 4.17800025e-05
21 *80:7 *10:5 0.00011162
22 *80:6 *10:6 0.00011162
23 *80:5 *10:5 6.187e-05
24 *80:4 *10:6 6.18700002e-05

*RES
1 *80:11 *158:Y 0.189893
2 *80:8 *80:11 0.895312
3 *80:9 *80:8 3.20000005
4 *80:5 *80:9 0.183838
5 *80:4 *80:5 0.468018
6 *80:4 *80:7 0.0919434
7 *80:6 *80:7 1.71602
8 *80:10 *135:A0 3.20000005
9 *80:3 *80:6 0.0919434
10 *80:2 *80:10 0.367725
11 *80:2 *80:3 2.02798
*END

*D_NET *81 0.00145503

*CONN
*I *157:Y O *C 49.83 46.76 *L 0 *D AOI21X1
*I *134:A I *C 45.21 47.32 *L 0.00337 *D OR2X2

*CAP
1 *157:Y 0.000139838
2 *134:A 0.000139838
3 *81:2 0.00032311
4 *81:3 0.00036597
5 *81:4 0.000109129
6 *81:5 0.000135951
7 *81:6 0.0001206
8 *81:7 0.0001206

*RES
1 *81:7 *157:Y 3.20000005
2 *81:2 *81:7 3.20000005
3 *81:3 *81:2 1.28701
4 *81:4 *81:3 0.312012
5 *81:5 *81:4 0.183838
6 *81:6 *81:5 3.20000005
7 *134:A *81:6 3.20000005
*END

*D_NET *82 0.000744771

*CONN
*I *156:Y O *C 43.23 46.76 *L 0 *D AOI21X1
*I *134:B I *C 45.87 47.32 *L 0.0037 *D OR2X2

*CAP
1 *156:Y 3.98612e-05
2 *134:B 0.000139841
3 *82:2 0.000151729
4 *82:3 0.00018236
5 *82:4 8.79591e-05
6 *82:5 0.000143019

*RES
1 *82:4 *134:B 3.20000005
2 *82:4 *82:5 0.312012
3 *82:3 *82:5 0.367725
4 *82:2 *82:3 3.20000005
5 *156:Y *82:2 0.223828
*END

*D_NET *83 0.00449795

*CONN
*I *195:Y O *C 65.01 47.88 *L 0 *D NOR2X1
*I *154:B I *C 67.65 47.88 *L 0.00209 *D AND2XL
*I *153:AN I *C 66.99 67.48 *L 0.0022 *D NOR2BXL
*I *152:B I *C 64.35 68.04 *L 0.00209 *D AND2XL
*I *147:AN I *C 69.63 47.32 *L 0.0022 *D NOR2BXL

*CAP
1 *195:Y 4.16982e-05
2 *154:B 0.000139836
3 *153:AN 3.98623e-05
4 *152:B 0.000139836
5 *147:AN 0.000139836
6 *83:5 0.000380907
7 *83:6 0.000401040547
8 *83:7 0.000359759
9 *83:8 0.000359759
10 *83:9 0.000378178
11 *83:10 0.000298968
12 *83:11 0.0001864
13 *83:12 0.000171603
14 *83:13 0.000153569
15 *83:14 0.000153703
16 *83:15 0.000128056
17 *83:16 0.000150441
18 *83:17 0.000167968
19 *83:18 7.26505e-05
20 *83:19 0.000133185
21 *83:20 0.000202867
22 *83:21 0.000222621
23 *83:22 7.51901e-05

*RES
1 *83:18 *147:AN 3.20000005
2 *83:18 *83:17 0.312012
3 *83:14 *83:17 0.551562
4 *83:15 *154:B 3.20000005
5 *83:15 *83:14 0.156006
6 *83:19 *83:15 3.20000005
7 *83:20 *83:19 0.551562
8 *195:Y *83:13 0.223828
9 *83:12 *83:20 3.20000005
10 *83:12 *83:13 3.20000005
11 *83:12 *83:11 0.468018
12 *83:11 *83:6 0.183838
13 *83:6 *83:5 1.87202
14 *83:5 *83:8 0.0919434
15 *83:8 *83:7 1.71602
16 *83:22 *153:AN 0.223828
17 *83:10 *83:7 0.0919434
18 *83:9 *83:22 3.20000005
19 *83:10 *83:9 1.404
20 *83:9 *83:16 0.156006
21 *83:21 *83:16 0.551562
22 *152:B *83:21 3.20000005
*END

*D_NET *84 0.00269376

*CONN
*I *163:Y O *C 67.65 52.36 *L 0 *D NAND2X1
*I *153:B I *C 68.31 68.04 *L 0.00302 *D NOR2BXL
*I *151:A I *C 70.95 67.48 *L 0.00317 *D NOR2XL
*I *150:A I *C 70.95 63.56 *L 0.00317 *D NOR2XL
*I *148:A I *C 70.95 57.4 *L 0.00317 *D NOR2XL

*CAP
1 *163:Y 0.000139841
2 *153:B 0.000139841
3 *151:A 6.33017e-05
4 *150:A 6.33017e-05
5 *148:A 6.33017e-05
6 *84:5 9.19621e-05
7 *84:6 0.000227545
8 *84:7 0.000182361
9 *84:8 0.000110184
10 *84:9 0.000110184
11 *84:10 0.000253207
12 *84:11 0.000425281
13 *84:12 0.00052261
14 *84:13 0.000300839

*RES
1 *84:7 *153:B 3.2
2 *84:7 *84:9 0.367676
3 *84:8 *84:9 0.155957
4 *84:13 *151:A 6.4000001
5 *84:8 *84:13 0.367676
6 *84:12 *150:A 6.4000001
7 *84:12 *84:13 1.09199
8 *84:11 *148:A 6.4000001
9 *84:11 *84:12 1.71602
10 *84:10 *84:11 0.467969
11 *84:6 *84:10 0.735449
12 *84:5 *84:6 0.467969
13 *163:Y *84:5 3.2
*END

*D_NET *85 0.00296549

*CONN
*I *146:Y O *C 35.31 61.88 *L 0 *D OAI21XL
*I *133:C0 I *C 35.31 42.84 *L 0.00329 *D OAI221XL

*CAP
1 *146:Y 6.33021e-05
2 *133:C0 0.000139836
3 *85:2 0.000209825
4 *85:3 0.000203138
5 *85:4 0.000958965
6 *85:5 0.00102864
7 *85:6 0.000120593
8 *85:7 0.000120593
9 *85:8 0.000120593

*RES
1 *85:2 *146:Y 6.4000001
2 *85:3 *85:2 0.624023
3 *85:8 *85:3 3.2
4 *85:4 *85:8 3.2
5 *85:5 *85:4 4.67998
6 *85:7 *85:5 3.2
7 *85:6 *85:7 3.2
8 *133:C0 *85:6 3.2
*END

*D_NET *86 0.00623028

*CONN
*I *190:Y O *C 66.99 42.28 *L 0 *D NAND2X1
*I *150:B I *C 70.29 63 *L 0.00274 *D NOR2XL
*I *149:B I *C 68.31 63 *L 0.00302 *D NOR2BXL
*I *144:B I *C 70.29 32.76 *L 0.00274 *D NOR2XL
*I *143:B I *C 68.31 32.76 *L 0.00302 *D NOR2BXL

*CAP
1 *190:Y 7.97054e-05
2 *150:B 0.000114435
3 *149:B 0.000139841
4 *144:B 5.56446e-05
5 *143:B 0.000139841
6 *86:5 0.000557841
7 *86:6 0.000674497
8 *86:7 0.00106255
9 *86:8 0.00106255
10 *86:9 0.000172122
11 *86:10 0.000266387
12 *86:11 9.09738e-05
13 *86:12 0.000182353
14 *86:13 0.000182353
15 *86:14 0.000159978
16 *86:15 0.000115035
17 *86:16 0.000272078
18 *86:17 7.51819e-05
19 *86:18 0.000182353
20 *86:19 0.000205879
21 *86:20 0.000272078
22 *86:21 0.00016661

*RES
1 *86:13 *149:B 3.2
2 *86:13 *86:18 0.367696
3 *86:17 *86:18 3.2
4 *86:17 *150:B 0.223802
5 *86:19 *150:B 0.379836
6 *86:19 *86:21 0.895281
7 *86:7 *86:21 3.2
8 *86:11 *144:B 0.223802
9 *86:12 *143:B 3.2
10 *86:8 *86:7 4.67999983
11 *86:6 *86:11 3.2
12 *86:12 *86:6 0.367696
13 *86:20 *86:8 3.2
14 *86:6 *86:5 2.028
15 *86:16 *86:20 1.10316
16 *86:14 *86:5 0.183884
17 *86:9 *86:16 3.2
18 *86:14 *86:10 0.780024
19 *86:10 *86:9 0.62399
20 *86:15 *86:10 3.2
21 *190:Y *86:15 0.447676
*END

*D_NET *87 0.00575716

*CONN
*I *162:Y O *C 65.01 52.92 *L 0 *D NOR2X1
*I *154:A I *C 66.99 47.32 *L 0.00201 *D AND2XL
*I *145:AN I *C 69.63 37.24 *L 0.0022 *D NOR2BXL
*I *143:AN I *C 66.99 33.32 *L 0.0022 *D NOR2BXL
*I *141:AN I *C 66.99 27.16 *L 0.0022 *D NOR2BXL

*CAP
1 *162:Y 0.000139843
2 *154:A 3.98608e-05
3 *145:AN 4.17159e-05
4 *143:AN 0.000139843
5 *141:AN 0.000139843
6 *87:5 0.000334048
7 *87:6 0.000448541
8 *87:7 0.000212368
9 *87:8 0.000307697
10 *87:9 0.000307697
11 *87:10 0.00063652
12 *87:11 0.000556002
13 *87:12 0.000228413
14 *87:13 0.000189038
15 *87:14 0.000265719
16 *87:15 0.000328939
17 *87:16 0.000400318
18 *87:17 0.000300879
19 *87:18 0.000340798
20 *87:19 0.000153586
21 *87:20 0.000245478

*RES
1 *87:19 *145:AN 0.223828
2 *87:13 *154:A 0.223828
3 *87:15 *141:AN 3.20000005
4 *87:20 *87:19 3.20000005
5 *87:13 *87:14 0.759668
6 *87:16 *143:AN 3.20000005
7 *87:15 *87:16 1.71602
8 *87:18 *87:20 0.77998
9 *87:12 *87:14 0.447656
10 *87:5 *162:Y 3.20000005
11 *87:16 *87:17 0.312012
12 *87:17 *87:18 0.551562
13 *87:6 *87:12 3.20000005
14 *87:6 *87:5 0.77998
15 *87:10 *87:17 0.551562
16 *87:7 *87:6 0.77998
17 *87:10 *87:11 2.33999
18 *87:9 *87:7 0.183838
19 *87:8 *87:11 0.183838
20 *87:8 *87:9 1.09199
*END

*D_NET *88 0.00379118

*CONN
*I *161:Y O *C 70.29 52.36 *L 0 *D NAND2X1
*I *147:B I *C 70.95 47.88 *L 0.00302 *D NOR2BXL
*I *144:A I *C 70.95 33.32 *L 0.00317 *D NOR2XL
*I *142:A I *C 71.61 27.16 *L 0.00317 *D NOR2XL
*I *137:A I *C 70.95 43.4 *L 0.00317 *D NOR2XL

*CAP
1 *161:Y 3.73003e-05
2 *147:B 0.000139842
3 *144:A 6.33008e-05
4 *142:A 6.33008e-05
5 *137:A 6.33008e-05
6 *88:5 0.000317845
7 *88:6 0.000476831
8 *88:7 6.57233e-05
9 *88:8 0.000303271
10 *88:9 0.00051713
11 *88:10 7.999e-05
12 *88:11 6.57233e-05
13 *88:12 0.000424507
14 *88:13 0.000384255
15 *88:14 0.000394427
16 *88:15 0.000394427

*RES
1 *88:10 *161:Y 0.189941
2 *88:5 *88:10 3.2
3 *88:6 *147:B 3.2
4 *88:6 *88:5 1.09199
5 *88:11 *142:A 6.4000001
6 *88:9 *137:A 6.4000001
7 *88:9 *88:6 1.24805
8 *88:11 *88:14 0.183887
9 *88:8 *88:9 1.09199
10 *88:14 *88:15 1.71602
11 *88:8 *88:13 0.183887
12 *88:12 *88:15 0.183887
13 *88:12 *88:13 1.71602
14 *88:7 *88:12 0.183887
15 *144:A *88:7 6.4000001
*END

*D_NET *89 0.00840781

*CONN
*I *197:Y O *C 67.65 38.36 *L 0 *D NAND2X1
*I *185:A I *C 64.35 57.4 *L 0.00346 *D INVX1
*I *148:B I *C 70.29 57.96 *L 0.00274 *D NOR2XL
*I *142:B I *C 70.95 27.72 *L 0.00274 *D NOR2XL
*I *141:B I *C 68.31 27.72 *L 0.00302 *D NOR2BXL
*I *138:B I *C 68.31 57.96 *L 0.00302 *D NOR2BXL

*CAP
1 *197:Y 0.000259675
2 *185:A 0.000139846
3 *148:B 3.98425e-05
4 *142:B 7.45856e-05
5 *141:B 0.000139846
6 *138:B 0.000139846
7 *89:6 0.000205154
8 *89:7 0.000278453
9 *89:8 0.000124214
10 *89:9 0.000505069
11 *89:10 0.000505069
12 *89:11 0.000188092
13 *89:12 0.000126327
14 *89:13 0.000204852
15 *89:14 0.000202882
16 *89:15 0.000295006
17 *89:16 0.000261423
18 *89:17 0.000261423
19 *89:18 0.0010411
20 *89:19 0.000986229
21 *89:20 0.000459126
22 *89:21 0.000459126
23 *89:22 0.000132157
24 *89:23 0.000187044
25 *89:24 0.000309478
26 *89:25 0.000309478
27 *89:26 0.000120592
28 *89:27 7.51733e-05
29 *89:28 0.000182357
30 *89:29 7.85094e-05
31 *89:30 0.00011581

*RES
1 *89:27 *148:B 0.223802
2 *89:28 *89:27 3.2
3 *89:11 *138:B 3.2
4 *89:11 *89:28 0.367696
5 *89:26 *185:A 3.2
6 *89:12 *89:11 0.156033
7 *89:17 *89:26 3.2
8 *89:16 *89:12 3.2
9 *89:17 *89:16 1.10316
10 *142:B *89:30 0.379836
11 *89:18 *89:16 3.2
12 *89:29 *89:30 0.223802
13 *89:19 *89:18 4.67999983
14 *89:29 *89:13 0.189882
15 *89:19 *89:20 0.183884
16 *89:14 *89:13 0.671479
17 *89:8 *141:B 3.2
18 *89:21 *89:20 2.18397
19 *89:7 *89:14 3.2
20 *89:8 *89:7 0.468029
21 *89:22 *89:21 0.183884
22 *89:7 *89:6 0.468029
23 *89:23 *89:22 0.468029
24 *89:24 *89:6 3.2
25 *89:24 *89:23 3.2
26 *89:15 *197:Y 1.34296
27 *89:25 *89:24 1.28697
28 *89:9 *89:15 3.2
29 *89:10 *89:25 3.2
30 *89:10 *89:9 2.028
*END

*D_NET *90 0.00200578

*CONN
*I *140:Y O *C 34.65 56.28 *L 0 *D AOI221XL
*I *131:B0 I *C 46.53 57.4 *L 0.00352 *D OAI221XL

*CAP
1 *140:Y 3.98419e-05
2 *131:B0 6.32996e-05
3 *90:2 0.0002183
4 *90:3 0.000148621
5 *90:4 0.000142929
6 *90:5 0.000134229
7 *90:6 0.000144519
8 *90:7 0.00015322
9 *90:8 7.51716e-05
10 *90:9 0.000170787
11 *90:10 0.000170787
12 *90:11 0.00027204
13 *90:12 0.00027204

*RES
1 *90:3 *131:B0 6.4000001
2 *90:3 *90:2 0.624023
3 *90:6 *90:2 3.2
4 *90:7 *90:6 0.551562
5 *90:7 *90:12 0.155957
6 *90:11 *90:12 1.28701
7 *90:4 *90:11 0.155957
8 *90:5 *90:4 0.551562
9 *90:10 *90:5 3.2
10 *90:9 *90:10 0.467969
11 *90:8 *90:9 3.2
12 *140:Y *90:8 0.223828
*END

*D_NET *91 0.00896104

*CONN
*I *193:Y O *C 56.43 48.44 *L 0 *D NAND2X1
*I *182:A I *C 56.43 53.48 *L 0.00346 *D INVX1
*I *151:B I *C 70.29 68.04 *L 0.00274 *D NOR2XL
*I *145:B I *C 70.95 37.8 *L 0.00302 *D NOR2BXL
*I *139:B I *C 61.71 68.04 *L 0.00302 *D NOR2BXL
*I *137:B I *C 70.29 42.84 *L 0.00274 *D NOR2XL

*CAP
1 *193:Y 0.000105581
2 *182:A 0.000139843
3 *151:B 6.32996e-05
4 *145:B 0.000139843
5 *139:B 0.000139843
6 *137:B 7.45792e-05
7 *91:6 0.000443193
8 *91:7 0.00037351
9 *91:8 0.000425312
10 *91:9 0.000454404
11 *91:10 0.000374888
12 *91:11 0.000374888
13 *91:12 0.000137483
14 *91:13 0.000350487
15 *91:14 0.000278704
16 *91:15 0.000824177
17 *91:16 0.000893846172
18 *91:17 0.000570856
19 *91:18 0.000787597
20 *91:19 0.000306514
21 *91:20 7.76208e-05
22 *91:21 5.3984e-05
23 *91:22 0.000563423
24 *91:23 0.000117284
25 *91:24 6.06809e-05
26 *91:25 0.000123653
27 *91:26 0.000563423
28 *91:27 0.000142093

*RES
1 *91:24 *151:B 6.4000001
2 *91:24 *91:25 0.155957
3 *91:26 *91:25 3.2
4 *91:22 *91:26 2.39014
5 *91:21 *91:22 3.2
6 *91:8 *139:B 3.2
7 *91:8 *91:21 0.155957
8 *91:9 *91:8 1.71602
9 *91:10 *91:9 3.2
10 *91:11 *91:10 1.79062
11 *91:17 *91:11 3.2
12 *91:18 *182:A 3.2
13 *91:18 *91:17 2.34004
14 *91:27 *145:B 3.2
15 *91:23 *137:B 0.379785
16 *91:19 *91:18 1.404
17 *91:14 *91:27 0.183887
18 *91:12 *91:23 3.2
19 *193:Y *91:19 6.4000001
20 *91:14 *91:13 0.936035
21 *91:13 *91:12 0.155957
22 *91:15 *91:13 3.2
23 *91:20 *193:Y 0.223828
24 *91:16 *91:15 3.86104
25 *91:6 *91:20 3.2
26 *91:7 *91:16 3.2
27 *91:7 *91:6 1.55996
*END

*D_NET *92 0.00483052

*CONN
*I *160:Y O *C 63.03 57.96 *L 0 *D NOR2X1
*I *152:A I *C 63.69 67.48 *L 0.00201 *D AND2XL
*I *149:AN I *C 66.99 63.56 *L 0.0022 *D NOR2BXL
*I *139:AN I *C 60.39 67.48 *L 0.0022 *D NOR2BXL
*I *138:AN I *C 66.99 57.4 *L 0.0022 *D NOR2BXL

*CAP
1 *160:Y 7.97376e-05
2 *152:A 0.000139843
3 *149:AN 0.000202105
4 *139:AN 0.000139843
5 *138:AN 8.06578e-05
6 *92:5 0.000124702
7 *92:6 0.000352871
8 *92:7 0.000243345
9 *92:8 0.00055841
10 *92:9 0.000326142
11 *92:10 0.000117033
12 *92:11 0.00012667
13 *92:12 0.00024551
14 *92:13 0.00044741
15 *92:14 0.000156527
16 *92:15 0.000356408
17 *92:16 0.000289298
18 *92:17 0.000192527
19 *92:18 0.000278093
20 *92:19 0.000373407

*RES
1 *92:17 *138:AN 0.447656
2 *92:18 *92:17 3.20000005
3 *92:18 *92:19 1.09199
4 *92:12 *92:19 0.551562
5 *92:16 *152:A 3.20000005
6 *92:12 *92:15 0.77998
7 *92:15 *92:16 0.935986
8 *92:14 *92:15 3.20000005
9 *92:13 *149:AN 1.11914
10 *92:13 *92:14 0.189893
11 *92:7 *92:13 1.11914
12 *92:9 *139:AN 3.20000005
13 *92:8 *92:7 3.20000005
14 *92:8 *92:9 1.09199
15 *92:10 *160:Y 0.447656
16 *92:6 *92:8 1.248
17 *92:10 *92:11 0.189893
18 *92:5 *92:6 3.20000005
19 *92:5 *92:11 0.447656
*END

*D_NET *93 0.00315534

*CONN
*I *136:Y O *C 30.03 46.76 *L 0 *D NOR4X1
*I *132:A I *C 43.23 37.24 *L 0.00429 *D OR4X2

*CAP
1 *136:Y 6.32975e-05
2 *132:A 0.000139839
3 *93:2 0.000153629
4 *93:3 0.000223314
5 *93:4 0.000362132
6 *93:5 0.00043181
7 *93:6 0.00047144
8 *93:7 0.000394417
9 *93:8 0.000272145
10 *93:9 0.000264801
11 *93:6 *15:11 4.941e-05
12 *93:7 *15:12 4.941e-05
13 *93:6 *15:13 0.000115
14 *93:7 *15:14 0.000115
15 *93:9 *15:11 2.485e-05
16 *93:8 *15:12 2.48499976e-05

*RES
1 *93:5 *132:A 3.2
2 *93:5 *93:4 1.55996
3 *93:9 *93:4 3.2
4 *93:8 *93:9 0.919238
5 *93:8 *93:6 0.467969
6 *93:7 *93:6 2.02246
7 *93:2 *136:Y 6.4000001
8 *93:3 *93:7 3.2
9 *93:3 *93:2 0.624023
*END

*D_NET *94 0.0016033

*CONN
*I *135:Y O *C 22.77 46.76 *L 0 *D AOI21X1
*I *128:B I *C 22.11 37.8 *L 0.00249 *D OR4X1

*CAP
1 *135:Y 6.33043e-05
2 *128:B 0.000139843
3 *94:2 0.000261772
4 *94:3 0.000276573
5 *94:4 0.00043496
6 *94:5 0.000426863

*RES
1 *94:5 *135:Y 6.4000001
2 *94:4 *94:5 1.404
3 *94:3 *94:4 0.183887
4 *94:2 *94:3 1.09199
5 *128:B *94:2 3.2
*END

*D_NET *95 0.000931743

*CONN
*I *134:Y O *C 47.19 46.2 *L 0 *D OR2X2
*I *129:B0 I *C 45.87 42.84 *L 0.00433 *D AOI22X1

*CAP
1 *134:Y 0.00013984
2 *129:B0 0.00013984
3 *95:2 0.000207322
4 *95:3 0.000262380078
5 *95:4 0.000182359

*RES
1 *95:4 *134:Y 3.20000005
2 *95:3 *95:4 0.367725
3 *95:2 *95:3 0.935986
4 *129:B0 *95:2 3.20000005
*END

*D_NET *96 0.00487042

*CONN
*I *188:Y O *C 24.09 44.52 *L 0 *D OR4X2
*I *176:B I *C 26.73 47.32 *L 0.00488 *D NOR4BX1
*I *136:B I *C 30.69 48.44 *L 0.00501 *D NOR4X1
*I *135:B0 I *C 22.77 47.32 *L 0.00441 *D AOI21X1
*I *133:A0 I *C 33.33 42.28 *L 0.00361 *D OAI221XL
*I *127:C0 I *C 31.35 37.8 *L 0.00317 *D AOI211XL

*CAP
1 *188:Y 6.32965e-05
2 *176:B 0.000139844
3 *136:B 0.000156526
4 *135:B0 6.32965e-05
5 *133:A0 0.000139844
6 *127:C0 6.32965e-05
7 *96:6 0.000200595
8 *96:7 0.000200595
9 *96:8 0.000216197
10 *96:9 0.000338729
11 *96:10 0.000530376
12 *96:11 0.00079451
13 *96:12 6.57212e-05
14 *96:13 0.00023882
15 *96:14 0.000309027
16 *96:15 0.000200061
17 *96:16 0.000164394
18 *96:17 0.000202025
19 *96:18 7.24255e-05
20 *96:19 0.000164394
21 *96:20 0.000249331
22 *96:21 0.000132473
23 *96:22 9.2223e-05
24 *96:23 7.24255e-05

*RES
1 *96:23 *133:A0 3.2
2 *96:22 *96:23 0.183887
3 *96:20 *127:C0 6.4000001
4 *96:21 *96:22 0.312012
5 *96:20 *96:11 0.936035
6 *96:11 *96:21 0.367676
7 *96:11 *96:10 2.02803
8 *96:18 *96:10 0.183887
9 *136:B *96:18 3.2
10 *136:B *96:19 0.189941
11 *96:16 *96:19 0.671484
12 *96:16 *96:17 0.189941
13 *96:15 *96:17 0.671484
14 *96:8 *96:15 3.2
15 *96:9 *176:B 3.2
16 *96:9 *96:8 0.624023
17 *96:14 *96:9 0.77998
18 *96:13 *96:14 0.735449
19 *96:13 *188:Y 6.4000001
20 *96:7 *96:13 0.183887
21 *96:7 *96:6 0.77998
22 *96:12 *96:6 0.183887
23 *135:B0 *96:12 6.4000001
*END

*D_NET *97 0.000890788

*CONN
*I *133:Y O *C 33.33 41.72 *L 0 *D OAI221XL
*I *125:A1 I *C 39.93 42.84 *L 0.00363 *D OAI32XL

*CAP
1 *133:Y 6.94194e-05
2 *125:A1 6.32982e-05
3 *97:2 0.00018129
4 *97:3 0.00026288
5 *97:4 0.000224741
6 *97:5 8.9159e-05

*RES
1 *97:5 *125:A1 6.4000001
2 *97:4 *97:5 0.312012
3 *97:3 *97:4 0.735449
4 *97:2 *97:3 3.2
5 *133:Y *97:2 0.447656
*END

*D_NET *98 0.00224124

*CONN
*I *131:Y O *C 47.19 59.08 *L 0 *D OAI221XL
*I *129:A0 I *C 46.53 43.4 *L 0.00465 *D AOI22X1

*CAP
1 *131:Y 0.000139838
2 *129:A0 6.33006e-05
3 *98:2 0.000209822
4 *98:3 0.000154758
5 *98:4 0.000211601
6 *98:5 0.000251866
7 *98:6 0.000528564
8 *98:7 0.00056882
9 *98:8 0.000112679

*RES
1 *98:8 *131:Y 3.2
2 *98:7 *98:8 0.367676
3 *98:6 *98:7 2.18398
4 *98:4 *98:6 0.183887
5 *98:5 *98:4 1.09199
6 *98:2 *98:5 0.367676
7 *98:3 *98:2 0.467969
8 *129:A0 *98:3 6.4000001
*END

*D_NET *99 0.00410648

*CONN
*I *206:Y O *C 61.71 42.84 *L 0 *D INVX1
*I *175:B I *C 63.69 41.72 *L 0.00323 *D AND2X2
*I *129:B1 I *C 45.21 43.4 *L 0.00434 *D AOI22X1
*I *125:B1 I *C 42.57 42.84 *L 0.00353 *D OAI32XL

*CAP
1 *206:Y 0.000177135
2 *175:B 0.000123599
3 *129:B1 7.97284e-05
4 *125:B1 0.000139836
5 *99:4 5.513e-05
6 *99:5 0.000171612
7 *99:6 0.000156574
8 *99:7 6.03653e-05
9 *99:8 6.03653e-05
10 *99:9 0.00099448
11 *99:10 0.00099448
12 *99:11 0.000117028
13 *99:12 8.00015e-05
14 *99:13 0.000182355
15 *99:14 0.000160898
16 *99:9 *38:13 0.00025611
17 *99:10 *38:14 0.00025611
18 *99:7 *38:15 2.034e-05
19 *99:8 *38:16 2.03399768e-05

*RES
1 *99:14 *175:B 0.671445
2 *99:14 *206:Y 0.189889
3 *99:8 *206:Y 3.19996
4 *99:8 *99:7 0.155963
5 *99:11 *129:B1 0.44763
6 *99:9 *99:7 3.19996
7 *99:11 *99:12 0.189889
8 *99:10 *99:9 5.3318572
9 *99:13 *99:12 3.19996
10 *99:4 *99:10 3.19996
11 *99:5 *99:13 0.367737
12 *99:5 *99:4 0.155963
13 *99:6 *99:5 0.312007
14 *125:B1 *99:6 3.19996
*END

*D_NET *100 0.000907346

*CONN
*I *129:Y O *C 47.19 42.28 *L 0 *D AOI22X1
*I *120:A0 I *C 51.15 43.4 *L 0.00465 *D AOI22X1

*CAP
1 *129:Y 8.24001e-05
2 *120:A0 6.3299e-05
3 *100:2 0.000119699
4 *100:3 0.000156529
5 *100:4 0.00022262
6 *100:5 8.37385e-05
7 *100:6 0.000179061

*RES
1 *100:5 *120:A0 6.4000001
2 *100:5 *100:6 0.312012
3 *100:4 *100:6 0.551562
4 *100:3 *100:4 3.2
5 *100:2 *100:3 0.189941
6 *129:Y *100:2 0.447656
*END

*D_NET *101 0.000721889

*CONN
*I *128:Y O *C 24.75 38.92 *L 0 *D OR4X1
*I *124:B0 I *C 27.39 37.8 *L 0.00343 *D OAI2BB1X1

*CAP
1 *128:Y 8.23998e-05
2 *124:B0 0.00013984
3 *101:2 0.00011773
4 *101:3 0.00010598
5 *101:4 0.0001452804
6 *101:5 0.00013066

*RES
1 *101:4 *124:B0 3.2
2 *101:4 *101:5 0.312012
3 *101:3 *101:5 0.367676
4 *101:2 *101:3 6.4000001
5 *128:Y *101:2 0.447656
*END

*D_NET *102 0.00771883

*CONN
*I *176:Y O *C 25.41 46.76 *L 0 *D NOR4BX1
*I *158:B0 I *C 23.43 63.56 *L 0.00401 *D OAI31X1
*I *146:B0 I *C 35.31 62.44 *L 0.00302 *D OAI21XL
*I *127:A0 I *C 30.69 37.24 *L 0.00341 *D AOI211XL
*I *126:A1 I *C 38.61 37.8 *L 0.00472 *D AOI22X1

*CAP
1 *176:Y 0.000139843
2 *158:B0 0.000139843
3 *146:B0 6.32959e-05
4 *127:A0 0.000139843
5 *126:A1 6.32959e-05
6 *102:5 0.000493805
7 *102:6 0.000220263
8 *102:7 5.839e-05
9 *102:8 0.000128059
10 *102:9 0.000184821
11 *102:10 0.000227691
12 *102:11 0.000329776
13 *102:12 0.000139911
14 *102:13 7.02193e-05
15 *102:14 9.05079e-05
16 *102:15 9.05079e-05
17 *102:16 0.000155042
18 *102:17 0.000333926
19 *102:18 0.000270676
20 *102:19 0.000300684
21 *102:20 0.000300684
22 *102:21 6.48319e-05
23 *102:22 7.35205e-05
24 *102:23 0.000180626
25 *102:24 0.000110934
26 *102:25 0.000891714
27 *102:26 0.00150239
28 *102:27 0.000731262
29 *102:28 0.000120608
30 *102:29 5.09164e-05
31 *102:30 5.09164e-05

*RES
1 *102:30 *126:A1 6.4000001
2 *102:29 *146:B0 6.4000001
3 *102:9 *102:30 6.4000001
4 *102:21 *102:29 6.4000001
5 *102:7 *127:A0 3.2
6 *102:10 *102:9 0.919238
7 *102:22 *102:21 0.183887
8 *102:8 *102:7 0.155957
9 *102:11 *102:10 0.312012
10 *102:14 *102:22 0.155957
11 *102:5 *102:8 3.2
12 *102:5 *102:11 1.28701
13 *102:28 *176:Y 3.2
14 *102:15 *102:14 0.367676
15 *102:6 *102:5 1.10312
16 *102:12 *102:28 3.2
17 *102:19 *102:15 0.155957
18 *102:27 *102:6 3.2
19 *102:13 *102:12 0.183887
20 *102:20 *102:19 1.28701
21 *102:27 *102:26 3.27598
22 *102:26 *102:13 3.2
23 *102:20 *102:16 0.155957
24 *102:26 *102:25 3.74404
25 *102:17 *102:16 0.551562
26 *102:17 *102:25 3.2
27 *102:23 *158:B0 3.2
28 *102:18 *102:17 0.919238
29 *102:24 *102:23 0.312012
30 *102:24 *102:18 3.2
*END

*D_NET *103 0.00074786

*CONN
*I *127:Y O *C 32.67 38.36 *L 0 *D AOI211XL
*I *122:B0 I *C 32.67 33.32 *L 0.00441 *D AOI21X1

*CAP
1 *127:Y 0.00013984
2 *122:B0 6.33007e-05
3 *103:2 0.00017038
4 *103:3 0.00017038
5 *103:3 *109:9 0.00010198
6 *103:2 *109:10 0.000101980003

*RES
1 *103:3 *127:Y 3.2
2 *103:2 *103:3 0.936035
3 *122:B0 *103:2 6.4000001
*END

*D_NET *104 0.00184348

*CONN
*I *130:Y O *C 41.91 37.8 *L 0 *D INVX1
*I *126:A0 I *C 37.95 37.24 *L 0.00465 *D AOI22X1
*I *125:B0 I *C 41.91 42.84 *L 0.00341 *D OAI32XL

*CAP
1 *130:Y 0.000170202
2 *126:A0 6.32995e-05
3 *125:B0 0.000139842
4 *104:3 0.000273528438
5 *104:4 0.000273528438
6 *104:5 0.00019724
7 *104:6 0.000101919
8 *104:7 0.000244771
9 *104:8 0.000222621
10 *104:9 0.000156533

*RES
1 *104:3 *125:B0 3.2
2 *104:4 *104:3 1.09199
3 *104:9 *104:4 3.2
4 *130:Y *104:9 0.189941
5 *104:7 *130:Y 0.671484
6 *104:8 *104:7 3.2
7 *104:5 *104:8 0.551562
8 *104:6 *104:5 0.312012
9 *126:A0 *104:6 6.4000001
*END

*D_NET *105 0.00107813

*CONN
*I *126:Y O *C 38.61 38.36 *L 0 *D AOI22X1
*I *123:A I *C 38.61 33.32 *L 0.0026 *D INVXL

*CAP
1 *126:Y 0.000139842
2 *123:A 7.97299e-05
3 *105:2 7.24188e-05
4 *105:3 0.000115061
5 *105:4 0.00036298
6 *105:5 0.000308102

*RES
1 *105:2 *126:Y 3.20000005
2 *105:2 *105:5 0.183838
3 *105:4 *105:5 0.935986
4 *105:3 *105:4 3.20000005
5 *123:A *105:3 0.447656
*END

*D_NET *106 0.00286273

*CONN
*I *125:Y O *C 41.25 41.72 *L 0 *D OAI32XL
*I *121:D I *C 38.61 23.8 *L 0.00184 *D DFFRHQX1

*CAP
1 *125:Y 0.000139837
2 *121:D 6.32914e-05
3 *106:2 0.0011802
4 *106:3 0.00126073
5 *106:4 0.000146244
6 *106:5 7.24292e-05

*RES
1 *106:5 *125:Y 3.2
2 *106:2 *106:5 0.183887
3 *106:3 *106:2 4.99199
4 *106:4 *106:3 0.551562
5 *121:D *106:4 6.4000001
*END

*D_NET *107 0.00240594

*CONN
*I *124:Y O *C 28.71 38.92 *L 0 *D OAI2BB1X1
*I *118:D I *C 23.43 26.6 *L 0.00184 *D DFFRHQX1

*CAP
1 *124:Y 0.000139846
2 *118:D 6.32996e-05
3 *107:2 0.00061005
4 *107:3 0.000540374
5 *107:4 0.000213534
6 *107:5 0.000213534
7 *107:6 0.000312654
8 *107:7 0.000312654

*RES
1 *107:4 *124:Y 3.2
2 *107:5 *107:4 0.936035
3 *107:7 *107:5 3.2
4 *107:6 *107:7 1.4709
5 *107:2 *107:6 3.2
6 *107:3 *107:2 2.34004
7 *118:D *107:3 6.4000001
*END

*D_NET *108 0.00101555

*CONN
*I *123:Y O *C 37.95 33.88 *L 0 *D INVXL
*I *117:D I *C 37.95 26.6 *L 0.00184 *D DFFRHQX1

*CAP
1 *123:Y 3.29261e-05
2 *117:D 6.32973e-05
3 *108:2 5.8709e-05
4 *108:3 0.00036523
5 *108:4 6.82571e-05
6 *108:5 0.00042712

*RES
1 *123:Y *108:4 0.184863
2 *108:5 *108:4 3.2
3 *108:3 *108:5 1.54883
4 *108:2 *108:3 0.151855
5 *117:D *108:2 6.4000001
*END

*D_NET *109 0.00815035

*CONN
*I *132:Y O *C 46.53 36.12 *L 0 *D OR4X2
*I *130:A I *C 41.25 37.24 *L 0.00346 *D INVX1
*I *128:A I *C 21.45 38.36 *L 0.00279 *D OR4X1
*I *127:B0 I *C 32.01 37.24 *L 0.00352 *D AOI211XL
*I *126:B0 I *C 37.29 37.8 *L 0.00433 *D AOI22X1
*I *125:A0 I *C 40.59 42.28 *L 0.00368 *D OAI32XL
*I *124:A1N I *C 26.07 38.36 *L 0.00148 *D OAI2BB1X1
*I *122:A0 I *C 32.01 33.88 *L 0.00465 *D AOI21X1
*I *115:B I *C 52.47 37.8 *L 0.00277 *D NAND2XL

*CAP
1 *132:Y 0.000139847
2 *130:A 0.000139847
3 *128:A 0.000139847
4 *127:B0 6.32967e-05
5 *126:B0 0.000139847
6 *125:A0 3.98539e-05
7 *124:A1N 6.32967e-05
8 *122:A0 0.000139847
9 *115:B 0.000139847
10 *109:9 0.000286483
11 *109:10 0.000161197
12 *109:11 0.000208371
13 *109:12 0.000157299
14 *109:13 0.000157299
15 *109:14 7.20401e-05
16 *109:15 0.000152569
17 *109:16 0.000216247
18 *109:17 0.000222655
19 *109:18 8.29692e-05
20 *109:19 0.000113432
21 *109:20 0.000113432
22 *109:21 0.000477044
23 *109:22 0.00075793
24 *109:23 0.000594386
25 *109:24 0.000120603
26 *109:25 0.000429025
27 *109:26 5.09219e-05
28 *109:27 0.000526844
29 *109:28 0.000189589
30 *109:29 0.000246109
31 *109:30 0.000590002
32 *109:31 0.000596409
33 *109:32 0.000117283
34 *109:33 6.57254e-05
35 *109:34 0.00011445
36 *109:35 0.000120603
37 *109:9 *103:3 0.00010198
38 *109:10 *103:2 0.000101980003

*RES
1 *109:34 *125:A0 0.223828
2 *109:32 *109:34 0.379785
3 *109:33 *109:32 6.4000001
4 *109:20 *115:B 3.2
5 *109:14 *109:33 0.183887
6 *109:20 *109:19 0.312012
7 *109:15 *109:14 0.155957
8 *109:13 *130:A 3.2
9 *109:21 *109:19 3.2
10 *109:35 *132:Y 3.2
11 *109:10 *122:A0 3.2
12 *109:18 *126:B0 3.2
13 *109:16 *109:15 0.551562
14 *109:13 *109:12 0.467969
15 *109:22 *109:21 1.65469
16 *109:22 *109:35 3.2
17 *109:9 *127:B0 6.4000001
18 *109:10 *109:9 0.936035
19 *109:18 *109:17 0.312012
20 *109:17 *109:16 0.467969
21 *109:23 *109:12 3.2
22 *109:23 *109:22 1.4709
23 *109:9 *109:11 0.467969
24 *109:31 *109:17 3.2
25 *109:31 *109:23 1.10312
26 *109:30 *109:11 3.2
27 *109:30 *109:31 1.4709
28 *109:29 *109:30 0.919238
29 *109:26 *124:A1N 6.4000001
30 *109:28 *109:29 0.155957
31 *109:27 *109:26 6.4000001
32 *109:27 *109:28 0.735449
33 *109:25 *109:27 1.28701
34 *109:24 *109:25 3.2
35 *128:A *109:24 3.2
*END

*D_NET *110 0.0013671

*CONN
*I *122:Y O *C 32.67 33.88 *L 0 *D AOI21X1
*I *119:A I *C 27.39 33.32 *L 0.0026 *D INVXL

*CAP
1 *122:Y 0.000139842
2 *119:A 0.000139842
3 *110:2 0.000262883
4 *110:3 0.00031567
5 *110:4 0.000275406
6 *110:5 0.000233461

*RES
1 *110:5 *122:Y 3.20000005
2 *110:3 *110:5 0.919287
3 *110:3 *110:4 0.468018
4 *110:2 *110:4 0.735449
5 *119:A *110:2 3.20000005
*END

*D_NET *111 0.00113205

*CONN
*I *120:Y O *C 51.81 42.28 *L 0 *D AOI22X1
*I *115:A I *C 53.13 37.24 *L 0.0031 *D NAND2XL

*CAP
1 *120:Y 3.98406e-05
2 *115:A 0.000139839
3 *111:2 0.00040033
4 *111:3 0.00040033
5 *111:4 0.000151708

*RES
1 *111:3 *115:A 3.20000005
2 *111:3 *111:2 1.56001
3 *111:4 *111:2 3.20000005
4 *120:Y *111:4 0.223828
*END

*D_NET *112 0.00178715

*CONN
*I *119:Y O *C 28.05 33.88 *L 0 *D INVXL
*I *116:D I *C 23.43 23.8 *L 0.00184 *D DFFRHQX1

*CAP
1 *119:Y 0.000201154
2 *116:D 6.32984e-05
3 *112:2 0.000105981
4 *112:3 0.000541819
5 *112:4 7.99912e-05
6 *112:5 0.00055644
7 *112:6 0.000238462

*RES
1 *112:6 *119:Y 1.11914
2 *112:4 *112:6 0.189941
3 *112:5 *112:4 3.2
4 *112:3 *112:5 2.18398
5 *112:2 *112:3 0.367676
6 *116:D *112:2 6.4000001
*END

*D_NET *113 0.00182732

*CONN
*I *115:Y O *C 53.79 36.68 *L 0 *D NAND2XL
*I *114:D I *C 53.13 26.6 *L 0.00184 *D DFFRHQX1

*CAP
1 *115:Y 0.000139843
2 *114:D 6.33006e-05
3 *113:2 6.57209e-05
4 *113:3 0.00029759
5 *113:4 0.00029759
6 *113:5 0.000258897
7 *113:6 0.000258897
8 *113:7 0.000230139
9 *113:8 0.00021534

*RES
1 *113:8 *115:Y 3.2
2 *113:7 *113:8 0.624023
3 *113:4 *113:7 0.183887
4 *113:3 *113:4 1.404
5 *113:3 *113:6 0.183887
6 *113:5 *113:6 0.77998
7 *113:2 *113:5 0.183887
8 *114:D *113:2 6.4000001
*END

