*SPEF "IEEE 1481-1998"
*DESIGN "aer_pending_xor1_rank_reuse_sync_core_reset"
*DATE "Wed Aug 26 16:59:43 2026"
*VENDOR "Cadence Design Systems, Inc."
*PROGRAM "Innovus"
*VERSION "23.14-s088_1"
*DESIGN_FLOW "COUPLING C" "PIN_CAP NONE" "NAME_SCOPE LOCAL"
*DIVIDER /
*DELIMITER :
*BUS_DELIMITER []
*T_UNIT 1 NS
*C_UNIT 1 PF
*R_UNIT 1 OHM
*L_UNIT 1 HENRY

// MMMC spef file for corner 'rc_45nm'

*NAME_MAP

*1 FE_PHN11_rst_n
*2 FE_OFN11_n_103
*3 FE_OFN10_n_103
*4 FE_OFN9_n_90
*5 FE_OFN4_n_163
*6 FE_OFN2_n_97
*7 FE_OFN1_n_92
*8 clk
*9 rst_n
*10 src_req_async[15]
*11 src_req_async[14]
*12 src_req_async[13]
*13 src_req_async[12]
*14 src_req_async[11]
*15 src_req_async[10]
*16 src_req_async[9]
*17 src_req_async[8]
*18 src_req_async[7]
*19 src_req_async[6]
*20 src_req_async[5]
*21 src_req_async[4]
*22 src_req_async[3]
*23 src_req_async[2]
*24 src_req_async[1]
*25 src_req_async[0]
*26 src_ack_async[15]
*27 src_ack_async[14]
*28 src_ack_async[13]
*29 src_ack_async[12]
*30 src_ack_async[11]
*31 src_ack_async[10]
*32 src_ack_async[9]
*33 src_ack_async[8]
*34 src_ack_async[7]
*35 src_ack_async[6]
*36 src_ack_async[5]
*37 src_ack_async[4]
*38 src_ack_async[3]
*39 src_ack_async[2]
*40 src_ack_async[1]
*41 src_ack_async[0]
*42 out_addr[3]
*43 out_addr[2]
*44 out_addr[1]
*45 out_addr[0]
*46 out_valid
*47 out_ready
*48 pending_rank_q[15]
*49 pending_rank_q[14]
*50 pending_rank_q[13]
*51 pending_rank_q[12]
*52 pending_rank_q[11]
*53 pending_rank_q[10]
*54 pending_rank_q[9]
*55 pending_rank_q[8]
*56 pending_rank_q[7]
*57 pending_rank_q[6]
*58 pending_rank_q[5]
*59 pending_rank_q[4]
*60 pending_rank_q[3]
*61 pending_rank_q[2]
*62 pending_rank_q[1]
*63 pending_rank_q[0]
*64 out_rank_q[0]
*65 ack_rank_q[13]
*66 ack_rank_q[12]
*67 ack_rank_q[9]
*68 ack_rank_q[8]
*69 ack_rank_q[5]
*70 ack_rank_q[4]
*71 ack_rank_q[1]
*72 ack_rank_q[0]
*73 ack_source[15]
*74 ack_source[14]
*75 ack_source[11]
*76 ack_source[10]
*77 ack_source[7]
*78 ack_source[6]
*79 ack_source[3]
*80 ack_source[2]
*81 req_rank[15]
*82 req_rank[14]
*83 req_rank[11]
*84 req_rank[10]
*85 req_rank[7]
*86 req_rank[6]
*87 req_rank[3]
*88 req_rank[2]
*89 req_sync_q[13]
*90 req_sync_q[12]
*91 req_sync_q[9]
*92 req_sync_q[8]
*93 req_sync_q[5]
*94 req_sync_q[4]
*95 req_sync_q[1]
*96 req_sync_q[0]
*97 reset_release_q[1]
*98 reset_release_q[0]
*99 req_meta_q[15]
*100 req_meta_q[14]
*101 req_meta_q[13]
*102 req_meta_q[12]
*103 req_meta_q[11]
*104 req_meta_q[10]
*105 req_meta_q[9]
*106 req_meta_q[8]
*107 req_meta_q[7]
*108 req_meta_q[6]
*109 req_meta_q[5]
*110 req_meta_q[4]
*111 req_meta_q[3]
*112 req_meta_q[2]
*113 req_meta_q[1]
*114 req_meta_q[0]
*115 n_0
*116 n_1
*117 n_2
*118 n_4
*119 n_5
*120 n_6
*121 n_7
*122 n_8
*123 n_9
*124 n_10
*125 n_11
*126 n_12
*127 n_13
*128 n_14
*129 n_15
*130 n_16
*131 n_17
*132 n_18
*133 n_19
*134 n_20
*135 n_25
*136 n_29
*137 n_36
*138 n_40
*139 n_41
*140 n_42
*141 n_43
*142 n_44
*143 n_45
*144 n_46
*145 n_47
*146 n_48
*147 n_49
*148 n_50
*149 n_52
*150 n_54
*151 n_55
*152 n_57
*153 n_59
*154 n_60
*155 n_61
*156 n_62
*157 n_63
*158 n_64
*159 n_65
*160 n_66
*161 n_67
*162 n_68
*163 n_69
*164 n_70
*165 n_71
*166 n_72
*167 n_74
*168 n_75
*169 n_76
*170 n_77
*171 n_78
*172 n_79
*173 n_80
*174 n_81
*175 n_82
*176 n_83
*177 n_84
*178 n_85
*179 n_86
*180 n_87
*181 n_88
*182 n_89
*183 n_90
*184 n_91
*185 n_92
*186 n_93
*187 n_94
*188 n_95
*189 n_96
*190 n_97
*191 n_98
*192 n_99
*193 n_100
*194 n_101
*195 n_102
*196 n_103
*197 n_104
*198 n_105
*199 n_106
*200 n_107
*201 n_108
*202 n_109
*203 n_110
*204 n_111
*205 n_112
*206 n_113
*207 n_114
*208 n_116
*209 n_117
*210 n_118
*211 n_119
*212 n_120
*213 n_121
*214 n_122
*215 n_123
*216 n_124
*217 n_125
*218 n_126
*219 n_127
*220 n_128
*221 n_129
*222 n_130
*223 n_131
*224 n_132
*225 n_133
*226 n_134
*227 n_135
*228 n_136
*229 n_137
*230 n_138
*231 n_139
*232 n_140
*233 n_141
*234 n_142
*235 n_143
*236 n_144
*237 n_145
*238 n_146
*239 n_147
*240 n_148
*241 n_149
*242 n_150
*243 n_151
*244 n_152
*245 n_153
*246 n_154
*247 n_155
*248 n_156
*249 n_158
*250 n_159
*251 n_160
*252 n_161
*253 n_162
*254 n_163
*255 n_164
*256 n_165
*257 n_166
*258 n_167
*259 n_168
*260 n_169
*261 n_170
*262 n_171
*263 n_172
*264 n_173
*265 n_174
*266 n_175
*267 n_176
*268 n_177
*269 n_178
*270 n_179
*271 n_180
*272 n_181
*273 n_182
*274 n_183
*275 n_184
*276 n_185
*277 n_186
*278 n_187
*279 n_188
*280 n_189
*281 n_235
*282 out_valid_q
*283 FE_PHC11_rst_n
*284 FE_OFC11_n_103
*285 FE_OFC10_n_103
*286 FE_OFC9_n_90
*287 FE_OFC4_n_163
*288 FE_OFC2_n_97
*289 FE_OFC1_n_92
*290 pending_rank_q_reg\[0\]
*291 pending_rank_q_reg\[1\]
*292 pending_rank_q_reg\[2\]
*293 pending_rank_q_reg\[3\]
*294 pending_rank_q_reg\[4\]
*295 pending_rank_q_reg\[5\]
*296 pending_rank_q_reg\[6\]
*297 pending_rank_q_reg\[7\]
*298 pending_rank_q_reg\[8\]
*299 pending_rank_q_reg\[9\]
*300 pending_rank_q_reg\[10\]
*301 pending_rank_q_reg\[11\]
*302 pending_rank_q_reg\[12\]
*303 pending_rank_q_reg\[13\]
*304 pending_rank_q_reg\[14\]
*305 pending_rank_q_reg\[15\]
*306 out_rank_q_reg\[0\]
*307 g6835__2398
*308 g6847__5107
*309 g6848__6260
*310 g6836__4319
*311 g6846__8428
*312 g6837__5526
*313 g6838__6783
*314 g6833__3680
*315 g6832__1617
*316 g6841__2802
*317 g6842__1705
*318 g6843__5122
*319 g6840__8246
*320 g6844__7098
*321 g6834__6131
*322 g6845__1881
*323 g6849__5115
*324 out_rank_q_reg\[1\]
*325 g6850__7482
*326 g6851__4733
*327 g6853__6161
*328 g6855__9315
*329 g6854__9945
*330 g6856__2883
*331 g6857__2346
*332 g6858__1666
*333 g6860__7410
*334 g6859__6417
*335 g6861__5477
*336 g6863__5107
*337 g6864__6260
*338 g6865__4319
*339 g6866__8428
*340 g6868__5526
*341 g6869__6783
*342 out_rank_q_reg\[2\]
*343 g6871__3680
*344 out_rank_q_reg\[3\]
*345 g6870__1617
*346 g6873__2802
*347 g6874
*348 g6875__1705
*349 g6876__5122
*350 g6877__8246
*351 g6878__7098
*352 g6879__6131
*353 g6880__1881
*354 g6883__5115
*355 g6884__7482
*356 g6882
*357 g6881__4733
*358 g6886__6161
*359 g6885__9315
*360 g6887
*361 g6888__9945
*362 g6890
*363 g6891__2883
*364 out_valid_q_reg
*365 g6892__2346
*366 g6893__1666
*367 g6897__7410
*368 g6894__6417
*369 g6896__5477
*370 g6901
*371 g6900
*372 g6899__2398
*373 g6902__5107
*374 g6903__6260
*375 g6898__4319
*376 g6904__8428
*377 g6905__5526
*378 g6906__6783
*379 g6907__3680
*380 g6908__1617
*381 g6910__2802
*382 g6909__1705
*383 g6913__5122
*384 g6911__8246
*385 g6912__7098
*386 g6915__6131
*387 g6914__1881
*388 ack_rank_q_reg\[4\]
*389 ack_rank_q_reg\[12\]
*390 ack_rank_q_reg\[0\]
*391 ack_rank_q_reg\[2\]
*392 ack_rank_q_reg\[8\]
*393 g6917
*394 ack_rank_q_reg\[14\]
*395 ack_rank_q_reg\[5\]
*396 ack_rank_q_reg\[9\]
*397 ack_rank_q_reg\[10\]
*398 ack_rank_q_reg\[1\]
*399 ack_rank_q_reg\[13\]
*400 ack_rank_q_reg\[15\]
*401 ack_rank_q_reg\[3\]
*402 ack_rank_q_reg\[6\]
*403 ack_rank_q_reg\[7\]
*404 ack_rank_q_reg\[11\]
*405 g6926__5115
*406 g6920__7482
*407 g6918__4733
*408 g6919__6161
*409 g6916__9315
*410 g6922__9945
*411 g6921__2883
*412 g6923__2346
*413 g6924__1666
*414 g6925__7410
*415 g6963__6417
*416 g6960__5477
*417 g6961__2398
*418 g6962__5107
*419 g6959__6260
*420 g6964__4319
*421 g6965__8428
*422 g6966__5526
*423 g6971__6783
*424 g6968__3680
*425 g6969__1617
*426 g6970__2802
*427 g6967__1705
*428 g6972__5122
*429 g6973__8246
*430 g6974__7098
*431 g6981__6131
*432 g6980__1881
*433 g6985__5115
*434 g6989__7482
*435 g6945__4733
*436 g6946__6161
*437 g6949__9315
*438 g6947__9945
*439 g6948__2883
*440 g6943__2346
*441 g6950__1666
*442 g6944__7410
*443 g6952__6417
*444 g6953__5477
*445 g6954__2398
*446 g6955__5107
*447 g6956__6260
*448 g6951__4319
*449 g6987__8428
*450 g6978__5526
*451 g6975
*452 g6977__6783
*453 g6988__3680
*454 g6983__1617
*455 g6979__2802
*456 g6976__1705
*457 g6992__5122
*458 g6990__8246
*459 g6982__7098
*460 g6991__6131
*461 g6986__1881
*462 g6993__5115
*463 g6957__7482
*464 g6958__4733
*465 g6984__6161
*466 g7024
*467 g7000
*468 g7001
*469 g7022
*470 g6994
*471 g6995
*472 g6996
*473 g6997
*474 g6999
*475 g7006
*476 g7023
*477 g7020
*478 g7016
*479 g7017
*480 g7019
*481 g7021
*482 g7018
*483 g6998
*484 g7034__9315
*485 req_sync_q_reg\[1\]
*486 req_sync_q_reg\[0\]
*487 req_sync_q_reg\[9\]
*488 req_sync_q_reg\[14\]
*489 req_sync_q_reg\[5\]
*490 req_sync_q_reg\[12\]
*491 req_sync_q_reg\[13\]
*492 req_sync_q_reg\[15\]
*493 req_sync_q_reg\[11\]
*494 g7025__9945
*495 req_sync_q_reg\[4\]
*496 req_sync_q_reg\[6\]
*497 req_sync_q_reg\[3\]
*498 req_sync_q_reg\[2\]
*499 reset_release_q_reg\[1\]
*500 req_sync_q_reg\[7\]
*501 req_sync_q_reg\[8\]
*502 req_sync_q_reg\[10\]
*503 g7052__2883
*504 g7053__2346
*505 g7054__1666
*506 req_meta_q_reg\[12\]
*507 req_meta_q_reg\[9\]
*508 req_meta_q_reg\[6\]
*509 req_meta_q_reg\[11\]
*510 req_meta_q_reg\[15\]
*511 req_meta_q_reg\[7\]
*512 req_meta_q_reg\[14\]
*513 reset_release_q_reg\[0\]
*514 g7055__7410
*515 req_meta_q_reg\[1\]
*516 req_meta_q_reg\[3\]
*517 req_meta_q_reg\[8\]
*518 req_meta_q_reg\[5\]
*519 req_meta_q_reg\[4\]
*520 req_meta_q_reg\[13\]
*521 req_meta_q_reg\[2\]
*522 req_meta_q_reg\[10\]
*523 req_meta_q_reg\[0\]
*524 g7066
*525 g7075
*526 g7074
*527 g7069
*528 g7058
*529 g7060
*530 g7067
*531 g7057
*532 g7068
*533 g7076
*534 g7056
*535 g7059
*536 g7073
*537 g7071
*538 g7061
*539 g7070
*540 g7063
*541 g7062
*542 g7072
*543 g7064
*544 g7065
*545 g2


*PORTS

*8 I *C 0 0.095
*9 I *C 0 2.375
*10 I *C 0 42.655
*11 I *C 0 40.185
*12 I *C 0 37.905
*13 I *C 0 35.435
*14 I *C 0 33.155
*15 I *C 0 30.685
*16 I *C 0 28.405
*17 I *C 0 25.935
*18 I *C 0 23.655
*19 I *C 0 21.375
*20 I *C 0 18.905
*21 I *C 0 16.625
*22 I *C 0 14.155
*23 I *C 0 11.875
*24 I *C 0 9.405
*25 I *C 0 7.125
*26 O *C 43.6 8.645
*27 O *C 43.6 10.925
*28 O *C 43.6 13.015
*29 O *C 43.6 15.105
*30 O *C 43.6 17.195
*31 O *C 43.6 19.285
*32 O *C 43.6 21.375
*33 O *C 43.6 23.655
*34 O *C 43.6 25.745
*35 O *C 43.6 27.835
*36 O *C 43.6 29.925
*37 O *C 43.6 32.015
*38 O *C 43.6 34.295
*39 O *C 43.6 36.385
*40 O *C 43.6 38.475
*41 O *C 43.6 40.565
*42 O *C 43.6 0.285
*43 O *C 43.6 2.375
*44 O *C 43.6 4.465
*45 O *C 43.6 6.555
*46 O *C 43.6 42.655
*47 I *C 0 4.655


*D_NET *1 0.000491857

*CONN
*I *283:Y O *C 11.89 5.55 *L 0 *D DLY3X1
*I *499:RN I *C 7.1 7.695 *L 0.000617 *D DFFRHQX1
*I *513:RN I *C 6.7 5.985 *L 0.000617 *D DFFRHQX1

*CAP
1 *283:Y 7.73675e-05
2 *499:RN 4.6551e-05
3 *513:RN 7.98747e-06
4 *1:3 7.02729e-05
5 *1:4 0.000167667871
6 *1:5 0.00012201

*RES
1 *513:RN *1:5 3.34682
2 *1:5 *1:4 5.72032
3 *499:RN *1:3 4.34358
4 *1:3 *1:5 0.570827
5 *1:4 *283:Y 8.67974758
*END

*D_NET *2 0.000313282

*CONN
*I *285:A I *C 21.9 17.955 *L 0.00021 *D BUFX2
*I *284:Y O *C 23.335 21.84 *L 0 *D BUFX2

*CAP
1 *284:Y 7.94523e-05
2 *285:A 7.71888e-05
3 *2:2 0.000156641006

*RES
1 *285:A *2:2 11.628747
2 *2:2 *284:Y 5.14897
*END

*D_NET *3 0.00107789

*CONN
*I *285:Y O *C 21.535 18.42 *L 0 *D BUFX2
*I *369:A0N I *C 23.645 11.38 *L 0.000209 *D OAI2BB1X1
*I *378:A I *C 23.3 9.595 *L 0.000392 *D NOR2X1
*I *376:B I *C 21.965 9.525 *L 0.000392 *D NOR2BX1
*I *382:A1 I *C 20.7 10.545 *L 0.000212 *D AOI21XL

*CAP
1 *369:A0N 7.24174e-05
2 *378:A 4.41096e-05
3 *376:B 5.97246e-05
4 *285:Y 0.000257017
5 *382:A1 3.19466e-05
6 *3:5 0.000181076
7 *3:6 0.000330746172
8 *3:7 0.000100851

*RES
1 *382:A1 *3:7 3.92798
2 *3:7 *3:6 3.35726
3 *3:6 *285:Y 19.7063675
4 *376:B *3:7 4.46803
5 *3:5 *3:6 4.52817
6 *378:A *3:5 4.35828
7 *369:A0N *3:5 8.10825
*END

*D_NET *4 0.000555515

*CONN
*I *286:Y O *C 25.135 18.42 *L 0 *D BUFX2
*I *393:A I *C 21.3 16.435 *L 0.000212 *D INVXL
*I *387:A I *C 20.9 14.345 *L 0.000392 *D NOR2X1

*CAP
1 *286:Y 0.000187339
2 *387:A 5.51335e-05
3 *4:3 0.00022262334
4 *4:4 9.04217e-05

*RES
1 *4:4 *4:3 0.914774
2 *387:A *4:4 4.38148
3 *4:3 *286:Y 14.2468214
4 *393:A *4:3 3.29997
*END

*D_NET *5 0.00281608

*CONN
*I *331:A0 I *C 28.1 20.045 *L 0.000391 *D AOI21X1
*I *358:A I *C 27.3 9.595 *L 0.000211 *D NAND2XL
*I *363:A1 I *C 30.32 9.55 *L 0.000392 *D AOI21X1
*I *370:A I *C 33.1 9.595 *L 0.000395 *D INVX1
*I *327:A0 I *C 33.1 10.925 *L 0.000391 *D AOI22X1
*I *545:A0 I *C 32.1 16.435 *L 0.000211 *D AO21X1
*I *333:A0 I *C 30.7 16.625 *L 0.000391 *D AOI21X1
*I *334:A0 I *C 33.3 16.625 *L 0.000391 *D AOI21X1
*I *329:B0 I *C 33.065 19.625 *L 0.00039 *D OAI2BB1X1
*I *330:A0 I *C 29.7 20.045 *L 0.000391 *D AOI21X1
*I *325:B0 I *C 32.195 19.49 *L 0.000393 *D OAI21X1
*I *326:B0 I *C 30.995 21.55 *L 0.000393 *D OAI21X1
*I *328:B0 I *C 29.665 21.415 *L 0.00039 *D OAI2BB1X1
*I *287:Y O *C 26.535 11.58 *L 0 *D BUFX2

*CAP
1 *334:A0 8.35672e-05
2 *327:A0 3.44508e-05
3 *370:A 5.96066e-06
4 *329:B0 4.4644e-05
5 *325:B0 1.32916e-05
6 *545:A0 3.34383e-05
7 *326:B0 3.86834e-05
8 *333:A0 4.42253e-05
9 *363:A1 1.85975e-05
10 *328:B0 5.82325e-05
11 *331:A0 5.28085e-05
12 *358:A 2.98033e-05
13 *287:Y 5.65044e-05
14 *5:14 0.000100433
15 *5:15 0.00010854
16 *5:16 0.000167252
17 *5:17 4.74454e-05
18 *5:18 0.000245034
19 *5:19 0.00024944543
20 *5:20 9.92415e-05
21 *5:21 0.00015098
22 *5:22 0.000174762
23 *5:23 7.20037e-05
24 *5:24 0.000108182
25 *5:25 0.000195742
26 *5:24 *277:8 0.00011193752
27 *326:B0 *252:6 0.000112414355
28 *5:16 *545:B0 0.000115752217
29 *5:14 *148:4 0.000157475469
30 *327:A0 *327:A1 8.52346387e-05

*RES
1 *5:25 *287:Y 4.3281
2 *358:A *5:25 3.95686
3 *331:A0 *5:24 8.04147
4 *328:B0 *5:23 7.9551
5 *5:23 *5:24 3.43744
6 *5:24 *5:22 0.96758
7 *330:A0 *5:23 3.2999
8 *5:21 *5:25 6.05257
9 *363:A1 *5:21 6.81479
10 *333:A0 *5:20 7.0229
11 *5:19 *5:21 0.514097
12 *5:20 *5:18 3.33631
13 *5:18 *5:19 8.56278
14 *5:17 *5:22 3.34935
15 *5:22 *5:18 5.55702
16 *326:B0 *5:17 7.82959
17 *545:A0 *5:16 6.94649
18 *5:16 *5:20 0.96758
19 *5:15 *5:22 0.96758
20 *325:B0 *5:15 10.1849
21 *329:B0 *5:15 10.7538
22 *5:14 *5:19 5.05992
23 *370:A *5:14 3.43143
24 *327:A0 *5:14 4.12067
25 *334:A0 *5:16 11.2531185
*END

*D_NET *6 0.000715256

*CONN
*I *381:AN I *C 24.7 12.825 *L 0.00021 *D NAND2BX1
*I *375:B0 I *C 25.265 12.785 *L 0.00039 *D OAI2BB1X1
*I *288:Y O *C 25.535 21.84 *L 0 *D BUFX2

*CAP
1 *288:Y 0.000238956
2 *375:B0 1.55546e-05
3 *6:3 0.000342071055
4 *6:4 0.000118674

*RES
1 *381:AN *6:4 6.59997
2 *6:4 *6:3 8.21364
3 *375:B0 *6:4 6.89094
4 *6:3 *288:Y 15.6048536
*END

*D_NET *7 0.000298381

*CONN
*I *387:B I *C 21.175 14.765 *L 0.000392 *D NOR2X1
*I *385:B I *C 20.775 12.595 *L 0.000392 *D NOR2X1
*I *289:Y O *C 20.135 15 *L 0 *D BUFX2

*CAP
1 *387:B 6.96176e-05
2 *385:B 6.40152e-05
3 *289:Y 1.55576e-05
4 *7:3 0.00014919043

*RES
1 *7:3 *289:Y 3.64771
2 *385:B *7:3 4.74572182
3 *387:B *7:3 4.6909
*END

*D_NET *8 0.0173063

*CONN
*P *8 I *C 0 0.095 *L 0
*I *523:CK I *C 7.085 9.075 *L 0.00021 *D DFFQXL
*I *522:CK I *C 5.685 29.595 *L 0.00021 *D DFFQXL
*I *521:CK I *C 8.685 14.865 *L 0.00021 *D DFFQXL
*I *520:CK I *C 8.885 31.965 *L 0.00021 *D DFFQXL
*I *519:CK I *C 5.485 15.915 *L 0.00021 *D DFFQXL
*I *518:CK I *C 5.485 19.335 *L 0.00021 *D DFFQXL
*I *517:CK I *C 5.485 25.125 *L 0.00021 *D DFFQXL
*I *516:CK I *C 5.485 14.865 *L 0.00021 *D DFFQXL
*I *515:CK I *C 7.085 12.495 *L 0.00021 *D DFFQXL
*I *513:CK I *C 5.7 5.985 *L 0.00021 *D DFFRHQX1
*I *512:CK I *C 8.885 35.385 *L 0.00021 *D DFFQXL
*I *511:CK I *C 5.685 22.755 *L 0.00021 *D DFFQXL
*I *510:CK I *C 5.485 33.015 *L 0.00021 *D DFFQXL
*I *509:CK I *C 5.485 31.965 *L 0.00021 *D DFFQXL
*I *508:CK I *C 5.685 21.705 *L 0.00021 *D DFFQXL
*I *507:CK I *C 5.485 28.545 *L 0.00021 *D DFFQXL
*I *506:CK I *C 12.285 33.015 *L 0.00021 *D DFFQXL
*I *502:CK I *C 12.475 28.47 *L 0.00021 *D DFFHQX1
*I *501:CK I *C 8.875 25.05 *L 0.00021 *D DFFHQX1
*I *500:CK I *C 12.075 22.83 *L 0.00021 *D DFFHQX1
*I *499:CK I *C 6.1 7.695 *L 0.00021 *D DFFRHQX1
*I *498:CK I *C 11.875 15.99 *L 0.00021 *D DFFHQX1
*I *497:CK I *C 8.675 18.21 *L 0.00021 *D DFFHQX1
*I *496:CK I *C 9.075 21.63 *L 0.00021 *D DFFHQX1
*I *495:CK I *C 8.875 19.41 *L 0.00021 *D DFFHQX1
*I *493:CK I *C 12.475 29.67 *L 0.00021 *D DFFHQX1
*I *492:CK I *C 12.275 31.89 *L 0.00021 *D DFFHQX1
*I *491:CK I *C 8.875 28.47 *L 0.00021 *D DFFHQX1
*I *490:CK I *C 15.475 31.89 *L 0.00021 *D DFFHQX1
*I *489:CK I *C 12.075 26.25 *L 0.00021 *D DFFHQX1
*I *488:CK I *C 9.075 29.67 *L 0.00021 *D DFFHQX1
*I *487:CK I *C 8.875 26.25 *L 0.00021 *D DFFHQX1
*I *486:CK I *C 10.275 12.57 *L 0.00021 *D DFFHQX1
*I *485:CK I *C 11.875 14.79 *L 0.00021 *D DFFHQX1
*I *404:CK I *C 35.285 15.915 *L 0.00021 *D DFFQXL
*I *403:CK I *C 22.285 22.755 *L 0.00021 *D DFFQXL
*I *402:CK I *C 15.285 22.755 *L 0.00021 *D DFFQXL
*I *401:CK I *C 30.685 33.015 *L 0.00021 *D DFFQXL
*I *400:CK I *C 13.485 12.495 *L 0.00021 *D DFFQXL
*I *399:CK I *C 11.885 18.285 *L 0.00021 *D DFFQXL
*I *398:CK I *C 27.085 33.015 *L 0.00021 *D DFFQXL
*I *397:CK I *C 35.085 28.545 *L 0.00021 *D DFFQXL
*I *396:CK I *C 24.085 26.175 *L 0.00021 *D DFFQXL
*I *395:CK I *C 21.085 29.595 *L 0.00021 *D DFFQXL
*I *394:CK I *C 17.685 9.075 *L 0.00021 *D DFFQXL
*I *392:CK I *C 33.685 25.125 *L 0.00021 *D DFFQXL
*I *391:CK I *C 34.885 26.175 *L 0.00021 *D DFFQXL
*I *390:CK I *C 23.485 33.015 *L 0.00021 *D DFFQXL
*I *389:CK I *C 21.485 31.965 *L 0.00021 *D DFFQXL
*I *388:CK I *C 15.685 28.545 *L 0.00021 *D DFFQXL
*I *364:CK I *C 20.675 7.95 *L 0.00021 *D DFFHQX1
*I *344:CK I *C 27.875 7.95 *L 0.00021 *D DFFHQX1
*I *342:CK I *C 31.275 7.95 *L 0.00021 *D DFFHQX1
*I *324:CK I *C 35.075 11.37 *L 0.00021 *D DFFHQX1
*I *306:CK I *C 34.675 9.15 *L 0.00021 *D DFFHQX1
*I *305:CK I *C 16.885 14.865 *L 0.00021 *D DFFQXL
*I *304:CK I *C 17.285 12.495 *L 0.00021 *D DFFQXL
*I *303:CK I *C 17.085 18.285 *L 0.00021 *D DFFQXL
*I *302:CK I *C 19.085 28.545 *L 0.00021 *D DFFQXL
*I *301:CK I *C 34.885 18.285 *L 0.00021 *D DFFQXL
*I *300:CK I *C 30.485 28.545 *L 0.00021 *D DFFQXL
*I *299:CK I *C 26.085 22.755 *L 0.00021 *D DFFQXL
*I *298:CK I *C 30.685 22.755 *L 0.00021 *D DFFQXL
*I *297:CK I *C 21.685 19.335 *L 0.00021 *D DFFQXL
*I *296:CK I *C 17.485 19.335 *L 0.00021 *D DFFQXL
*I *295:CK I *C 21.685 25.125 *L 0.00021 *D DFFQXL
*I *294:CK I *C 15.085 25.125 *L 0.00021 *D DFFQXL
*I *293:CK I *C 30.285 29.595 *L 0.00021 *D DFFQXL
*I *292:CK I *C 34.285 22.755 *L 0.00021 *D DFFQXL
*I *291:CK I *C 27.085 28.545 *L 0.00021 *D DFFQXL
*I *290:CK I *C 23.885 28.545 *L 0.00021 *D DFFQXL

*CAP
1 *404:CK 1.63294e-05
2 *397:CK 9.25082e-05
3 *391:CK 4.99495e-05
4 *301:CK 9.3697e-05
5 *306:CK 1.37697e-05
6 *292:CK 1.46651e-05
7 *392:CK 7.77267e-05
8 *342:CK 3.26032e-05
9 *401:CK 8.31496e-05
10 *298:CK 1.43667e-05
11 *300:CK 6.14125e-06
12 *293:CK 4.47036e-05
13 *344:CK 3.90986e-05
14 *398:CK 1.50799e-05
15 *291:CK 1.52014e-05
16 *299:CK 2.05029e-05
17 *396:CK 7.21217e-05
18 *290:CK 1.49585e-05
19 *390:CK 1.48422e-05
20 *403:CK 1.49029e-05
21 *295:CK 2.9563e-05
22 *297:CK 3.98776e-05
23 *389:CK 4.42281e-05
24 *395:CK 5.8352e-05
25 *364:CK 3.86231e-05
26 *302:CK 7.98109e-05
27 *394:CK 1.53177e-05
28 *296:CK 3.35593e-05
29 *304:CK 2.33054e-05
30 *303:CK 1.51406e-05
31 *305:CK 0.000145255
32 *388:CK 0.000163613
33 *490:CK 0.000108124
34 *402:CK 8.02864e-05
35 *294:CK 0.000119805
36 *400:CK 1.93141e-05
37 *493:CK 4.89934e-05
38 *502:CK 7.21369e-06
39 *506:CK 4.54169e-05
40 *489:CK 2.33054e-05
41 *500:CK 1.59146e-05
42 *399:CK 2.81921e-05
43 *498:CK 4.63123e-05
44 *485:CK 6.3183e-06
45 *486:CK 1.7584e-05
46 *496:CK 3.37364e-05
47 *512:CK 0.000108539
48 *520:CK 7.09228e-06
49 *491:CK 2.65834e-05
50 *487:CK 7.86626e-06
51 *501:CK 8.16472e-06
52 *495:CK 3.09946e-05
53 *521:CK 1.40682e-05
54 *497:CK 3.96348e-05
55 *515:CK 2.23493e-05
56 *523:CK 5.55494e-05
57 *499:CK 4.21996e-05
58 *513:CK 1.72855e-05
59 *8 0.000267089
60 *510:CK 5.19173e-05
61 *507:CK 7.15298e-06
62 *517:CK 8.22542e-06
63 *518:CK 6.379e-06
64 *519:CK 3.30788e-05
65 *516:CK 5.84278e-06
66 *8:72 0.000270427
67 *8:73 0.000133989
68 *8:74 0.000288011
69 *8:75 0.000181617
70 *8:76 0.000188112
71 *8:77 8.20165e-05
72 *8:78 0.000149368
73 *8:79 4.01154e-05
74 *8:80 0.00010687
75 *8:81 0.000226199
76 *8:82 7.75446e-05
77 *8:83 5.62071e-05
78 *8:84 0.000227691
79 *8:85 4.75061e-05
80 *8:86 0.000179229
81 *8:87 0.000139772
82 *8:88 0.000243247
83 *8:89 0.000126245
84 *8:90 0.000162839
85 *8:91 0.000146151
86 *8:92 8.91088e-05
87 *8:93 9.11373e-05
88 *8:94 7.59359e-05
89 *8:95 0.000172972
90 *8:96 0.000123857
91 *8:97 0.000280499
92 *8:98 0.000160219
93 *8:99 0.000131966
94 *8:100 0.000240328
95 *8:101 4.78602e-05
96 *8:102 0.000128627
97 *8:103 0.000213203
98 *8:104 0.000187698
99 *8:105 4.22603e-05
100 *8:106 0.000223877
101 *8:107 0.000185846
102 *8:108 0.000140368
103 *8:109 0.000214519
104 *8:110 0.000169754
105 *8:111 0.000312688
106 *8:112 5.73402e-05
107 *8:113 0.000234844
108 *8:114 9.83459e-05
109 *8:115 0.000242114
110 *8:116 0.000331521016
111 *8:117 0.000228167
112 *8:118 5.76994e-05
113 *8:119 0.000106991
114 *8:120 0.00014609
115 *8:121 0.000260472
116 *8:122 0.000227631
117 *8:123 0.000116405
118 *8:124 0.000132978
119 *8:125 0.000128986
120 *8:126 0.000222385
121 *8:127 0.00017065
122 *8:128 0.000193955
123 *8:129 0.000136493
124 *8:130 0.000110628
125 *8:131 0.00012064
126 *8:132 0.000203491
127 *8:133 0.000150739
128 *8:134 0.000115277
129 *8:135 0.000168505
130 *8:136 0.000161468
131 *8:137 0.000115814
132 *8:138 0.000330029
133 *8:139 0.000111104
134 *8:140 0.000116886
135 *8:141 0.000181673
136 *8:142 0.000162601
137 *8:143 0.000186266
138 *8:144 0.000207067
139 *8:145 0.000139357
140 *8:146 0.000145255
141 *8:147 8.32103e-05
142 *8:148 5.91866e-05
143 *8:148 *497:D 7.7486e-06
144 *8:133 *497:D 4.65512e-05
145 *8:117 *497:D 3.77893e-05
146 *485:CK *497:D 7.50242646e-11
147 *8:143 *500:D 7.92742e-06
148 *8:114 *500:D 4.98891e-05
149 *8:109 *500:D 8.34465e-06
150 *402:CK *500:D 3.46898887e-05
151 *495:CK *81:5 6.55651e-07
152 *8:130 *81:5 2.40207e-05
153 *8:129 *81:5 1.44243e-05
154 *8:120 *81:4 1.46031e-05
155 *8:120 *81:5 3.0756e-05
156 *496:CK *81:5 5.30484335e-06
157 *491:CK *491:D 1.06096e-05
158 *8:127 *101:2 3.54648e-05
159 *8:120 *101:2 8.04663e-06
160 *388:CK *491:D 4.81605384e-05
161 *8:120 *89:5 1.48416e-05
162 *399:CK *443:A0 2.74181e-06
163 *500:CK *89:3 4.52995e-06
164 *489:CK *89:3 1.37091e-05
165 *8:110 *89:3 0.000146031
166 *8:107 *443:A0 3.07088938e-10
167 *8:112 *82:4 7.7486e-07
168 *8:110 *82:5 6.24657e-05
169 *493:CK *82:5 1.41263e-05
170 *400:CK *82:5 7.92739148e-06
171 *502:CK *83:5 1.01328e-06
172 *8:110 *83:5 4.11272e-06
173 *388:CK *83:4 5.45383e-05
174 *302:CK *83:4 4.43459e-05
175 *8:89 *83:4 2.2471e-05
176 *8:87 *83:4 2.563e-05
177 *8:82 *83:4 4.1306e-05
178 *292:CK *83:3 5.36442e-07
179 *391:CK *83:3 6.31796582e-06
180 *8:108 *542:A 1.58548e-05
181 *8:106 *542:A 7.45058417e-05
182 *305:CK *151:66 0
183 *8:103 *151:68 0
184 *302:CK *417:C0 4.76837e-07
185 *8:100 *151:68 0
186 *295:CK *426:C0 3.75509e-06
187 *396:CK *151:56 3.01003e-05
188 *396:CK *151:60 3.1054e-05
189 *8:84 *151:38 1.55568e-05
190 *8:84 *151:57 5.67436e-05
191 *8:84 *151:59 4.66704e-05
192 *8:78 *151:38 3.88026e-05
193 *8:75 *151:38 2.563e-05
194 *8:72 *151:38 4.76837e-06
195 *397:CK *419:C0 1.69874877e-05
196 *8:99 *150:8 0
197 *389:CK *150:9 1.96695e-06
198 *8:98 *150:8 0
199 *8:92 *150:8 4.76837e-07
200 *301:CK *150:4 9.35793e-06
201 *301:CK *150:7 8.22544e-06
202 *391:CK *150:7 1.72257e-05
203 *8:73 *150:7 5.03063629e-05
204 *8:90 *146:5 4.26769e-05
205 *8:86 *146:5 6.99163e-05
206 *401:CK *146:4 8.06451e-05
207 *401:CK *146:5 4.29149288e-06
208 *8:89 *135:8 3.70741e-05
209 *8:87 *135:5 6.86646e-05
210 *8:87 *135:8 1.2815e-05
211 *8:82 *135:4 5.17964e-05
212 *8:82 *135:5 5.66244e-06
213 *8:80 *135:4 5.54323e-06
214 *397:CK *135:4 5.02466895e-05
215 *8:88 *273:8 2.40207e-05
216 *8:81 *273:7 2.81334e-05
217 *8:81 *273:8 5.2809683e-05
218 *293:CK *53:3 8.34465e-07
219 *8:82 *53:3 6.79493e-06
220 *8:80 *53:3 4.17233e-06
221 *397:CK *53:3 6.90817765e-05
222 *8:81 *298:D 2.0504e-05
223 *298:CK *275:2 5.96046e-07
224 *8:76 *298:D 6.14523876e-05
225 *8:78 *345:B1 8.52346e-06
226 *8:78 *348:S0 0.000110626
227 *8:75 *345:B1 2.15771053e-05
228 *342:CK *345:A0 9.95398e-06
229 *8:75 *345:A0 9.53674272e-05

*RES
1 *8:148 *8:147 3.69909
2 *8:146 *8:145 1.88511
3 *516:CK *8:148 3.43154
4 *519:CK *8:148 4.14446
5 *518:CK *8:144 3.35193
6 *517:CK *8:143 3.35193
7 *507:CK *8:142 3.35193
8 *509:CK *8:146 3.29988
9 *510:CK *8:146 4.36585
10 *8:144 *8:141 10.256
11 *8:140 *8:144 1.6404
12 *8:139 *8:140 1.06597
13 *8:143 *8:139 1.6404
14 *8:142 *8:143 2.64584
15 *8:145 *8:142 1.06597
16 *508:CK *8:140 3.29988
17 *511:CK *8:139 3.29988
18 *522:CK *8:145 3.29988
19 *8:138 *8 15.4350996
20 *8:137 *8:138 4.54108
21 *8:136 *8:137 0.907227
22 *8:135 *8:136 2.63077
23 *8:147 *8:141 3.33639
24 *8:141 *8:135 1.62533
25 *513:CK *8:138 10.097
26 *499:CK *8:137 13.7716
27 *8:134 *8:135 4.30391
28 *523:CK *8:136 11.0822
29 *515:CK *8:134 6.80514
30 *8:133 *8:147 2.17716
31 *497:CK *8:132 13.7716
32 *521:CK *8:133 6.78866
33 *495:CK *8:131 13.6451
34 *501:CK *8:130 6.75615
35 *487:CK *8:129 6.75615
36 *491:CK *8:128 10.3085
37 *520:CK *8:127 3.35193
38 *512:CK *8:127 6.04841
39 *8:126 *8:134 1.57234
40 *8:132 *8:126 7.41373
41 *8:131 *8:132 0.907227
42 *8:125 *8:131 1.56669
43 *8:124 *8:123 3.34675
44 *8:123 *8:125 1.06597
45 *8:130 *8:124 4.98716
46 *8:122 *8:123 2.13547
47 *8:129 *8:130 1.06597
48 *8:128 *8:121 3.33639
49 *8:121 *8:122 1.91267
50 *8:120 *8:129 2.64584
51 *8:127 *8:120 1.6404
52 *496:CK *8:125 13.647
53 *488:CK *8:120 6.6
54 *8:119 *8:126 0.96752
55 *486:CK *8:119 10.097
56 *8:118 *8:117 3.33639
57 *8:117 *8:133 2.47956
58 *485:CK *8:118 6.73142
59 *498:CK *8:118 7.44458
60 *399:CK *8:116 7.00039
61 *8:115 *8:119 1.42113
62 *8:116 *8:115 10.9145
63 *8:114 *8:124 2.25299
64 *8:113 *8:122 5.66475
65 *500:CK *8:114 10.0725
66 *489:CK *8:113 10.3617
67 *8:112 *8:111 3.44779
68 *8:111 *8:121 8.70179
69 *492:CK *8:112 6.6
70 *506:CK *8:112 4.27094
71 *502:CK *8:110 6.75615
72 *493:CK *8:110 7.8777
73 *8:109 *8:114 0.514142
74 *8:110 *8:109 7.50346
75 *8:108 *8:115 1.11872
76 *400:CK *8:108 6.80514
77 *294:CK *8:113 9.54331
78 *402:CK *8:109 8.83086
79 *490:CK *8:111 12.5763
80 *388:CK *8:128 12.0358
81 *305:CK *8:117 10.6288
82 *8:107 *8:116 3.84017
83 *303:CK *8:107 6.78866
84 *8:106 *8:108 2.93294
85 *304:CK *8:106 6.80514
86 *8:105 *8:104 3.34675
87 *8:104 *8:107 0.362938
88 *296:CK *8:105 4.14446
89 *8:103 *8:106 9.75787
90 *394:CK *8:103 6.77829
91 *302:CK *8:102 8.96581
92 *8:101 *8:100 3.35712
93 *8:100 *8:103 2.32836
94 *364:CK *8:101 7.44458
95 *395:CK *8:99 10.8066
96 *389:CK *8:98 10.5042
97 *297:CK *8:97 10.353
98 *295:CK *8:96 10.3365
99 *8:97 *8:104 7.49687
100 *8:95 *8:97 2.34343
101 *8:96 *8:95 1.769
102 *8:94 *8:93 3.33639
103 *8:93 *8:96 0.763559
104 *8:102 *8:92 3.33639
105 *8:92 *8:93 1.62533
106 *8:99 *8:92 0.763559
107 *8:98 *8:99 1.48166
108 *8:91 *8:95 3.69909
109 *403:CK *8:91 6.77829
110 *8:90 *8:98 5.3906
111 *390:CK *8:90 6.77829
112 *8:89 *8:102 1.57234
113 *290:CK *8:89 6.78866
114 *396:CK *8:94 8.52868
115 *8:88 *8:91 2.85381
116 *299:CK *8:88 6.84047
117 *8:87 *8:89 2.47956
118 *8:86 *8:90 2.78197
119 *291:CK *8:87 6.78866
120 *398:CK *8:86 6.77829
121 *8:85 *8:84 3.35712
122 *8:84 *8:100 5.50318
123 *344:CK *8:85 7.44458
124 *293:CK *8:83 4.41508
125 *8:83 *8:82 3.33639
126 *8:82 *8:87 2.63077
127 *300:CK *8:83 3.43154
128 *8:81 *8:88 3.46122
129 *298:CK *8:81 6.78866
130 *401:CK *8:86 9.56003
131 *8:80 *8:82 0.536752
132 *8:79 *8:78 3.35712
133 *8:78 *8:84 2.63077
134 *342:CK *8:79 7.44458
135 *392:CK *8:77 7.92387
136 *8:76 *8:81 2.78197
137 *292:CK *8:76 6.78866
138 *8:75 *8:78 2.63077
139 *306:CK *8:75 10.0782
140 *301:CK *8:74 15.2789
141 *391:CK *8:73 11.1105
142 *8:72 *8:75 5.42452
143 *8:74 *8:72 6.85437
144 *8:77 *8:73 3.33639
145 *8:73 *8:76 5.63719
146 *324:CK *8:72 6.6
147 *397:CK *8:80 10.0405
148 *404:CK *8:74 6.91419
*END

*D_NET *9 0.000629306

*CONN
*I *283:A I *C 10.935 5.775 *L 0.00021 *D DLY3X1
*P *9 I *C 0 2.375 *L 0

*CAP
1 *283:A 9.06004e-05
2 *9 0.000224052
3 *9:2 0.00031465291

*RES
1 *9:2 *9 11.4656687
2 *283:A *9:2 5.84428
*END

*D_NET *10 0.000812411

*CONN
*P *10 I *C 0 42.655 *L 0
*I *510:D I *C 7.97 33.275 *L 0.00021 *D DFFQXL

*CAP
1 *10 0.000172139
2 *510:D 0.000234066
3 *10:2 0.000406205664

*RES
1 *510:D *10:2 10.3203058
2 *10:2 *10 9.35939
*END

*D_NET *11 0.00077033

*CONN
*P *11 I *C 0 40.185 *L 0
*I *512:D I *C 11.37 35.125 *L 0.00021 *D DFFQXL

*CAP
1 *11 0.000385165195
2 *512:D 0.000385165195

*RES
1 *512:D *11 19.3986
*END

*D_NET *12 0.000950456

*CONN
*P *12 I *C 0 37.905 *L 0
*I *520:D I *C 11.37 31.705 *L 0.00021 *D DFFQXL

*CAP
1 *12 0.000374195
2 *520:D 5.53752e-05
3 *12:2 0.000429570664
4 *12:2 *100:2 9.13143164e-05

*RES
1 *520:D *12:2 5.37144
2 *12:2 *12 15.5240297
*END

*D_NET *13 0.00079143

*CONN
*P *13 I *C 0 35.435 *L 0
*I *506:D I *C 14.77 33.275 *L 0.00021 *D DFFQXL

*CAP
1 *13 0.0003345
2 *506:D 6.12156e-05
3 *13:2 0.000395715234

*RES
1 *506:D *13:2 4.8666
2 *13:2 *13 14.4997835
*END

*D_NET *14 0.000482559

*CONN
*P *14 I *C 0 33.155 *L 0
*I *509:D I *C 7.97 31.705 *L 0.00021 *D DFFQXL

*CAP
1 *14 0.000241279609
2 *509:D 0.000241279609

*RES
1 *509:D *14 13.7063
*END

*D_NET *15 0.00047493

*CONN
*P *15 I *C 0 30.685 *L 0
*I *522:D I *C 8.17 29.855 *L 0.00021 *D DFFQXL

*CAP
1 *15 0.000237464902
2 *522:D 0.000237464902

*RES
1 *522:D *15 13.5082
*END

*D_NET *16 0.000387549

*CONN
*P *16 I *C 0 28.405 *L 0
*I *507:D I *C 7.97 28.285 *L 0.00021 *D DFFQXL

*CAP
1 *507:D 0.000193774707
2 *16 0.000193774707

*RES
1 *507:D *16 12.8521
*END

*D_NET *17 0.000467062

*CONN
*P *17 I *C 0 25.935 *L 0
*I *517:D I *C 7.97 24.865 *L 0.00021 *D DFFQXL

*CAP
1 *17 0.000233530996
2 *517:D 0.000233530996

*RES
1 *517:D *17 13.3605
*END

*D_NET *18 0.000535011

*CONN
*P *18 I *C 0 23.655 *L 0
*I *511:D I *C 8.17 23.015 *L 0.00021 *D DFFQXL

*CAP
1 *18 0.000267505645
2 *511:D 0.000267505645

*RES
1 *511:D *18 13.5833
*END

*D_NET *19 0.000431776

*CONN
*P *19 I *C 0 21.375 *L 0
*I *508:D I *C 8.17 21.445 *L 0.00021 *D DFFQXL

*CAP
1 *508:D 0.00011772
2 *19 9.81684e-05
3 *19:2 0.000215888027

*RES
1 *19:2 *19 3.57561
2 *508:D *19:2 9.63175297
*END

*D_NET *20 0.000488877

*CONN
*P *20 I *C 0 18.905 *L 0
*I *518:D I *C 7.97 19.595 *L 0.00021 *D DFFQXL

*CAP
1 *20 0.000244438652
2 *518:D 0.000244438652

*RES
1 *518:D *20 13.4742
*END

*D_NET *21 0.000403166

*CONN
*P *21 I *C 0 16.625 *L 0
*I *519:D I *C 7.97 16.175 *L 0.00021 *D DFFQXL

*CAP
1 *21 0.00020158291
2 *519:D 0.00020158291

*RES
1 *519:D *21 13.0185
*END

*D_NET *22 0.000496149

*CONN
*P *22 I *C 0 14.155 *L 0
*I *516:D I *C 7.97 14.605 *L 0.00021 *D DFFQXL

*CAP
1 *22 0.000248074531
2 *516:D 0.000248074531

*RES
1 *516:D *22 13.6894
*END

*D_NET *23 0.000727773

*CONN
*P *23 I *C 0 11.875 *L 0
*I *521:D I *C 11.17 14.605 *L 0.00021 *D DFFQXL

*CAP
1 *23 0.000259759
2 *521:D 0.000104127
3 *23:2 0.000363886367

*RES
1 *521:D *23:2 5.58316
2 *23:2 *23 12.1158361
*END

*D_NET *24 0.00065589

*CONN
*P *24 I *C 0 9.405 *L 0
*I *515:D I *C 9.57 12.755 *L 0.00021 *D DFFQXL

*CAP
1 *24 0.000240503
2 *515:D 8.74419e-05
3 *24:2 0.000327944766

*RES
1 *515:D *24:2 5.57987
2 *24:2 *24 11.1812353
*END

*D_NET *25 0.00059092

*CONN
*P *25 I *C 0 7.125 *L 0
*I *523:D I *C 9.57 9.335 *L 0.00021 *D DFFQXL

*CAP
1 *25 0.000234308
2 *523:D 6.11524e-05
3 *25:2 0.000295460215

*RES
1 *523:D *25:2 4.86197
2 *25:2 *25 10.558486
*END

*D_NET *26 0.000351548

*CONN
*P *26 O *C 43.6 8.645 *L 0
*I *434:Y O *C 38.325 9.115 *L 0 *D NOR2XL

*CAP
1 *434:Y 0.000175774102
2 *26 0.000175774102

*RES
1 *26 *434:Y 13.1626
*END

*D_NET *27 0.000296354

*CONN
*P *27 O *C 43.6 10.925 *L 0
*I *431:Y O *C 38.525 11.405 *L 0 *D NOR2XL

*CAP
1 *27 6.20474e-05
2 *431:Y 8.61297e-05
3 *27:2 0.000148177148

*RES
1 *27:2 *431:Y 9.50205326
2 *27 *27:2 2.07132
*END

*D_NET *28 0.000387788

*CONN
*P *28 O *C 43.6 13.015 *L 0
*I *433:Y O *C 37.925 14.825 *L 0 *D NOR2XL

*CAP
1 *28 0.00011307
2 *433:Y 8.08239e-05
3 *28:2 0.000193893906

*RES
1 *28:2 *433:Y 8.1346035
2 *28 *28:2 3.95745
*END

*D_NET *29 0.000309229

*CONN
*P *29 O *C 43.6 15.105 *L 0
*I *432:Y O *C 38.525 15.955 *L 0 *D NOR2XL

*CAP
1 *29 0.000117003
2 *432:Y 3.76114e-05
3 *29:2 0.000154614453

*RES
1 *29:2 *432:Y 7.3479414
2 *29 *29:2 3.88554
*END

*D_NET *30 0.000434995

*CONN
*P *30 O *C 43.6 17.195 *L 0
*I *449:Y O *C 38.525 19.375 *L 0 *D NOR2XL

*CAP
1 *449:Y 0.000217497344
2 *30 0.000217497344

*RES
1 *30 *449:Y 14.2095
*END

*D_NET *31 0.00032568

*CONN
*P *31 O *C 43.6 19.285 *L 0
*I *456:Y O *C 37.925 19.375 *L 0 *D NOR2XL

*CAP
1 *31 6.76506e-05
2 *456:Y 9.51893e-05
3 *31:2 0.000162839893

*RES
1 *31:2 *456:Y 12.2967958
2 *31 *31:2 2.37376
*END

*D_NET *32 0.000289679

*CONN
*P *32 O *C 43.6 21.375 *L 0
*I *458:Y O *C 38.525 21.665 *L 0 *D NOR2XL

*CAP
1 *32 5.88308e-05
2 *458:Y 8.60085e-05
3 *32:2 0.000144839287

*RES
1 *32:2 *458:Y 9.50205326
2 *32 *32:2 2.07132
*END

*D_NET *33 0.000357509

*CONN
*P *33 O *C 43.6 23.655 *L 0
*I *455:Y O *C 38.125 22.795 *L 0 *D NOR2XL

*CAP
1 *33 6.81877e-05
2 *455:Y 0.000110567
3 *33:2 0.000178754336

*RES
1 *33:2 *455:Y 10.5729103
2 *33 *33:2 1.76898
*END

*D_NET *34 0.000354409

*CONN
*P *34 O *C 43.6 25.745 *L 0
*I *454:Y O *C 37.725 25.085 *L 0 *D NOR2XL

*CAP
1 *34 5.44201e-05
2 *454:Y 0.000122785
3 *34:2 0.000177204609

*RES
1 *34:2 *454:Y 9.68372822
2 *34 *34:2 2.07133
*END

*D_NET *35 0.00044179

*CONN
*P *35 O *C 43.6 27.835 *L 0
*I *459:Y O *C 38.325 25.085 *L 0 *D NOR2XL

*CAP
1 *35 0.000106573
2 *459:Y 0.000114322
3 *35:2 0.000220894805

*RES
1 *35:2 *459:Y 9.48345661
2 *35 *35:2 3.73428
*END

*D_NET *36 0.000240445

*CONN
*P *36 O *C 43.6 29.925 *L 0
*I *457:Y O *C 38.525 29.635 *L 0 *D NOR2XL

*CAP
1 *36 9.85867e-05
2 *457:Y 2.16358e-05
3 *36:2 0.000120222568

*RES
1 *36:2 *457:Y 6.98888302
2 *36 *36:2 3.58317
*END

*D_NET *37 0.00028801

*CONN
*P *37 O *C 43.6 32.015 *L 0
*I *461:Y O *C 37.925 31.925 *L 0 *D NOR2XL

*CAP
1 *37 0.000128984
2 *461:Y 1.50212e-05
3 *37:2 0.000144004824

*RES
1 *37:2 *461:Y 6.78861141
2 *37 *37:2 4.33911
*END

*D_NET *38 0.000454783

*CONN
*P *38 O *C 43.6 34.295 *L 0
*I *453:Y O *C 38.525 31.925 *L 0 *D NOR2XL

*CAP
1 *453:Y 0.000153957
2 *38 7.34343e-05
3 *38:2 0.000227391719

*RES
1 *38 *38:2 5.29702
2 *38:2 *453:Y 9.23848152
*END

*D_NET *39 0.000412583

*CONN
*P *39 O *C 43.6 36.385 *L 0
*I *450:Y O *C 37.725 33.055 *L 0 *D NOR2XL

*CAP
1 *39 0.000119387
2 *450:Y 8.69047e-05
3 *39:2 0.00020629168

*RES
1 *39:2 *450:Y 8.99970531
2 *39 *39:2 4.18799
*END

*D_NET *40 0.000601053

*CONN
*P *40 O *C 43.6 38.475 *L 0
*I *460:Y O *C 36.925 33.055 *L 0 *D NOR2XL

*CAP
1 *40 0.000138223
2 *460:Y 0.000162303
3 *40:2 0.000300526621

*RES
1 *40:2 *460:Y 10.6272697
2 *40 *40:2 5.09504
*END

*D_NET *41 0.000741124

*CONN
*P *41 O *C 43.6 40.565 *L 0
*I *452:Y O *C 36.325 33.055 *L 0 *D NOR2XL

*CAP
1 *41 0.000147999
2 *452:Y 0.000222563
3 *41:2 0.00037056207

*RES
1 *41:2 *452:Y 12.2414827
2 *41 *41:2 5.5486
*END

*D_NET *42 0.00188565

*CONN
*P *42 O *C 43.6 0.285 *L 0
*I *524:A I *C 28.3 10.925 *L 0.000395 *D INVX1
*I *514:A I *C 28.9 12.825 *L 0.00039 *D NAND2X1
*I *504:A I *C 29.5 11.115 *L 0.00039 *D NAND2X1
*I *359:B0 I *C 30.765 12.945 *L 0.000389 *D AOI22X1
*I *348:A I *C 28.3 9.405 *L 0.000209 *D MX2XL
*I *344:Q O *C 27.54 7.57 *L 0 *D DFFHQX1

*CAP
1 *42 0.000302848
2 *359:B0 6.96188e-05
3 *504:A 3.88065e-05
4 *344:Q 2.28872e-05
5 *42:7 0.000501811523
6 *42:8 8.90527e-05
7 *42:9 0.000110087
8 *42:10 0.000138281
9 *42:11 6.75897e-05
10 *42:12 0.000141083
11 *42:13 0.000304165
12 *359:B0 *384:A1 9.94205469e-05

*RES
1 *42:13 *344:Q 3.92746
2 *42:12 *42:13 1.85201
3 *42:11 *42:12 1.20942
4 *42:10 *42:11 0.20405
5 *524:A *42:11 3.29993
6 *348:A *42:12 6.60002
7 *42:9 *42:10 5.29594
8 *42:8 *42:9 6.75958
9 *514:A *42:9 0.499923
10 *42:7 *42:13 9.48884
11 *504:A *42:10 4.05257
12 *359:B0 *42:8 8.22623
13 *42 *42:7 10.961175
*END

*D_NET *43 0.00254548

*CONN
*P *43 O *C 43.6 2.375 *L 0
*I *533:A I *C 29.7 9.595 *L 0.000395 *D INVX1
*I *514:B I *C 29.1 13.205 *L 0.000392 *D NAND2X1
*I *505:A I *C 27.3 11.115 *L 0.00039 *D NAND2X1
*I *385:A I *C 20.5 13.015 *L 0.000392 *D NOR2X1
*I *368:B0 I *C 22.1 11.115 *L 0.000392 *D OAI22X1
*I *342:Q O *C 30.94 7.57 *L 0 *D DFFHQX1

*CAP
1 *43 0.000252666
2 *342:Q 0.000179408
3 *533:A 1.07259e-05
4 *514:B 3.73104e-05
5 *505:A 8.46215e-06
6 *368:B0 3.67744e-05
7 *385:A 0.000156405
8 *43:7 0.000413238984
9 *43:8 0.000106811
10 *43:9 0.000143409
11 *43:10 0.00020963
12 *43:11 0.000126062
13 *43:12 0.000243126
14 *43:13 0.000313875
15 *43:13 *369:B0 0.000116348262
16 *43:12 *357:B 0.000108480449
17 *43:12 *148:4 8.273125e-05

*RES
1 *385:A *43:13 10.409
2 *43:13 *43:12 4.1766
3 *368:B0 *43:13 6.84044
4 *43:11 *43:12 3.37978
5 *43:12 *43:10 6.30525
6 *505:A *43:11 3.35725
7 *43:9 *43:11 5.36417
8 *514:B *43:9 0.976726
9 *43:10 *43:8 5.02352
10 *533:A *43:10 3.38886
11 *43:8 *342:Q 0.65726
12 *43:7 *342:Q 11.0192299
13 *43 *43:7 9.60046
*END

*D_NET *44 0.00159657

*CONN
*P *44 O *C 43.6 4.465 *L 0
*I *530:A I *C 38.1 13.015 *L 0.000395 *D INVX1
*I *494:A0 I *C 36.7 13.015 *L 0.000212 *D OAI22XL
*I *377:B0 I *C 34.54 14.91 *L 0.00021 *D AO22XL
*I *332:A0N I *C 34.645 12.56 *L 0.000209 *D OAI2BB1X1
*I *324:Q O *C 34.74 10.99 *L 0 *D DFFHQX1

*CAP
1 *44 0.000101328
2 *530:A 4.41075e-05
3 *494:A0 3.48071e-05
4 *324:Q 3.02767e-05
5 *377:B0 2.14552e-05
6 *44:6 0.000412940977
7 *44:7 0.000383137
8 *44:8 0.000128391
9 *44:9 6.91417e-05
10 *44:10 6.67599e-05
11 *44:11 0.000115511
12 *44:11 *332:B0 8.38041309e-05
13 *44:6 *187:5 0.00010490418

*RES
1 *377:B0 *44:11 3.86869
2 *44:10 *44:9 0.68036
3 *44:11 *44:10 0.842918
4 *332:A0N *44:10 6.59994
5 *44:9 *324:Q 3.79138
6 *494:A0 *44:8 7.18267
7 *44:8 *44:11 5.5286
8 *44:7 *44:8 1.11875
9 *530:A *44:7 7.21514
10 *44:6 *44:7 15.306592
11 *44 *44:6 3.58328
*END

*D_NET *45 0.000751853

*CONN
*P *45 O *C 43.6 6.555 *L 0
*I *494:Y O *C 37.395 13.17 *L 0 *D OAI22XL

*CAP
1 *45 0.000166116
2 *494:Y 1.58567e-05
3 *45:2 0.000360071641
4 *45:3 0.000209807

*RES
1 *45:3 *494:Y 3.6477
2 *45:2 *45:3 8.04495811
3 *45 *45:2 4.79265
*END

*D_NET *46 0.000792265

*CONN
*P *46 O *C 43.6 42.655 *L 0
*I *451:Y O *C 35.1 33.725 *L 0 *D INVXL

*CAP
1 *46 0.000177506
2 *451:Y 0.000218627
3 *46:2 0.000396132461

*RES
1 *46:2 *451:Y 13.3891106
2 *46 *46:2 6.45573
*END

*D_NET *47 0.00117517

*CONN
*P *47 I *C 0 4.655 *L 0
*I *534:A I *C 24.3 6.175 *L 0.000395 *D INVX1
*I *367:A0 I *C 26.14 5.92 *L 0.000789 *D OAI21X2

*CAP
1 *367:A0 4.27406e-05
2 *534:A 9.59355e-06
3 *47 0.000535248
4 *47:3 0.000587582578

*RES
1 *47:3 *47 22.7026939
2 *534:A *47:3 3.47628
3 *367:A0 *47:3 4.35825
*END

*D_NET *48 0.000322461

*CONN
*I *439:B0 I *C 16.2 16.44 *L 0.000392 *D AOI21X1
*I *422:A0 I *C 14.96 14.67 *L 0.000212 *D AOI211XL
*I *305:Q O *C 16.5 14.345 *L 0 *D DFFQXL

*CAP
1 *439:B0 5.62665e-05
2 *305:Q 1.32317e-05
3 *422:A0 7.57578e-05
4 *48:3 6.47909e-05
5 *48:4 2.06825e-05
6 *48:5 9.17315527e-05

*RES
1 *422:A0 *48:5 11.5448236
2 *48:4 *305:Q 0.491486
3 *48:5 *48:4 0.221081
4 *48:3 *48:5 3.35726
5 *439:B0 *48:3 4.15368
*END

*D_NET *49 0.000222683

*CONN
*I *446:B0 I *C 17 10.92 *L 0.000392 *D AOI21X1
*I *421:A0 I *C 18.76 11.25 *L 0.000212 *D AOI211XL
*I *304:Q O *C 16.9 13.015 *L 0 *D DFFQXL

*CAP
1 *421:A0 4.08891e-05
2 *304:Q 5.20942e-05
3 *49:3 5.92465e-05
4 *49:4 7.04526904e-05

*RES
1 *49:4 *304:Q 4.36592102
2 *446:B0 *49:4 3.29996
3 *49:3 *49:4 3.59907
4 *421:A0 *49:3 1.46828
*END

*D_NET *50 0.000281811

*CONN
*I *443:B0 I *C 15.8 17.76 *L 0.000392 *D AOI21X1
*I *418:A0 I *C 15.36 19.53 *L 0.000212 *D AOI211XL
*I *303:Q O *C 16.7 17.765 *L 0 *D DFFQXL

*CAP
1 *303:Q 1.37085e-05
2 *443:B0 2.39603e-05
3 *418:A0 8.30896e-05
4 *50:3 3.3855e-05
5 *50:4 0.000127196309

*RES
1 *418:A0 *50:4 4.86898422
2 *50:4 *50:3 3.59906
3 *443:B0 *50:4 3.64765
4 *50:3 *303:Q 0.485294
*END

*D_NET *51 0.000298142

*CONN
*I *438:B0 I *C 19.2 30.12 *L 0.000392 *D AOI21X1
*I *417:A0 I *C 19.36 31.77 *L 0.000212 *D AOI211XL
*I *302:Q O *C 18.7 28.025 *L 0 *D DFFQXL

*CAP
1 *417:A0 7.64134e-05
2 *302:Q 7.26579e-05
3 *51:3 0.000149071221

*RES
1 *51:3 *302:Q 4.73716
2 *438:B0 *51:3 3.29997
3 *417:A0 *51:3 4.75144386
*END

*D_NET *52 0.000285745

*CONN
*I *442:B0 I *C 34.6 19.86 *L 0.000392 *D AOI21X1
*I *416:A0 I *C 35.76 19.53 *L 0.000212 *D AOI211XL
*I *301:Q O *C 34.5 17.765 *L 0 *D DFFQXL

*CAP
1 *416:A0 6.88429e-05
2 *442:B0 2.49141e-05
3 *301:Q 4.91153e-05
4 *52:3 0.000142872334

*RES
1 *52:3 *301:Q 4.07865
2 *442:B0 *52:3 3.64775
3 *416:A0 *52:3 11.1397505
*END

*D_NET *53 0.000417888

*CONN
*I *448:B0 I *C 33.4 26.7 *L 0.000392 *D AOI21X1
*I *419:A0 I *C 33.56 28.35 *L 0.000212 *D AOI211XL
*I *300:Q O *C 30.1 28.025 *L 0 *D DFFQXL

*CAP
1 *300:Q 0.000102996
2 *448:B0 6.5506e-05
3 *53:3 0.000168502324
4 *53:3 *397:CK 6.90818e-05
5 *53:3 *8:80 4.17233e-06
6 *53:3 *8:82 6.79493e-06
7 *53:3 *293:CK 8.34443645e-07

*RES
1 *448:B0 *53:3 7.81456
2 *53:3 *300:Q 12.7928257
3 *419:A0 *53:3 3.29991
*END

*D_NET *54 0.00045085

*CONN
*I *445:B0 I *C 26.8 21.18 *L 0.000392 *D AOI21X1
*I *429:A0 I *C 26.96 24.93 *L 0.000212 *D AOI211XL
*I *299:Q O *C 25.7 23.275 *L 0 *D DFFQXL

*CAP
1 *429:A0 3.37963e-05
2 *445:B0 1.30537e-05
3 *299:Q 2.80142e-05
4 *54:3 8.10616e-05
5 *54:4 0.000112473965
6 *54:5 8.01674e-05
7 *429:A0 *140:5 0.000102281572

*RES
1 *54:5 *299:Q 3.85793
2 *54:4 *54:5 7.49957561
3 *445:B0 *54:4 7.01483
4 *54:3 *54:4 1.16792
5 *429:A0 *54:3 4.3659
*END

*D_NET *55 0.000337481

*CONN
*I *440:B0 I *C 30.2 24.6 *L 0.000392 *D AOI21X1
*I *428:A0 I *C 31.76 24.93 *L 0.000212 *D AOI211XL
*I *298:Q O *C 30.3 23.275 *L 0 *D DFFQXL

*CAP
1 *428:A0 0.000100256
2 *298:Q 1.36491e-05
3 *440:B0 5.48359e-05
4 *55:3 0.000168740742

*RES
1 *440:B0 *55:3 4.26754
2 *55:3 *298:Q 3.59036
3 *428:A0 *55:3 5.27644157
*END

*D_NET *56 0.000326633

*CONN
*I *435:B0 I *C 21 21.18 *L 0.000392 *D AOI21X1
*I *426:A0 I *C 20.56 22.95 *L 0.000212 *D AOI211XL
*I *297:Q O *C 21.3 19.855 *L 0 *D DFFQXL

*CAP
1 *297:Q 3.32596e-05
2 *426:A0 6.05589e-05
3 *56:3 7.28964e-05
4 *56:4 6.94995e-05
5 *56:5 9.04202441e-05

*RES
1 *56:5 *56:4 0.687971
2 *426:A0 *56:5 4.34362888
3 *56:4 *56:3 0.839086
4 *435:B0 *56:4 3.29994
5 *56:3 *297:Q 4.07865
*END

*D_NET *57 0.0004282

*CONN
*I *464:B0 I *C 18.8 21.18 *L 0.000392 *D AOI21X1
*I *423:A0 I *C 16.16 21.51 *L 0.000212 *D AOI211XL
*I *296:Q O *C 17.1 19.855 *L 0 *D DFFQXL

*CAP
1 *464:B0 8.51746e-05
2 *296:Q 5.35835e-05
3 *423:A0 6.81275e-05
4 *57:3 6.07967e-05
5 *57:4 0.000160515313

*RES
1 *423:A0 *57:4 7.62137
2 *57:3 *296:Q 4.28782
3 *57:4 *57:3 3.35721
4 *464:B0 *57:4 8.11994076
*END

*D_NET *58 0.000187635

*CONN
*I *463:B0 I *C 21.4 26.7 *L 0.000392 *D AOI21X1
*I *425:A0 I *C 22.16 26.37 *L 0.000212 *D AOI211XL
*I *295:Q O *C 21.3 24.605 *L 0 *D DFFQXL

*CAP
1 *425:A0 2.6285e-05
2 *295:Q 6.75327e-05
3 *58:3 9.38177148e-05

*RES
1 *58:3 *295:Q 4.36592102
2 *463:B0 *58:3 3.29996
3 *425:A0 *58:3 3.83863
*END

*D_NET *59 0.000556231

*CONN
*I *436:B0 I *C 18.6 24.6 *L 0.000392 *D AOI21X1
*I *424:A0 I *C 16.96 26.37 *L 0.000212 *D AOI211XL
*I *294:Q O *C 14.7 24.605 *L 0 *D DFFQXL

*CAP
1 *436:B0 0.000145615
2 *424:A0 4.27944e-05
3 *294:Q 3.84461e-05
4 *59:3 9.40558e-05
5 *59:4 0.000235319141

*RES
1 *59:4 *294:Q 4.04882
2 *59:3 *59:4 4.40787
3 *424:A0 *59:3 1.71412
4 *436:B0 *59:4 12.6305819
*END

*D_NET *60 0.000368595

*CONN
*I *437:B0 I *C 29.6 31.44 *L 0.000392 *D AOI21X1
*I *427:A0 I *C 31.56 31.77 *L 0.000212 *D AOI211XL
*I *293:Q O *C 29.9 30.115 *L 0 *D DFFQXL

*CAP
1 *427:A0 8.96447e-05
2 *437:B0 3.02799e-05
3 *293:Q 1.18024e-05
4 *60:3 0.00017249584
5 *60:4 6.43737e-05

*RES
1 *60:4 *293:Q 0.411541
2 *60:3 *60:4 4.07867
3 *437:B0 *60:3 3.64777
4 *427:A0 *60:3 11.8604898
*END

*D_NET *61 0.000216246

*CONN
*I *444:B0 I *C 34.4 21.18 *L 0.000392 *D AOI21X1
*I *415:A0 I *C 35.36 21.51 *L 0.000212 *D AOI211XL
*I *292:Q O *C 33.9 23.275 *L 0 *D DFFQXL

*CAP
1 *415:A0 3.3557e-05
2 *292:Q 3.72526e-05
3 *61:3 7.08699e-05
4 *61:4 7.45654102e-05

*RES
1 *61:4 *292:Q 4.07862
2 *61:3 *61:4 0.710598
3 *444:B0 *61:3 3.29996
4 *415:A0 *61:3 4.08434868
*END

*D_NET *62 0.000368118

*CONN
*I *447:B0 I *C 28.2 30.12 *L 0.000392 *D AOI21X1
*I *420:A0 I *C 27.56 31.77 *L 0.000212 *D AOI211XL
*I *291:Q O *C 26.7 28.025 *L 0 *D DFFQXL

*CAP
1 *447:B0 5.48372e-05
2 *420:A0 7.82606e-05
3 *291:Q 5.09614e-05
4 *62:3 0.000184059141

*RES
1 *62:3 *291:Q 4.37405
2 *420:A0 *62:3 5.05578518
3 *447:B0 *62:3 4.41124
*END

*D_NET *63 0.000547886

*CONN
*I *441:B0 I *C 25.2 30.12 *L 0.000392 *D AOI21X1
*I *430:A0 I *C 25.36 31.77 *L 0.000212 *D AOI211XL
*I *290:Q O *C 23.5 28.025 *L 0 *D DFFQXL

*CAP
1 *430:A0 7.64134e-05
2 *290:Q 0.000151574
3 *63:3 0.000227987773
4 *63:3 *83:4 9.19103613e-05

*RES
1 *63:3 *290:Q 12.7031803
2 *441:B0 *63:3 3.30004
3 *430:A0 *63:3 4.75148
*END

*D_NET *64 0.000816822

*CONN
*I *525:A I *C 36.1 13.015 *L 0.000395 *D INVX1
*I *494:B0 I *C 37.5 13.015 *L 0.000212 *D OAI22XL
*I *377:B1 I *C 34.1 14.345 *L 0.000209 *D AO22XL
*I *327:B0 I *C 33.965 10.995 *L 0.000389 *D AOI22X1
*I *306:Q O *C 34.34 9.53 *L 0 *D DFFHQX1

*CAP
1 *494:B0 5.55514e-05
2 *525:A 2.18142e-05
3 *306:Q 4.39293e-05
4 *377:B1 6.44328e-05
5 *327:B0 9.71457e-06
6 *64:5 0.000136911
7 *64:6 7.64727e-05
8 *64:7 0.000156462197
9 *64:8 0.00013852
10 *494:B0 *187:5 0.00011301041

*RES
1 *327:B0 *64:8 3.57591
2 *64:7 *64:8 1.90502
3 *64:6 *64:7 0.313806
4 *377:B1 *64:6 4.22233
5 *64:8 *306:Q 4.28779
6 *64:5 *64:7 5.05995
7 *525:A *64:5 6.80511
8 *494:B0 *64:5 7.90071487
*END

*D_NET *65 0.000311255

*CONN
*I *528:A I *C 14.9 17.765 *L 0.000395 *D INVX1
*I *399:Q O *C 11.5 17.765 *L 0 *D DFFQXL

*CAP
1 *528:A 0.000140904
2 *65:2 0.000155627725
3 *65:3 1.47233e-05

*RES
1 *65:3 *399:Q 0.500002
2 *65:2 *65:3 6.76685
3 *528:A *65:2 9.58693027
*END

*D_NET *66 5.11408e-05

*CONN
*I *538:A I *C 20.7 31.445 *L 0.000395 *D INVX1
*I *389:Q O *C 21.1 31.445 *L 0 *D DFFQXL

*CAP
1 *538:A 7.33147e-06
2 *389:Q 1.82389e-05
3 *66:2 2.55703931e-05

*RES
1 *66:2 *389:Q 3.64398956
2 *538:A *66:2 3.35719
*END

*D_NET *67 0.000276566

*CONN
*I *531:A I *C 25.5 24.605 *L 0.000395 *D INVX1
*I *396:Q O *C 23.7 26.695 *L 0 *D DFFQXL

*CAP
1 *531:A 0.000112534
2 *396:Q 2.57491e-05
3 *67:2 0.000138282773

*RES
1 *67:2 *396:Q 3.85801
2 *531:A *67:2 11.9817257
*END

*D_NET *68 0.000342607

*CONN
*I *539:A I *C 36.7 24.605 *L 0.000395 *D INVX1
*I *392:Q O *C 33.3 24.605 *L 0 *D DFFQXL

*CAP
1 *539:A 0.000158548
2 *392:Q 1.2756e-05
3 *68:2 0.00017130375

*RES
1 *68:2 *392:Q 3.57241
2 *539:A *68:2 13.3653879
*END

*D_NET *69 0.000314832

*CONN
*I *540:A I *C 23.9 30.115 *L 0.000395 *D INVX1
*I *395:Q O *C 20.7 30.115 *L 0 *D DFFQXL

*CAP
1 *395:Q 0.000157415869
2 *540:A 0.000157415869

*RES
1 *540:A *395:Q 16.8074
*END

*D_NET *70 0.000225186

*CONN
*I *526:A I *C 17.1 30.115 *L 0.000395 *D INVX1
*I *388:Q O *C 15.3 28.025 *L 0 *D DFFQXL

*CAP
1 *526:A 5.91872e-05
2 *388:Q 5.34059e-05
3 *70:2 0.000112593174

*RES
1 *70:2 *388:Q 7.7149868
2 *526:A *70:2 2.24848
*END

*D_NET *71 0.000370502

*CONN
*I *544:A I *C 29.9 33.535 *L 0.000395 *D INVX1
*I *398:Q O *C 26.7 33.535 *L 0 *D DFFQXL

*CAP
1 *398:Q 0.00018525123
2 *544:A 0.00018525123

*RES
1 *544:A *398:Q 18.1447
*END

*D_NET *72 0.000262856

*CONN
*I *536:A I *C 26.3 33.535 *L 0.000395 *D INVX1
*I *390:Q O *C 23.1 33.535 *L 0 *D DFFQXL

*CAP
1 *536:A 0.000113487
2 *390:Q 1.79409e-05
3 *72:2 0.000131428242

*RES
1 *72:2 *390:Q 6.80504
2 *536:A *72:2 9.32943821
*END

*D_NET *73 7.53403e-05

*CONN
*I *543:A I *C 16.3 9.595 *L 0.000395 *D INVX1
*I *394:Q O *C 17.3 9.595 *L 0 *D DFFQXL

*CAP
1 *394:Q 1.23975e-05
2 *543:A 2.52726e-05
3 *73:2 3.76701367e-05

*RES
1 *543:A *73:2 6.95621967
2 *73:2 *394:Q 0.485288
*END

*D_NET *74 0.00036037

*CONN
*I *542:A I *C 16.3 13.015 *L 0.000395 *D INVX1
*I *400:Q O *C 13.1 13.015 *L 0 *D DFFQXL

*CAP
1 *542:A 0.000102698
2 *400:Q 5.78136e-06
3 *74:2 0.000129222871
4 *74:3 3.23062e-05
5 *542:A *8:106 7.45058e-05
6 *542:A *8:108 1.58548422e-05

*RES
1 *74:3 *400:Q 0.196596
2 *74:2 *74:3 6.84991
3 *542:A *74:2 9.48059559
*END

*D_NET *75 0.000313282

*CONN
*I *529:A I *C 38.1 28.025 *L 0.000395 *D INVX1
*I *397:Q O *C 34.7 28.025 *L 0 *D DFFQXL

*CAP
1 *529:A 0.000134587
2 *397:Q 2.20543e-05
3 *75:2 0.000156641006

*RES
1 *75:2 *397:Q 6.82538
2 *529:A *75:2 9.5038414
*END

*D_NET *76 0.000325203

*CONN
*I *535:A I *C 37.9 17.765 *L 0.000395 *D INVX1
*I *404:Q O *C 34.9 16.435 *L 0 *D DFFQXL

*CAP
1 *404:Q 0.000162601475
2 *535:A 0.000162601475

*RES
1 *535:A *404:Q 16.6149
*END

*D_NET *77 0.000279784

*CONN
*I *527:A I *C 18.5 23.275 *L 0.000395 *D INVX1
*I *402:Q O *C 14.9 23.275 *L 0 *D DFFQXL

*CAP
1 *527:A 0.000119389
2 *402:Q 2.0503e-05
3 *77:2 0.0001398921

*RES
1 *77:2 *402:Q 6.80503
2 *527:A *77:2 9.58693027
*END

*D_NET *78 0.000137687

*CONN
*I *532:A I *C 21.7 21.185 *L 0.000395 *D INVX1
*I *403:Q O *C 21.9 23.275 *L 0 *D DFFQXL

*CAP
1 *403:Q 2.68818e-05
2 *532:A 4.19615e-05
3 *78:2 6.88433643e-05

*RES
1 *532:A *78:2 4.11725044
2 *78:2 *403:Q 3.935
*END

*D_NET *79 0.000307918

*CONN
*I *537:A I *C 37.9 26.695 *L 0.000395 *D INVX1
*I *391:Q O *C 34.5 26.695 *L 0 *D DFFQXL

*CAP
1 *537:A 0.000133574
2 *391:Q 2.03845e-05
3 *79:2 0.000153958799

*RES
1 *79:2 *391:Q 6.80506
2 *537:A *79:2 9.48059559
*END

*D_NET *80 0.000305295

*CONN
*I *541:A I *C 33.5 33.535 *L 0.000395 *D INVX1
*I *401:Q O *C 30.3 33.535 *L 0 *D DFFQXL

*CAP
1 *401:Q 0.0001526475
2 *541:A 0.0001526475

*RES
1 *541:A *401:Q 16.6481
*END

*D_NET *81 0.00135124

*CONN
*I *488:Q O *C 8.74 30.05 *L 0 *D DFFHQX1
*I *474:A I *C 14.9 16.435 *L 0.000212 *D INVXL
*I *439:A0 I *C 15.7 16.625 *L 0.000391 *D AOI21X1

*CAP
1 *439:A0 2.41409e-05
2 *474:A 7.5105e-06
3 *488:Q 5.29851e-05
4 *81:3 0.000203967
5 *81:4 0.000362275
6 *81:5 0.000481605547
7 *81:5 *496:CK 5.30481e-06
8 *81:5 *8:120 3.0756e-05
9 *81:5 *8:129 1.44243e-05
10 *81:5 *8:130 2.40207e-05
11 *81:5 *495:CK 6.55651e-07
12 *81:4 *8:120 1.46031329e-05
13 *81:5 *96:7 0.000128984453

*RES
1 *81:5 *81:4 9.71772
2 *81:4 *488:Q 10.7960701
3 *81:3 *81:5 10.7208
4 *474:A *81:3 3.35713
5 *439:A0 *81:3 3.89532
*END

*D_NET *82 0.00159597

*CONN
*I *492:Q O *C 11.94 31.51 *L 0 *D DFFHQX1
*I *483:A I *C 15.9 10.925 *L 0.000212 *D INVXL
*I *446:A0 I *C 16.5 10.735 *L 0.000391 *D AOI21X1

*CAP
1 *446:A0 2.58689e-05
2 *492:Q 1.34079e-05
3 *82:3 0.000100432
4 *82:4 0.000554025156
5 *82:5 0.000517665
6 *82:6 8.11234e-05
7 *82:7 5.63282e-05
8 *82:5 *400:CK 7.92742e-06
9 *82:5 *8:110 6.24657e-05
10 *82:5 *493:CK 1.41263e-05
11 *82:4 *8:112 7.74831895e-07
12 *82:5 *87:6 0.000161826611

*RES
1 *82:7 *492:Q 3.64763
2 *82:6 *82:5 3.3467
3 *82:5 *82:4 15.2058601
4 *82:4 *82:7 0.94503
5 *82:3 *82:6 2.93672
6 *483:A *82:3 0.50001
7 *446:A0 *82:3 7.00153
*END

*D_NET *83 0.00217867

*CONN
*I *502:Q O *C 12.14 28.09 *L 0 *D DFFHQX1
*I *472:A I *C 35.1 19.855 *L 0.000212 *D INVXL
*I *442:A0 I *C 34.1 20.045 *L 0.000391 *D AOI21X1

*CAP
1 *472:A 1.43601e-05
2 *442:A0 4.0291e-05
3 *502:Q 1.75857e-05
4 *83:3 0.000495728
5 *83:4 0.000752270234
6 *83:5 0.000328779
7 *83:5 *8:110 4.11272e-06
8 *83:5 *502:CK 1.01328e-06
9 *83:4 *8:82 4.1306e-05
10 *83:4 *8:87 2.563e-05
11 *83:4 *8:89 2.2471e-05
12 *83:4 *302:CK 4.43459e-05
13 *83:4 *388:CK 5.45383e-05
14 *83:3 *391:CK 6.31809e-06
15 *83:3 *292:CK 5.36317717e-07
16 *83:4 *63:3 9.19103613e-05
17 *83:4 *96:3 0.000237464902

*RES
1 *83:5 *502:Q 6.80511
2 *83:4 *83:5 13.3651
3 *442:A0 *83:3 4.22731
4 *83:3 *83:4 13.8610601
5 *472:A *83:3 3.64758
*END

*D_NET *84 0.00159156

*CONN
*I *493:Q O *C 12.14 30.05 *L 0 *D DFFHQX1
*I *481:A I *C 33.5 30.115 *L 0.000212 *D INVXL
*I *448:A0 I *C 32.9 26.885 *L 0.000391 *D AOI21X1

*CAP
1 *481:A 1.41261e-05
2 *448:A0 0.000145494
3 *493:Q 0.000123915
4 *84:3 0.000340046
5 *84:4 0.000460803516
6 *84:5 0.000404299
7 *84:3 *447:A0 0.000102877617

*RES
1 *84:5 *493:Q 9.39035416
2 *84:4 *84:5 8.82953
3 *448:A0 *84:3 5.93116
4 *84:3 *84:4 8.67135
5 *481:A *84:3 3.59675
*END

*D_NET *85 0.000922799

*CONN
*I *496:Q O *C 8.74 21.25 *L 0 *D DFFHQX1
*I *482:A I *C 19.9 23.275 *L 0.000212 *D INVXL
*I *435:A0 I *C 20.5 20.995 *L 0.000391 *D AOI21X1

*CAP
1 *435:A0 3.11115e-05
2 *496:Q 0.000340223
3 *482:A 2.69422e-05
4 *85:3 0.000392019766
5 *85:4 4.76214e-05
6 *435:A0 *216:5 8.48770117e-05

*RES
1 *85:4 *85:3 0.600833
2 *482:A *85:4 4.22227
3 *85:3 *496:Q 19.5901394
4 *435:A0 *85:3 3.92813
*END

*D_NET *86 0.000614762

*CONN
*I *500:Q O *C 11.74 23.21 *L 0 *D DFFHQX1
*I *476:A I *C 14.7 21.185 *L 0.000212 *D INVXL
*I *464:A0 I *C 18.3 20.995 *L 0.000391 *D AOI21X1

*CAP
1 *464:A0 0.000121295
2 *500:Q 2.7657e-05
3 *86:3 0.000198543066
4 *86:4 0.000113488
5 *86:5 6.38967e-05
6 *464:A0 *94:3 8.98838086e-05

*RES
1 *86:5 *500:Q 3.90559
2 *86:4 *86:5 4.0837
3 *86:3 *86:4 2.93655
4 *476:A *86:3 0.500117
5 *464:A0 *86:3 16.486763
*END

*D_NET *87 0.00219327

*CONN
*I *498:Q O *C 11.54 16.37 *L 0 *D DFFHQX1
*I *469:A I *C 30.1 31.445 *L 0.000212 *D INVXL
*I *437:A0 I *C 29.1 31.255 *L 0.000391 *D AOI21X1

*CAP
1 *469:A 6.56874e-05
2 *498:Q 0.000114737
3 *87:3 0.000155034
4 *87:4 0.000424265
5 *87:5 0.00038391
6 *87:6 0.000411032
7 *87:7 0.000476777539
8 *87:6 *82:5 0.000161826611

*RES
1 *87:7 *498:Q 12.1424198
2 *87:6 *87:7 10.6741
3 *87:5 *87:6 4.32477
4 *87:4 *87:5 9.91796
5 *87:3 *87:4 5.24413
6 *437:A0 *87:3 3.3
7 *469:A *87:3 4.71868
*END

*D_NET *88 0.00179642

*CONN
*I *497:Q O *C 8.34 17.83 *L 0 *D DFFHQX1
*I *468:A I *C 36.5 21.185 *L 0.000212 *D INVXL
*I *444:A0 I *C 33.9 20.995 *L 0.000391 *D AOI21X1

*CAP
1 *468:A 0.000106452
2 *444:A0 2.21138e-05
3 *497:Q 9.69163e-05
4 *88:3 0.000303327
5 *88:4 0.000596880898
6 *88:5 0.000519036
7 *88:4 *265:5 0.000151693818

*RES
1 *88:5 *497:Q 15.3189
2 *88:4 *88:5 16.0562992
3 *88:3 *88:4 10.9446
4 *444:A0 *88:3 6.80511
5 *468:A *88:3 8.8146
*END

*D_NET *89 0.00147432

*CONN
*I *491:Q O *C 8.54 28.09 *L 0 *D DFFHQX1
*I *467:A I *C 14.5 19.855 *L 0.000212 *D INVXL
*I *443:A0 I *C 15.3 17.575 *L 0.000391 *D AOI21X1

*CAP
1 *443:A0 0.000197951
2 *467:A 6.26476e-05
3 *491:Q 1.69277e-05
4 *89:3 0.000517666328
5 *89:4 6.70553e-05
6 *89:5 0.000332235
7 *89:5 *8:120 1.48416e-05
8 *89:3 *8:110 0.000146031
9 *89:3 *489:CK 1.37091e-05
10 *89:3 *500:CK 4.52995e-06
11 *443:A0 *8:107 0
12 *443:A0 *399:CK 2.74211711e-06
13 *89:3 *91:4 9.79900391e-05

*RES
1 *89:5 *491:Q 3.85805
2 *89:4 *89:3 3.3364
3 *89:3 *89:5 16.03508
4 *467:A *89:4 2.45141
5 *443:A0 *89:3 14.256
*END

*D_NET *90 0.000381589

*CONN
*I *490:Q O *C 15.14 31.51 *L 0 *D DFFHQX1
*I *473:A I *C 18.5 31.445 *L 0.000212 *D INVXL
*I *438:A0 I *C 18.7 30.305 *L 0.000391 *D AOI21X1

*CAP
1 *438:A0 5.33473e-05
2 *490:Q 0.000137447
3 *90:3 0.000190794473

*RES
1 *90:3 *490:Q 13.3343935
2 *473:A *90:3 3.30003
3 *438:A0 *90:3 4.4193
*END

*D_NET *91 0.00165737

*CONN
*I *487:Q O *C 8.54 26.63 *L 0 *D DFFHQX1
*I *477:A I *C 26.3 24.605 *L 0.000212 *D INVXL
*I *445:A0 I *C 26.3 20.995 *L 0.000391 *D AOI21X1

*CAP
1 *445:A0 0.00016892
2 *487:Q 1.25198e-05
3 *91:3 0.000265244
4 *91:4 0.000455319883
5 *91:5 0.000371516
6 *91:4 *96:3 0.000139713291
7 *91:4 *89:3 9.79900391e-05
8 *91:4 *463:A0 0.000146150586

*RES
1 *91:5 *487:Q 6.78862
2 *91:4 *91:5 13.3651495
3 *91:3 *91:4 5.30376
4 *477:A *91:3 3.29989
5 *445:A0 *91:3 6.71174
*END

*D_NET *92 0.0018273

*CONN
*I *501:Q O *C 8.54 24.67 *L 0 *D DFFHQX1
*I *480:A I *C 30.9 24.605 *L 0.000212 *D INVXL
*I *440:A0 I *C 29.7 24.415 *L 0.000391 *D AOI21X1

*CAP
1 *480:A 4.92958e-05
2 *440:A0 4.2558e-05
3 *501:Q 0.000232099
4 *92:3 0.000362095
5 *92:4 0.00050234793
6 *92:4 *109:2 9.53078223e-05
7 *92:3 *312:A0 0.000212192539
8 *480:A *263:7 0.000331401836

*RES
1 *92:4 *501:Q 13.4119987
2 *92:3 *92:4 10.1333
3 *440:A0 *92:3 6.93112
4 *480:A *92:3 7.69467
*END

*D_NET *93 0.000777721

*CONN
*I *489:Q O *C 11.74 26.63 *L 0 *D DFFHQX1
*I *479:A I *C 19.9 26.695 *L 0.000212 *D INVXL
*I *463:A0 I *C 20.9 26.885 *L 0.000391 *D AOI21X1

*CAP
1 *463:A0 6.90823e-05
2 *479:A 2.5092e-05
3 *489:Q 0.000165523
4 *93:3 0.000259697441
5 *463:A0 *151:61 0.000112175938
6 *463:A0 *91:4 0.000146150586

*RES
1 *93:3 *489:Q 12.7618313
2 *479:A *93:3 7.33081
3 *463:A0 *93:3 8.29725
*END

*D_NET *94 0.00109422

*CONN
*I *495:Q O *C 8.54 19.79 *L 0 *D DFFHQX1
*I *478:A I *C 18.3 26.695 *L 0.000212 *D INVXL
*I *436:A0 I *C 18.1 24.415 *L 0.000391 *D AOI21X1

*CAP
1 *478:A 9.59665e-05
2 *495:Q 0.000406203
3 *94:3 0.000502169141
4 *94:3 *464:A0 8.98838086e-05

*RES
1 *94:3 *495:Q 20.8017826
2 *436:A0 *94:3 3.29979
3 *478:A *94:3 5.32582
*END

*D_NET *95 0.00203335

*CONN
*I *485:Q O *C 11.54 14.41 *L 0 *D DFFHQX1
*I *470:A I *C 26.7 30.115 *L 0.000212 *D INVXL
*I *447:A0 I *C 27.7 30.305 *L 0.000391 *D AOI21X1

*CAP
1 *447:A0 4.7329e-05
2 *470:A 3.15909e-05
3 *485:Q 3.61175e-05
4 *95:3 0.000245335
5 *95:4 0.0004172325
6 *95:5 0.000293492
7 *95:6 0.000256833
8 *95:7 0.000130591
9 *95:8 0.000381949
10 *95:4 *104:2 9.00030176e-05
11 *447:A0 *84:3 0.000102877617

*RES
1 *95:8 *95:7 8.37078
2 *95:6 *95:5 3.35711
3 *95:5 *95:8 8.9503
4 *95:7 *485:Q 3.93504
5 *95:4 *95:6 8.3759
6 *95:3 *95:4 11.582613
7 *470:A *95:3 7.00478
8 *447:A0 *95:3 7.50335
*END

*D_NET *96 0.0022825

*CONN
*I *486:Q O *C 9.94 12.95 *L 0 *D DFFHQX1
*I *471:A I *C 25.7 30.115 *L 0.000212 *D INVXL
*I *441:A0 I *C 24.7 30.305 *L 0.000391 *D AOI21X1

*CAP
1 *471:A 7.19449e-05
2 *486:Q 0.000101327
3 *96:3 0.000191749
4 *96:4 0.000328065
5 *96:5 0.000297429
6 *96:6 0.000386835
7 *96:7 0.000398993477
8 *96:7 *81:5 0.000128984453
9 *96:3 *83:4 0.000237464902
10 *96:3 *91:4 0.000139713291

*RES
1 *96:7 *486:Q 5.81005
2 *96:6 *96:7 8.7424
3 *96:5 *96:6 5.55696
4 *96:4 *96:5 9.2981
5 *96:3 *96:4 5.8594
6 *441:A0 *96:3 3.29991
7 *471:A *96:3 11.2297535
*END

*D_NET *97 0.00193357

*CONN
*I *499:Q O *C 5.94 8 *L 0 *D DFFRHQX1
*I *475:A I *C 20.5 9.595 *L 0.000801 *D INVX2
*I *465:A I *C 26.81 7.7 *L 0.000792 *D NAND2X2
*I *366:A I *C 24.1 7.885 *L 0.000211 *D AND2XL
*I *345:C0 I *C 32.35 9.34 *L 0.000393 *D OAI221X1
*I *323:A I *C 33.7 9.405 *L 0.00039 *D NAND2X1

*CAP
1 *323:A 7.42109e-05
2 *465:A 2.35457e-05
3 *366:A 1.90763e-05
4 *499:Q 0.000351607
5 *475:A 8.08808e-05
6 *97:6 7.93936e-05
7 *97:7 0.000190498
8 *97:8 0.000260118
9 *97:9 0.00013512
10 *97:10 0.000497281563
11 *97:7 *151:38 9.8586084e-05
12 *97:7 *465:B 0.000123262402

*RES
1 *475:A *97:10 8.34375
2 *97:10 *499:Q 18.7400589
3 *366:A *97:9 6.7593
4 *97:9 *97:10 2.47948
5 *97:8 *97:9 1.49295
6 *465:A *97:8 6.82507
7 *97:7 *97:8 9.11925
8 *97:6 *97:7 3.33619
9 *345:C0 *97:7 3.29987
10 *323:A *97:6 7.92398
*END

*D_NET *98 0.000374198

*CONN
*I *513:Q O *C 5.54 5.68 *L 0 *D DFFRHQX1
*I *499:D I *C 9.165 7.545 *L 0.000307 *D DFFRHQX1

*CAP
1 *513:Q 0.000147224
2 *499:D 3.98751e-05
3 *98:2 0.000187098984

*RES
1 *499:D *98:2 4.12074
2 *98:2 *513:Q 13.3731365
*END

*D_NET *99 0.000644922

*CONN
*I *510:Q O *C 5.1 33.535 *L 0 *D DFFQXL
*I *492:D I *C 14.5 31.635 *L 0.000307 *D DFFHQX1

*CAP
1 *492:D 0.000299158
2 *510:Q 2.33032e-05
3 *99:2 0.000322461133

*RES
1 *99:2 *510:Q 3.64782
2 *492:D *99:2 17.8205967
*END

*D_NET *100 0.000610948

*CONN
*I *512:Q O *C 8.5 34.865 *L 0 *D DFFQXL
*I *488:D I *C 11.3 29.925 *L 0.000307 *D DFFHQX1

*CAP
1 *512:Q 0.000204682
2 *488:D 5.5135e-05
3 *100:2 0.000259816641
4 *100:2 *12:2 9.13143164e-05

*RES
1 *488:D *100:2 4.53583
2 *100:2 *512:Q 15.3290033
*END

*D_NET *101 0.000436425

*CONN
*I *520:Q O *C 8.5 31.445 *L 0 *D DFFQXL
*I *491:D I *C 11.1 28.215 *L 0.000307 *D DFFHQX1

*CAP
1 *491:D 0.000104128
2 *520:Q 6.29435e-05
3 *101:2 0.000167071816
4 *101:2 *8:127 3.54648e-05
5 *101:2 *8:120 8.04663e-06
6 *491:D *388:CK 4.81606e-05
7 *491:D *491:CK 1.06095385e-05

*RES
1 *101:2 *520:Q 5.14902
2 *491:D *101:2 12.6223564
*END

*D_NET *102 0.00048089

*CONN
*I *506:Q O *C 11.9 33.535 *L 0 *D DFFQXL
*I *490:D I *C 17.7 31.635 *L 0.000307 *D DFFHQX1

*CAP
1 *506:Q 0.000191688
2 *490:D 4.87568e-05
3 *102:2 0.000240445137

*RES
1 *490:D *102:2 4.31289
2 *102:2 *506:Q 15.0457621
*END

*D_NET *103 0.000681758

*CONN
*I *509:Q O *C 5.1 31.445 *L 0 *D DFFQXL
*I *493:D I *C 14.7 29.925 *L 0.000307 *D DFFHQX1

*CAP
1 *493:D 4.7447e-05
2 *509:Q 3.03409e-05
3 *103:2 0.000310540195
4 *103:3 0.000293434

*RES
1 *103:3 *509:Q 3.79129
2 *493:D *103:2 7.39797
3 *103:2 *103:3 10.5851889
*END

*D_NET *104 0.000754714

*CONN
*I *522:Q O *C 5.3 30.115 *L 0 *D DFFQXL
*I *502:D I *C 14.7 28.215 *L 0.000307 *D DFFHQX1

*CAP
1 *522:Q 0.000280678
2 *502:D 5.16778e-05
3 *104:2 0.000332355508
4 *104:2 *95:4 9.00030176e-05

*RES
1 *502:D *104:2 4.45664
2 *104:2 *522:Q 17.7972317
*END

*D_NET *105 0.000484586

*CONN
*I *507:Q O *C 5.1 28.025 *L 0 *D DFFQXL
*I *487:D I *C 11.1 26.505 *L 0.000307 *D DFFHQX1

*CAP
1 *487:D 0.000187934
2 *507:Q 4.70864e-05
3 *105:2 0.000195205215
4 *105:3 5.43602e-05

*RES
1 *105:3 *507:Q 4.4314
2 *105:2 *105:3 3.34682
3 *487:D *105:2 11.3799572
*END

*D_NET *106 0.000439525

*CONN
*I *517:Q O *C 5.1 24.605 *L 0 *D DFFQXL
*I *501:D I *C 11.1 24.795 *L 0.000307 *D DFFHQX1

*CAP
1 *517:Q 0.000219762324
2 *501:D 0.000219762324

*RES
1 *501:D *517:Q 18.2095
*END

*D_NET *107 0.000650406

*CONN
*I *511:Q O *C 5.3 23.275 *L 0 *D DFFQXL
*I *500:D I *C 14.3 23.085 *L 0.000307 *D DFFHQX1

*CAP
1 *511:Q 0.000234603887
2 *500:D 0.000234603887
3 *500:D *402:CK 3.46899e-05
4 *500:D *8:109 8.34465e-06
5 *500:D *8:114 4.98891e-05
6 *500:D *8:143 7.92740865e-06
7 *500:D *109:2 8.03470605e-05

*RES
1 *500:D *511:Q 20.9172
*END

*D_NET *108 0.00044179

*CONN
*I *508:Q O *C 5.3 21.185 *L 0 *D DFFQXL
*I *496:D I *C 11.3 21.375 *L 0.000307 *D DFFHQX1

*CAP
1 *508:Q 0.000220894805
2 *496:D 0.000220894805

*RES
1 *496:D *508:Q 18.6527
*END

*D_NET *109 0.00106591

*CONN
*I *518:Q O *C 5.1 19.855 *L 0 *D DFFQXL
*I *489:D I *C 14.3 26.505 *L 0.000307 *D DFFHQX1

*CAP
1 *489:D 7.76643e-05
2 *518:Q 6.37922e-06
3 *109:2 0.000237583
4 *109:3 8.44598e-05
5 *109:4 0.00035429
6 *109:5 0.000129877
7 *109:2 *92:4 9.53078223e-05
8 *109:2 *500:D 8.03470605e-05

*RES
1 *109:5 *518:Q 0.239655
2 *109:4 *109:5 9.90915298
3 *489:D *109:3 5.0462
4 *109:3 *109:2 3.35713
5 *109:2 *109:4 8.25486
*END

*D_NET *110 0.000582814

*CONN
*I *519:Q O *C 5.1 16.435 *L 0 *D DFFQXL
*I *495:D I *C 11.1 19.665 *L 0.000307 *D DFFHQX1

*CAP
1 *519:Q 0.000252068
2 *495:D 3.9339e-05
3 *110:2 0.000291407109

*RES
1 *495:D *110:2 4.1846
2 *110:2 *519:Q 16.6187286
*END

*D_NET *111 0.000686467

*CONN
*I *516:Q O *C 5.1 14.345 *L 0 *D DFFQXL
*I *497:D I *C 10.9 17.955 *L 0.000307 *D DFFHQX1

*CAP
1 *516:Q 0.00029718875
2 *497:D 0.00029718875
3 *497:D *485:CK 0
4 *497:D *8:117 3.77893e-05
5 *497:D *8:133 4.65512e-05
6 *497:D *8:148 7.74867521e-06

*RES
1 *497:D *516:Q 21.1397
*END

*D_NET *112 0.000440836

*CONN
*I *521:Q O *C 8.3 14.345 *L 0 *D DFFQXL
*I *498:D I *C 14.1 16.245 *L 0.000307 *D DFFHQX1

*CAP
1 *521:Q 0.000220417969
2 *498:D 0.000220417969

*RES
1 *498:D *521:Q 18.76
*END

*D_NET *113 0.000532031

*CONN
*I *515:Q O *C 6.7 13.015 *L 0 *D DFFQXL
*I *485:D I *C 14.1 14.535 *L 0.000307 *D DFFHQX1

*CAP
1 *515:Q 0.000266015527
2 *485:D 0.000266015527

*RES
1 *485:D *515:Q 20.1142
*END

*D_NET *114 0.000651598

*CONN
*I *523:Q O *C 6.7 9.595 *L 0 *D DFFQXL
*I *486:D I *C 12.5 12.825 *L 0.000307 *D DFFHQX1

*CAP
1 *523:Q 0.000284373
2 *486:D 4.14265e-05
3 *114:2 0.000325798984

*RES
1 *486:D *114:2 4.18441
2 *114:2 *523:Q 18.1885948
*END

*D_NET *115 0.000103593

*CONN
*I *534:Y O *C 24.53 5.55 *L 0 *D INVX1
*I *462:A0 I *C 24.5 7.315 *L 0.000391 *D AOI21X1

*CAP
1 *534:Y 5.17964355e-05
2 *462:A0 5.17964355e-05

*RES
1 *462:A0 *534:Y 7.60448
*END

*D_NET *116 0.000100732

*CONN
*I *524:Y O *C 28.53 11.55 *L 0 *D INVX1
*I *505:B I *C 27.5 10.735 *L 0.000392 *D NAND2X1
*I *503:A I *C 28.7 11.115 *L 0.00039 *D NAND2X1

*CAP
1 *503:A 6.97347e-06
2 *524:Y 2.45568e-05
3 *505:B 2.58089e-05
4 *116:3 4.33921826e-05

*RES
1 *505:B *116:3 7.00116158
2 *116:3 *524:Y 0.485325
3 *503:A *524:Y 0.245707
*END

*D_NET *117 0.000418186

*CONN
*I *525:Y O *C 36.33 12.39 *L 0 *D INVX1
*I *494:A1 I *C 36.97 12.76 *L 0.000212 *D OAI22XL
*I *384:B0 I *C 32.3 13.015 *L 0.00039 *D OAI211X1

*CAP
1 *494:A1 3.47483e-05
2 *525:Y 2.00271e-05
3 *384:B0 0.000154318
4 *117:3 0.000209093086

*RES
1 *384:B0 *117:3 10.0203753
2 *117:3 *525:Y 6.80507
3 *494:A1 *117:3 7.3026
*END

*D_NET *118 0.00023067

*CONN
*I *483:Y O *C 16.1 10.735 *L 0 *D INVXL
*I *421:B0 I *C 19.36 10.95 *L 0.000212 *D AOI211XL

*CAP
1 *483:Y 0.00011533499
2 *421:B0 0.00011533499

*RES
1 *421:B0 *483:Y 16.0664
*END

*D_NET *119 0.000145555

*CONN
*I *482:Y O *C 20.1 23.465 *L 0 *D INVXL
*I *426:B0 I *C 21.16 23.25 *L 0.000212 *D AOI211XL

*CAP
1 *482:Y 7.27772705e-05
2 *426:B0 7.27772705e-05

*RES
1 *426:B0 *482:Y 14.5202
*END

*D_NET *120 0.000133157

*CONN
*I *481:Y O *C 33.7 30.305 *L 0 *D INVXL
*I *419:B0 I *C 34.16 28.05 *L 0.000212 *D AOI211XL

*CAP
1 *481:Y 1.30536e-05
2 *419:B0 5.35248e-05
3 *120:2 6.65783887e-05

*RES
1 *419:B0 *120:2 4.43136692
2 *120:2 *481:Y 3.59677
*END

*D_NET *121 0.000162125

*CONN
*I *480:Y O *C 31.1 24.415 *L 0 *D INVXL
*I *428:B0 I *C 32.36 24.63 *L 0.000212 *D AOI211XL

*CAP
1 *480:Y 8.10623145e-05
2 *428:B0 8.10623145e-05

*RES
1 *428:B0 *480:Y 8.50523
*END

*D_NET *122 0.000314832

*CONN
*I *479:Y O *C 20.1 26.885 *L 0 *D INVXL
*I *425:B0 I *C 22.76 26.67 *L 0.000212 *D AOI211XL

*CAP
1 *479:Y 0.000157415869
2 *425:B0 0.000157415869

*RES
1 *425:B0 *479:Y 16.027
*END

*D_NET *123 0.000182748

*CONN
*I *478:Y O *C 18.5 26.885 *L 0 *D INVXL
*I *424:B0 I *C 17.56 26.67 *L 0.000212 *D AOI211XL

*CAP
1 *478:Y 1.62126e-05
2 *424:B0 7.51613e-05
3 *123:2 9.1373916e-05

*RES
1 *424:B0 *123:2 8.35692883
2 *123:2 *478:Y 0.528301
*END

*D_NET *124 0.000113249

*CONN
*I *477:Y O *C 26.5 24.415 *L 0 *D INVXL
*I *429:B0 I *C 27.56 24.63 *L 0.000212 *D AOI211XL

*CAP
1 *477:Y 5.66244141e-05
2 *429:B0 5.66244141e-05

*RES
1 *429:B0 *477:Y 7.51138
*END

*D_NET *125 0.000199914

*CONN
*I *476:Y O *C 14.9 20.995 *L 0 *D INVXL
*I *423:B0 I *C 16.76 21.21 *L 0.000212 *D AOI211XL

*CAP
1 *476:Y 9.99569922e-05
2 *423:B0 9.99569922e-05

*RES
1 *423:B0 *476:Y 8.99768
*END

*D_NET *126 0.000136614

*CONN
*I *474:Y O *C 15.1 16.625 *L 0 *D INVXL
*I *422:B0 I *C 15.56 14.37 *L 0.000212 *D AOI211XL

*CAP
1 *474:Y 1.3947e-05
2 *422:B0 5.43599e-05
3 *126:2 6.83069238e-05

*RES
1 *422:B0 *126:2 4.43017483
2 *126:2 *474:Y 3.59681
*END

*D_NET *127 0.000125527

*CONN
*I *473:Y O *C 18.7 31.255 *L 0 *D INVXL
*I *417:B0 I *C 19.96 31.47 *L 0.000212 *D AOI211XL

*CAP
1 *473:Y 6.27636914e-05
2 *417:B0 6.27636914e-05

*RES
1 *417:B0 *473:Y 7.66253
*END

*D_NET *128 0.000141501

*CONN
*I *472:Y O *C 35.3 20.045 *L 0 *D INVXL
*I *416:B0 I *C 36.36 19.83 *L 0.000212 *D AOI211XL

*CAP
1 *416:B0 5.38228e-05
2 *472:Y 1.69279e-05
3 *128:2 7.07507129e-05

*RES
1 *128:2 *472:Y 3.64768
2 *416:B0 *128:2 4.54735756
*END

*D_NET *129 9.50098e-05

*CONN
*I *471:Y O *C 25.9 30.305 *L 0 *D INVXL
*I *430:B0 I *C 25.96 31.47 *L 0.000212 *D AOI211XL

*CAP
1 *430:B0 4.75049023e-05
2 *129:2 4.75049023e-05

*RES
1 *430:B0 *129:2 4.22227383
2 *129:2 *471:Y 3.29994
*END

*D_NET *130 0.000203967

*CONN
*I *470:Y O *C 26.9 30.305 *L 0 *D INVXL
*I *420:B0 I *C 28.16 31.47 *L 0.000212 *D AOI211XL

*CAP
1 *470:Y 0.000101983545
2 *420:B0 0.000101983545

*RES
1 *420:B0 *470:Y 15.0231
*END

*D_NET *131 0.000197411

*CONN
*I *469:Y O *C 30.3 31.255 *L 0 *D INVXL
*I *427:B0 I *C 32.16 31.47 *L 0.000212 *D AOI211XL

*CAP
1 *469:Y 9.8705293e-05
2 *427:B0 9.8705293e-05

*RES
1 *427:B0 *469:Y 8.97408
*END

*D_NET *132 0.000144839

*CONN
*I *468:Y O *C 36.7 20.995 *L 0 *D INVXL
*I *415:B0 I *C 35.96 21.21 *L 0.000212 *D AOI211XL

*CAP
1 *468:Y 1.84776e-05
2 *415:B0 5.39421e-05
3 *132:2 7.24196436e-05

*RES
1 *415:B0 *132:2 4.45663929
2 *132:2 *468:Y 3.64768
*END

*D_NET *133 0.000168324

*CONN
*I *467:Y O *C 14.7 20.045 *L 0 *D INVXL
*I *418:B0 I *C 15.96 19.83 *L 0.000212 *D AOI211XL

*CAP
1 *467:Y 8.41617578e-05
2 *418:B0 8.41617578e-05

*RES
1 *418:B0 *467:Y 14.5847
*END

*D_NET *134 0.000463963

*CONN
*I *484:Y O *C 26.955 12.78 *L 0 *D NAND2X1
*I *466:A I *C 22.1 13.015 *L 0.000395 *D INVX1
*I *379:A I *C 22.7 12.825 *L 0.00039 *D NAND2X1

*CAP
1 *379:A 7.51131e-06
2 *484:Y 0.000162779
3 *466:A 3.24855e-05
4 *134:3 0.000191986563
5 *134:4 6.92013e-05

*RES
1 *466:A *134:4 4.13536
2 *134:4 *134:3 3.87596
3 *134:3 *484:Y 9.88924503
4 *379:A *134:4 3.34676
*END

*D_NET *135 0.00149184

*CONN
*I *540:Y O *C 24.13 29.49 *L 0 *D INVX1
*I *463:A1 I *C 21.12 26.65 *L 0.000392 *D AOI21X1
*I *457:B I *C 38.405 29.89 *L 0.000212 *D NOR2XL
*I *425:A1 I *C 22.46 26.655 *L 0.000212 *D AOI211XL

*CAP
1 *457:B 2.39604e-05
2 *540:Y 1.86554e-05
3 *425:A1 1.58532e-05
4 *463:A1 7.51634e-05
5 *135:4 0.000286756
6 *135:5 0.000338196758
7 *135:6 2.67007e-05
8 *135:7 0.000190435
9 *135:8 0.000198005
10 *135:8 *8:87 1.2815e-05
11 *135:8 *8:89 3.70741e-05
12 *135:5 *8:82 5.66244e-06
13 *135:5 *8:87 6.86646e-05
14 *135:4 *397:CK 5.02467e-05
15 *135:4 *8:80 5.54323e-06
16 *135:4 *8:82 5.17963884e-05
17 *457:B *151:34 8.63075293e-05

*RES
1 *463:A1 *135:8 4.67587
2 *135:8 *135:7 6.19584
3 *425:A1 *135:8 3.64763
4 *135:6 *540:Y 3.71493
5 *135:7 *135:6 3.34682
6 *135:5 *135:7 2.50213
7 *135:4 *135:5 9.46438313
8 *457:B *135:4 7.20472
*END

*D_NET *136 0.00152218

*CONN
*I *527:Y O *C 18.73 22.65 *L 0 *D INVX1
*I *464:A1 I *C 18.52 21.23 *L 0.000392 *D AOI21X1
*I *454:B I *C 37.605 24.83 *L 0.000212 *D NOR2XL
*I *423:A1 I *C 16.46 21.225 *L 0.000212 *D AOI211XL

*CAP
1 *454:B 8.76777e-05
2 *464:A1 4.54179e-05
3 *423:A1 4.67925e-05
4 *136:4 0.000536203398
5 *136:5 0.000475886
6 *136:6 2.50367e-05
7 *136:7 6.44328e-05
8 *136:8 0.000113663
9 *136:9 0.000127074

*RES
1 *136:9 *136:8 5.23192
2 *423:A1 *136:9 4.26433
3 *136:7 *136:6 0.466184
4 *464:A1 *136:7 4.22219
5 *136:6 *527:Y 3.29985
6 *136:8 *136:6 3.35715
7 *136:5 *136:8 7.18027
8 *136:4 *136:5 14.1211
9 *454:B *136:4 14.611125
*END

*D_NET *137 0.00217849

*CONN
*I *465:Y O *C 26.95 7.835 *L 0 *D NAND2X2
*I *451:A I *C 34.9 33.535 *L 0.000212 *D INVXL
*I *367:A1 I *C 25.9 5.8 *L 0.000789 *D OAI21X2

*CAP
1 *451:A 5.14363e-05
2 *465:Y 2.37789e-05
3 *367:A1 5.29286e-05
4 *137:3 0.000327526
5 *137:4 0.000364902
6 *137:5 0.00049644707
7 *137:6 5.84131e-05
8 *137:7 0.000495197
9 *137:5 *152:4 0.000137388711
10 *137:3 *150:7 0.000170469277

*RES
1 *367:A1 *137:7 4.44909
2 *137:7 *137:6 0.714492
3 *137:6 *465:Y 6.94775
4 *137:5 *137:7 20.876049
5 *137:4 *137:5 3.49983
6 *137:3 *137:4 9.53623
7 *451:A *137:3 10.8273
*END

*D_NET *138 0.001104

*CONN
*I *529:Y O *C 38.33 28.65 *L 0 *D INVX1
*I *449:B I *C 38.405 19.63 *L 0.000212 *D NOR2XL
*I *448:A1 I *C 33.12 26.65 *L 0.000392 *D AOI21X1
*I *419:A1 I *C 33.86 28.065 *L 0.000212 *D AOI211XL

*CAP
1 *449:B 0.000300047
2 *529:Y 7.57111e-06
3 *419:A1 1.65699e-05
4 *448:A1 6.28835e-05
5 *138:4 0.000472545625
6 *138:5 0.000244381

*RES
1 *448:A1 *138:5 4.77793
2 *138:5 *138:4 10.679245
3 *419:A1 *138:5 3.5724
4 *138:4 *529:Y 3.43145
5 *449:B *138:4 9.79735
*END

*D_NET *139 0.00099349

*CONN
*I *544:Y O *C 30.13 32.91 *L 0 *D INVX1
*I *460:B I *C 36.805 33.31 *L 0.000212 *D NOR2XL
*I *447:A1 I *C 27.92 30.07 *L 0.000392 *D AOI21X1
*I *420:A1 I *C 27.86 31.485 *L 0.000212 *D AOI211XL

*CAP
1 *460:B 4.01726e-05
2 *544:Y 2.63449e-05
3 *447:A1 7.28354e-05
4 *139:4 0.000170528
5 *139:5 3.40344e-05
6 *139:6 0.000199735156
7 *139:7 0.000134528
8 *139:4 *146:4 0.000183939941
9 *460:B *460:A 0.000131368633

*RES
1 *139:7 *139:6 5.78972
2 *420:A1 *139:7 3.2999
3 *447:A1 *139:7 4.63803
4 *139:5 *544:Y 3.85801
5 *139:6 *139:5 3.35719
6 *139:4 *139:6 8.83495808
7 *460:B *139:4 4.14449
*END

*D_NET *140 0.00140923

*CONN
*I *531:Y O *C 25.73 25.23 *L 0 *D INVX1
*I *458:B I *C 38.405 21.41 *L 0.000212 *D NOR2XL
*I *445:A1 I *C 26.52 21.23 *L 0.000392 *D AOI21X1
*I *429:A1 I *C 27.26 24.645 *L 0.000212 *D AOI211XL

*CAP
1 *458:B 0.00036091
2 *531:Y 0.000123742
3 *445:A1 4.94702e-05
4 *140:4 0.000200154
5 *140:5 0.000486791133
6 *140:5 *429:A0 0.000102281572
7 *458:B *292:D 8.5890293e-05

*RES
1 *445:A1 *140:5 4.26748
2 *140:5 *140:4 2.18222
3 *140:4 *531:Y 11.235
4 *429:A1 *140:4 3.29991
5 *458:B *140:5 19.1400051
*END

*D_NET *141 0.00107086

*CONN
*I *537:Y O *C 38.13 26.07 *L 0 *D INVX1
*I *453:B I *C 38.405 31.67 *L 0.000212 *D NOR2XL
*I *444:A1 I *C 34.12 21.23 *L 0.000392 *D AOI21X1
*I *415:A1 I *C 35.66 21.225 *L 0.000212 *D AOI211XL

*CAP
1 *453:B 0.000189719
2 *537:Y 4.46458e-05
3 *415:A1 4.76935e-06
4 *444:A1 7.56986e-05
5 *141:4 0.000454962266
6 *141:5 0.000301066

*RES
1 *444:A1 *141:5 11.2281
2 *141:5 *141:4 8.40828
3 *415:A1 *141:5 3.33639
4 *141:4 *537:Y 7.31905
5 *453:B *141:4 18.0765381
*END

*D_NET *142 0.000478268

*CONN
*I *535:Y O *C 38.13 18.39 *L 0 *D INVX1
*I *456:B I *C 37.805 19.63 *L 0.000212 *D NOR2XL
*I *442:A1 I *C 34.32 19.81 *L 0.000392 *D AOI21X1
*I *416:A1 I *C 36.06 19.815 *L 0.000212 *D AOI211XL

*CAP
1 *535:Y 2.6406e-05
2 *416:A1 2.34253e-05
3 *442:A1 7.73666e-05
4 *142:4 7.01546e-05
5 *142:5 0.000111939
6 *142:6 0.00016897916

*RES
1 *442:A1 *142:6 8.05187225
2 *142:6 *142:5 4.90415
3 *416:A1 *142:6 6.84992
4 *142:5 *142:4 0.94493
5 *456:B *142:5 3.29995
6 *142:4 *535:Y 3.93502
*END

*D_NET *143 0.00107205

*CONN
*I *536:Y O *C 26.53 32.91 *L 0 *D INVX1
*I *452:B I *C 36.205 33.31 *L 0.000212 *D NOR2XL
*I *441:A1 I *C 24.92 30.07 *L 0.000392 *D AOI21X1
*I *430:A1 I *C 25.66 31.485 *L 0.000212 *D AOI211XL

*CAP
1 *452:B 4.45258e-05
2 *536:Y 9.18092e-06
3 *430:A1 1.31742e-05
4 *441:A1 8.05255e-05
5 *143:4 0.000302195547
6 *143:5 0.000266016
7 *143:6 0.000126241
8 *143:7 0.000135782
9 *143:8 9.44145e-05

*RES
1 *143:8 *143:7 0.453613
2 *441:A1 *143:8 4.62583
3 *143:7 *143:6 2.71384
4 *430:A1 *143:7 3.47148
5 *143:6 *536:Y 3.43144
6 *143:5 *143:6 3.35719
7 *143:4 *143:5 7.78627396
8 *452:B *143:4 7.08518
*END

*D_NET *144 0.000901103

*CONN
*I *539:Y O *C 36.93 25.23 *L 0 *D INVX1
*I *455:B I *C 38.005 23.05 *L 0.000212 *D NOR2XL
*I *440:A1 I *C 29.92 24.65 *L 0.000392 *D AOI21X1
*I *428:A1 I *C 32.06 24.645 *L 0.000212 *D AOI211XL

*CAP
1 *455:B 6.93779e-05
2 *539:Y 3.95165e-05
3 *428:A1 1.88333e-05
4 *440:A1 9.99589e-05
5 *144:4 0.000121715
6 *144:5 0.000262378
7 *144:6 0.000289320938

*RES
1 *440:A1 *144:6 8.49783421
2 *144:6 *144:5 4.10849
3 *428:A1 *144:6 6.75965
4 *144:5 *539:Y 6.9312
5 *144:4 *144:5 4.42306
6 *455:B *144:4 4.22234
*END

*D_NET *145 0.000826955

*CONN
*I *541:Y O *C 33.73 32.91 *L 0 *D INVX1
*I *450:B I *C 37.605 33.31 *L 0.000212 *D NOR2XL
*I *437:A1 I *C 29.32 31.49 *L 0.000392 *D AOI21X1
*I *427:A1 I *C 31.86 31.485 *L 0.000212 *D AOI211XL

*CAP
1 *450:B 9.33392e-05
2 *427:A1 2.27675e-05
3 *437:A1 9.81691e-05
4 *145:4 0.00019437
5 *145:5 0.000221967695
6 *450:B *450:A 0.000102162363
7 *450:B *461:B 9.41753418e-05

*RES
1 *437:A1 *145:5 8.74724
2 *145:5 *145:4 5.91113
3 *427:A1 *145:5 6.84998
4 *145:4 *541:Y 3.3
5 *450:B *145:4 13.2120848
*END

*D_NET *146 0.00222838

*CONN
*I *526:Y O *C 17.33 29.49 *L 0 *D INVX1
*I *461:B I *C 37.805 31.67 *L 0.000212 *D NOR2XL
*I *436:A1 I *C 18.32 24.65 *L 0.000392 *D AOI21X1
*I *424:A1 I *C 17.26 26.655 *L 0.000212 *D AOI211XL

*CAP
1 *461:B 3.92205e-05
2 *436:A1 0.000149788
3 *146:4 0.000215472
4 *146:5 0.000426113594
5 *146:6 0.000353095
6 *146:7 0.000207663
7 *146:8 0.000254212
8 *146:5 *401:CK 4.29153e-06
9 *146:5 *8:86 6.99163e-05
10 *146:5 *8:90 4.26769e-05
11 *146:4 *401:CK 8.06450619e-05
12 *146:4 *139:4 0.000183939941
13 *461:B *453:A 0.00010716915
14 *461:B *450:B 9.41753418e-05

*RES
1 *146:8 *146:7 2.42695
2 *424:A1 *146:8 3.29998
3 *146:7 *526:Y 3.29998
4 *146:6 *146:7 5.63625
5 *436:A1 *146:8 13.0896568
6 *146:5 *146:6 8.49681
7 *146:4 *146:5 8.39095
8 *461:B *146:4 7.35834
*END

*D_NET *147 0.00193381

*CONN
*I *532:Y O *C 21.93 21.81 *L 0 *D INVX1
*I *459:B I *C 38.205 24.83 *L 0.000212 *D NOR2XL
*I *435:A1 I *C 20.72 21.23 *L 0.000392 *D AOI21X1
*I *426:A1 I *C 20.86 23.235 *L 0.000212 *D AOI211XL

*CAP
1 *459:B 8.47606e-05
2 *426:A1 7.11662e-05
3 *435:A1 2.75394e-05
4 *532:Y 0.000101328
5 *147:4 0.000460682
6 *147:5 9.10126e-05
7 *147:6 0.000499665742
8 *147:7 0.000153479
9 *147:8 0.000165938
10 *147:4 *267:7 0.000278234473

*RES
1 *147:8 *532:Y 7.84917
2 *147:7 *147:8 4.05947
3 *147:6 *147:7 4.34366
4 *435:A1 *147:8 6.84989
5 *426:A1 *147:7 10.8633
6 *147:5 *147:4 3.3572
7 *147:4 *147:6 13.1345987
8 *459:B *147:5 4.36591
*END

*D_NET *148 0.0016892

*CONN
*I *543:Y O *C 16.53 8.97 *L 0 *D INVX1
*I *446:A1 I *C 16.72 10.97 *L 0.000392 *D AOI21X1
*I *434:B I *C 38.205 9.37 *L 0.000212 *D NOR2XL
*I *421:A1 I *C 19.06 10.965 *L 0.000212 *D AOI211XL

*CAP
1 *434:B 2.81345e-05
2 *421:A1 1.66313e-05
3 *446:A1 2.07988e-05
4 *543:Y 3.58188e-05
5 *148:4 0.000342727
6 *148:5 0.000507652773
7 *148:6 0.000262917
8 *148:7 0.00010985
9 *148:4 *5:14 0.000157475469
10 *148:4 *43:12 8.273125e-05
11 *434:B *151:40 0.000124454502

*RES
1 *148:7 *543:Y 4.10003
2 *446:A1 *148:7 3.59153
3 *148:6 *148:7 5.06003
4 *421:A1 *148:6 6.91924
5 *148:5 *148:6 5.47309
6 *148:4 *148:5 9.95957851
7 *434:B *148:4 7.29218
*END

*D_NET *149 0.00158668

*CONN
*I *528:Y O *C 15.13 18.39 *L 0 *D INVX1
*I *443:A1 I *C 15.52 17.81 *L 0.000392 *D AOI21X1
*I *433:B I *C 37.805 14.57 *L 0.000212 *D NOR2XL
*I *418:A1 I *C 15.66 19.815 *L 0.000212 *D AOI211XL

*CAP
1 *433:B 4.26184e-05
2 *418:A1 6.59195e-05
3 *443:A1 3.02187e-05
4 *528:Y 8.04815e-06
5 *149:4 0.000581863
6 *149:5 0.000101145
7 *149:6 0.000587999805
8 *149:7 0.000168859

*RES
1 *149:7 *528:Y 3.34941
2 *149:6 *149:7 11.0284
3 *443:A1 *149:7 3.93491
4 *418:A1 *149:7 8.09309
5 *149:5 *149:4 11.15
6 *149:4 *149:6 16.9936409
7 *433:B *149:5 4.22222
*END

*D_NET *150 0.00227422

*CONN
*I *538:Y O *C 20.93 32.07 *L 0 *D INVX1
*I *438:A1 I *C 18.92 30.07 *L 0.000392 *D AOI21X1
*I *432:B I *C 38.405 16.21 *L 0.000212 *D NOR2XL
*I *417:A1 I *C 19.66 31.485 *L 0.000212 *D AOI211XL

*CAP
1 *432:B 5.239e-05
2 *538:Y 2.13988e-05
3 *417:A1 1.35873e-05
4 *438:A1 7.5519e-05
5 *150:4 0.00016266
6 *150:5 0.000317514
7 *150:6 0.000222626
8 *150:7 0.000326395
9 *150:8 0.000416874883
10 *150:9 0.000196278
11 *150:10 0.000109017
12 *150:11 0.000101924
13 *150:9 *389:CK 1.96695e-06
14 *150:8 *8:98 0
15 *150:8 *8:99 0
16 *150:8 *8:92 4.76837e-07
17 *150:7 *8:73 5.03063e-05
18 *150:7 *391:CK 1.72257e-05
19 *150:7 *301:CK 8.22544e-06
20 *150:4 *301:CK 9.35799472e-06
21 *150:7 *137:3 0.000170469277

*RES
1 *150:11 *150:10 0.453662
2 *438:A1 *150:11 4.50964
3 *150:10 *150:9 4.71035
4 *417:A1 *150:10 3.3571
5 *150:8 *150:9 9.47815
6 *150:9 *538:Y 6.80509
7 *150:7 *150:6 8.76885
8 *150:6 *150:5 3.3571
9 *150:5 *150:8 10.3412867
10 *150:4 *150:7 9.63704
11 *432:B *150:4 4.29488
*END

*D_NET *151 0.00945228

*CONN
*I *475:Y O *C 20.93 9.46 *L 0 *D INVX2
*I *462:B0 I *C 25 7.5 *L 0.000392 *D AOI21X1
*I *461:A I *C 37.57 31.59 *L 0.000212 *D NOR2XL
*I *460:A I *C 36.57 33.39 *L 0.000212 *D NOR2XL
*I *459:A I *C 37.97 24.75 *L 0.000212 *D NOR2XL
*I *458:A I *C 38.17 21.33 *L 0.000212 *D NOR2XL
*I *457:A I *C 38.17 29.97 *L 0.000212 *D NOR2XL
*I *456:A I *C 37.57 19.71 *L 0.000212 *D NOR2XL
*I *455:A I *C 37.77 23.13 *L 0.000212 *D NOR2XL
*I *454:A I *C 37.37 24.75 *L 0.000212 *D NOR2XL
*I *453:A I *C 38.17 31.59 *L 0.000212 *D NOR2XL
*I *452:A I *C 35.97 33.39 *L 0.000212 *D NOR2XL
*I *450:A I *C 37.37 33.39 *L 0.000212 *D NOR2XL
*I *449:A I *C 38.17 19.71 *L 0.000212 *D NOR2XL
*I *434:A I *C 37.97 9.45 *L 0.000212 *D NOR2XL
*I *433:A I *C 37.57 14.49 *L 0.000212 *D NOR2XL
*I *432:A I *C 38.17 16.29 *L 0.000212 *D NOR2XL
*I *431:A I *C 38.17 11.07 *L 0.000212 *D NOR2XL
*I *430:C0 I *C 26.1 31.445 *L 0.000212 *D AOI211XL
*I *429:C0 I *C 27.7 24.605 *L 0.000212 *D AOI211XL
*I *428:C0 I *C 32.5 24.605 *L 0.000212 *D AOI211XL
*I *427:C0 I *C 32.3 31.445 *L 0.000212 *D AOI211XL
*I *426:C0 I *C 21.3 23.275 *L 0.000212 *D AOI211XL
*I *425:C0 I *C 22.9 26.695 *L 0.000212 *D AOI211XL
*I *424:C0 I *C 17.7 26.695 *L 0.000212 *D AOI211XL
*I *423:C0 I *C 16.9 21.185 *L 0.000212 *D AOI211XL
*I *422:C0 I *C 15.7 14.345 *L 0.000212 *D AOI211XL
*I *421:C0 I *C 19.5 10.925 *L 0.000212 *D AOI211XL
*I *420:C0 I *C 28.3 31.445 *L 0.000212 *D AOI211XL
*I *419:C0 I *C 34.3 28.025 *L 0.000212 *D AOI211XL
*I *418:C0 I *C 16.1 19.855 *L 0.000212 *D AOI211XL
*I *417:C0 I *C 20.1 31.445 *L 0.000212 *D AOI211XL
*I *416:C0 I *C 36.5 19.855 *L 0.000212 *D AOI211XL
*I *415:C0 I *C 36.1 21.185 *L 0.000212 *D AOI211XL

*CAP
1 *453:A 4.10674e-05
2 *458:A 3.21292e-05
3 *449:A 2.10437e-05
4 *431:A 1.29912e-05
5 *455:A 1.90708e-05
6 *461:A 4.60129e-05
7 *456:A 1.47829e-05
8 *433:A 1.94936e-05
9 *450:A 3.20688e-05
10 *454:A 2.71769e-05
11 *460:A 2.98007e-05
12 *416:C0 1.79435e-05
13 *415:C0 5.59107e-05
14 *419:C0 5.94873e-05
15 *428:C0 0.000189245
16 *427:C0 7.71892e-05
17 *420:C0 1.95473e-05
18 *429:C0 5.34077e-05
19 *430:C0 5.67428e-05
20 *462:B0 6.6399e-05
21 *425:C0 1.997e-05
22 *426:C0 0.000129342
23 *417:C0 0.00018734
24 *421:C0 3.66587e-05
25 *424:C0 2.62241e-05
26 *418:C0 2.52108e-05
27 *422:C0 2.08021e-05
28 *151:34 5.70447e-05
29 *151:35 6.64594e-05
30 *151:36 0.000219825
31 *151:37 5.61455e-05
32 *151:38 0.000274125
33 *151:39 7.77864e-05
34 *151:40 0.000152828
35 *151:41 0.000227568
36 *151:42 4.94687e-05
37 *151:43 5.57295e-05
38 *151:44 8.50538e-05
39 *151:45 3.08743e-05
40 *151:46 9.98971e-05
41 *151:47 0.000255168
42 *151:48 7.86185e-05
43 *151:49 0.000188709
44 *151:50 8.6067e-05
45 *151:51 0.000162062
46 *151:52 0.000238714
47 *151:53 0.000253323
48 *151:54 0.000135603
49 *151:55 0.000258865
50 *151:56 0.000289914
51 *151:57 0.000296115
52 *151:58 0.000273407
53 *151:59 0.00029498
54 *151:60 0.000149426
55 *151:61 0.000189782
56 *151:62 0.000254571
57 *151:63 0.000222562
58 *151:64 0.000232279
59 *151:65 0.00027448
60 *151:66 0.000344396
61 *151:67 0.000295162
62 *151:68 0.000439763086
63 *151:68 *8:100 0
64 *151:68 *8:103 0
65 *151:66 *305:CK 0
66 *417:C0 *302:CK 4.76837e-07
67 *426:C0 *295:CK 3.75509e-06
68 *151:60 *396:CK 3.1054e-05
69 *151:59 *8:84 4.66704e-05
70 *151:57 *8:84 5.67436e-05
71 *151:56 *396:CK 3.01003e-05
72 *419:C0 *397:CK 1.69873e-05
73 *151:38 *8:72 4.76837e-06
74 *151:38 *8:75 2.563e-05
75 *151:38 *8:78 3.88026e-05
76 *151:38 *8:84 1.55569871e-05
77 *151:61 *463:A0 0.000112175938
78 *151:60 *217:5 8.85725e-05
79 *428:C0 *220:4 9.96589648e-05
80 *460:A *460:B 0.000131368633
81 *151:46 *391:D 0.000113606455
82 *450:A *450:B 0.000102162363
83 *151:40 *434:B 0.000124454502
84 *151:38 *97:7 9.8586084e-05
85 *151:34 *457:B 8.63075293e-05
86 *431:A *431:B 0.000113844873
87 *453:A *461:B 0.00010716915

*RES
1 *151:68 *151:67 9.72366
2 *422:C0 *151:68 3.76876
3 *418:C0 *151:66 6.84983
4 *151:66 *151:68 15.4503584
5 *151:65 *151:66 5.20261
6 *423:C0 *151:65 3.29985
7 *151:64 *151:65 7.59646
8 *424:C0 *151:64 6.92173
9 *151:67 *151:63 4.62407
10 *421:C0 *151:67 7.21548
11 *151:62 *151:64 1.57248
12 *417:C0 *151:62 11.1889
13 *151:63 *475:Y 3.29985
14 *151:61 *151:62 1.03944
15 *426:C0 *151:61 8.94992
16 *151:60 *151:61 1.34828
17 *425:C0 *151:60 6.92173
18 *151:59 *151:63 13.9694
19 *462:B0 *151:59 7.62852
20 *430:C0 *151:58 7.66624
21 *151:57 *151:59 1.89735
22 *151:56 *151:60 3.23548
23 *151:58 *151:56 11.4918
24 *429:C0 *151:55 7.3673
25 *151:55 *151:56 0.513943
26 *420:C0 *151:54 6.84983
27 *151:54 *151:58 0.967533
28 *427:C0 *151:54 9.93419
29 *428:C0 *151:55 11.0472
30 *419:C0 *151:53 8.18513
31 *151:53 *151:52 4.90863
32 *151:51 *151:53 6.91914
33 *452:A *151:51 3.29985
34 *415:C0 *151:50 4.42486
35 *416:C0 *151:50 3.62542
36 *151:50 *151:49 0.506635
37 *151:48 *151:51 3.71241
38 *460:A *151:48 6.8404
39 *151:49 *151:47 10.3817
40 *454:A *151:46 4.26007
41 *450:A *151:48 7.34727
42 *151:45 *151:49 0.393002
43 *151:44 *151:45 0.204163
44 *151:46 *151:44 2.58528
45 *151:43 *151:42 0.302472
46 *433:A *151:41 3.69709
47 *456:A *151:45 3.50424
48 *461:A *151:43 4.62549
49 *151:41 *151:40 2.91038
50 *151:39 *151:46 0.151118
51 *455:A *151:39 3.64758
52 *151:38 *151:57 8.37586
53 *151:37 *151:38 4.19123
54 *151:40 *151:37 0.718106
55 *151:36 *151:39 1.05075
56 *151:52 *151:36 3.62471
57 *151:42 *151:52 0.699246
58 *434:A *151:37 3.29985
59 *459:A *151:36 3.29985
60 *151:47 *151:41 2.04964
61 *151:35 *151:44 0.393002
62 *151:34 *151:42 0.597164
63 *431:A *151:40 3.85929
64 *432:A *151:47 3.29985
65 *449:A *151:35 3.64758
66 *458:A *151:35 4.07854
67 *457:A *151:34 3.29985
68 *453:A *151:34 4.36592
*END

*D_NET *152 0.00232702

*CONN
*I *542:Y O *C 16.53 12.39 *L 0 *D INVX1
*I *439:A1 I *C 15.92 16.39 *L 0.000392 *D AOI21X1
*I *431:B I *C 38.405 11.15 *L 0.000212 *D NOR2XL
*I *422:A1 I *C 15.26 14.385 *L 0.000212 *D AOI211XL

*CAP
1 *431:B 0.000158848
2 *542:Y 6.74018e-06
3 *439:A1 7.63517e-05
4 *422:A1 2.18753e-05
5 *152:4 0.000623467
6 *152:5 0.000132624
7 *152:6 0.000119568
8 *152:7 0.000275076
9 *152:8 0.000661253906
10 *152:4 *137:5 0.000137388711
11 *431:B *431:A 0.000113844873

*RES
1 *152:8 *152:7 9.12976
2 *152:7 *152:6 7.7914
3 *422:A1 *152:7 4.0011
4 *152:5 *152:6 1.71994
5 *439:A1 *152:5 4.65309
6 *152:6 *542:Y 3.43155
7 *152:4 *152:8 17.5983906
8 *431:B *152:4 10.8159
*END

*D_NET *153 0.000113606

*CONN
*I *430:Y O *C 26.34 32.075 *L 0 *D AOI211XL
*I *390:D I *C 25.97 33.275 *L 0.00021 *D DFFQXL

*CAP
1 *430:Y 5.68032275e-05
2 *390:D 5.68032275e-05

*RES
1 *390:D *430:Y 7.94554
*END

*D_NET *154 0.000197291

*CONN
*I *429:Y O *C 27.94 25.235 *L 0 *D AOI211XL
*I *396:D I *C 26.57 26.435 *L 0.00021 *D DFFQXL

*CAP
1 *429:Y 9.59588e-06
2 *396:D 8.90498e-05
3 *154:2 9.86456836e-05

*RES
1 *396:D *154:2 8.66580009
2 *154:2 *429:Y 0.282707
*END

*D_NET *155 0.00028789

*CONN
*I *428:Y O *C 32.74 25.235 *L 0 *D AOI211XL
*I *392:D I *C 36.17 24.865 *L 0.00021 *D DFFQXL

*CAP
1 *428:Y 0.000143945215
2 *392:D 0.000143945215

*RES
1 *392:D *428:Y 16.349
*END

*D_NET *156 0.000111699

*CONN
*I *427:Y O *C 32.54 32.075 *L 0 *D AOI211XL
*I *401:D I *C 33.17 33.275 *L 0.00021 *D DFFQXL

*CAP
1 *427:Y 1.99673e-05
2 *401:D 3.58823e-05
3 *156:2 5.58495508e-05

*RES
1 *401:D *156:2 4.14443016
2 *156:2 *427:Y 3.83209
*END

*D_NET *157 0.000321865

*CONN
*I *426:Y O *C 21.54 22.645 *L 0 *D AOI211XL
*I *403:D I *C 24.77 23.015 *L 0.00021 *D DFFQXL

*CAP
1 *403:D 0.000140907
2 *426:Y 2.0026e-05
3 *157:2 0.000160932539

*RES
1 *157:2 *426:Y 6.80513
2 *403:D *157:2 9.23871994
*END

*D_NET *158 0.000215054

*CONN
*I *425:Y O *C 23.14 26.065 *L 0 *D AOI211XL
*I *395:D I *C 23.57 29.855 *L 0.00021 *D DFFQXL

*CAP
1 *425:Y 0.000107526777
2 *395:D 0.000107526777

*RES
1 *395:D *425:Y 9.06205
*END

*D_NET *159 0.000113964

*CONN
*I *424:Y O *C 17.94 26.065 *L 0 *D AOI211XL
*I *388:D I *C 18.17 28.285 *L 0.00021 *D DFFQXL

*CAP
1 *424:Y 5.6982041e-05
2 *388:D 5.6982041e-05

*RES
1 *388:D *424:Y 7.73907
*END

*D_NET *160 0.000118971

*CONN
*I *423:Y O *C 17.14 21.815 *L 0 *D AOI211XL
*I *402:D I *C 17.77 23.015 *L 0.00021 *D DFFQXL

*CAP
1 *423:Y 2.12191e-05
2 *402:D 3.82664e-05
3 *160:2 5.94854346e-05

*RES
1 *402:D *160:2 4.14443016
2 *160:2 *423:Y 3.83209
*END

*D_NET *161 0.000110507

*CONN
*I *422:Y O *C 15.94 14.975 *L 0 *D AOI211XL
*I *400:D I *C 15.97 12.755 *L 0.00021 *D DFFQXL

*CAP
1 *422:Y 7.4506e-06
2 *400:D 4.78029e-05
3 *161:2 5.52535059e-05

*RES
1 *400:D *161:2 4.15229797
2 *161:2 *422:Y 3.35714
*END

*D_NET *162 0.000127196

*CONN
*I *421:Y O *C 19.74 11.555 *L 0 *D AOI211XL
*I *394:D I *C 20.17 9.335 *L 0.00021 *D DFFQXL

*CAP
1 *421:Y 1.49012e-05
2 *394:D 4.8697e-05
3 *162:2 6.35981543e-05

*RES
1 *394:D *162:2 4.29487228
2 *162:2 *421:Y 3.5968
*END

*D_NET *163 0.000152707

*CONN
*I *420:Y O *C 28.54 32.075 *L 0 *D AOI211XL
*I *398:D I *C 29.57 33.275 *L 0.00021 *D DFFQXL

*CAP
1 *420:Y 7.63535498e-05
2 *398:D 7.63535498e-05

*RES
1 *398:D *420:Y 8.2761
*END

*D_NET *164 0.000371575

*CONN
*I *419:Y O *C 34.54 28.655 *L 0 *D AOI211XL
*I *397:D I *C 37.57 28.285 *L 0.00021 *D DFFQXL

*CAP
1 *419:Y 0.000185787676
2 *397:D 0.000185787676

*RES
1 *397:D *419:Y 17.7557
*END

*D_NET *165 0.000247002

*CONN
*I *418:Y O *C 16.34 19.225 *L 0 *D AOI211XL
*I *399:D I *C 14.37 18.025 *L 0.00021 *D DFFQXL

*CAP
1 *418:Y 8.08832e-05
2 *399:D 3.49878e-05
3 *165:2 8.85129004e-05
4 *165:3 4.26175e-05

*RES
1 *399:D *165:3 4.14449
2 *165:3 *165:2 3.35719
3 *165:2 *418:Y 8.37743282
*END

*D_NET *166 0.000324011

*CONN
*I *417:Y O *C 20.34 32.075 *L 0 *D AOI211XL
*I *389:D I *C 23.97 31.705 *L 0.00021 *D DFFQXL

*CAP
1 *417:Y 0.00016200542
2 *389:D 0.00016200542

*RES
1 *389:D *417:Y 16.9687
*END

*D_NET *167 0.000303745

*CONN
*I *416:Y O *C 36.74 19.225 *L 0 *D AOI211XL
*I *404:D I *C 37.77 16.175 *L 0.00021 *D DFFQXL

*CAP
1 *416:Y 3.93383e-05
2 *404:D 0.000112534
3 *167:2 0.000151872637

*RES
1 *404:D *167:2 5.51486015
2 *167:2 *416:Y 4.33003
*END

*D_NET *168 0.000483513

*CONN
*I *415:Y O *C 36.34 21.815 *L 0 *D AOI211XL
*I *391:D I *C 37.37 26.435 *L 0.00021 *D DFFQXL

*CAP
1 *415:Y 0.000153424
2 *391:D 3.15297e-05
3 *168:2 0.000184953203
4 *391:D *151:46 0.000113606455

*RES
1 *391:D *168:2 4.22219
2 *168:2 *415:Y 13.7084723
*END

*D_NET *169 0.000664711

*CONN
*I *414:Y O *C 23.37 16.46 *L 0 *D OAI22X1
*I *386:A I *C 29.77 16.29 *L 0.000212 *D NOR2XL

*CAP
1 *386:A 4.51803e-05
2 *414:Y 0.000113785
3 *169:2 0.000158965586
4 *386:A *270:6 0.000128865244
5 *386:A *410:B1 0.00021791459

*RES
1 *169:2 *414:Y 11.0151768
2 *386:A *169:2 7.72673
*END

*D_NET *170 0.000286222

*CONN
*I *413:Y O *C 30.57 17.74 *L 0 *D OAI22X1
*I *383:A1 I *C 31.04 14.56 *L 0.000391 *D OAI21X1

*CAP
1 *413:Y 0.000143110752
2 *383:A1 0.000143110752

*RES
1 *383:A1 *413:Y 12.8255
*END

*D_NET *171 0.000843048

*CONN
*I *505:Y O *C 27.755 11.16 *L 0 *D NAND2X1
*I *484:A I *C 26.5 12.825 *L 0.00039 *D NAND2X1
*I *414:A1 I *C 22.9 16.245 *L 0.000391 *D OAI22X1
*I *412:A1 I *C 22.7 14.535 *L 0.000391 *D OAI22X1
*I *411:A1 I *C 27.3 12.825 *L 0.000391 *D OAI22X1

*CAP
1 *505:Y 2.81935e-05
2 *484:A 2.22906e-05
3 *414:A1 6.22262e-05
4 *171:5 6.40762e-05
5 *171:6 9.07762e-05
6 *171:7 0.00024592877
7 *171:8 0.000230967
8 *171:7 *219:8 9.8586084e-05

*RES
1 *171:8 *171:7 7.5455904
2 *412:A1 *171:8 3.29993
3 *414:A1 *171:8 4.60777
4 *171:7 *171:6 4.30334
5 *484:A *171:7 6.92961
6 *171:6 *171:5 0.672858
7 *411:A1 *171:6 3.29993
8 *171:5 *505:Y 3.93502
*END

*D_NET *172 0.000791907

*CONN
*I *412:Y O *C 23.17 14.32 *L 0 *D OAI22X1
*I *383:A0 I *C 30.825 14.4 *L 0.000391 *D OAI21X1

*CAP
1 *412:Y 0.00033563375
2 *383:A0 0.00033563375
3 *383:A0 *359:A1 0.000120639805

*RES
1 *383:A0 *412:Y 23.6185
*END

*D_NET *173 0.00116456

*CONN
*I *504:Y O *C 29.955 11.16 *L 0 *D NAND2X1
*I *484:B I *C 26.7 13.205 *L 0.000392 *D NAND2X1
*I *413:B1 I *C 30.5 18.145 *L 0.000392 *D OAI22X1
*I *411:B1 I *C 27.7 12.635 *L 0.000392 *D OAI22X1
*I *405:B1 I *C 29.1 18.145 *L 0.000392 *D OAI22X1

*CAP
1 *413:B1 8.18985e-05
2 *504:Y 2.50345e-05
3 *405:B1 4.02347e-05
4 *411:B1 2.53324e-05
5 *484:B 6.30029e-05
6 *173:5 5.60269e-05
7 *173:6 0.000247120859
8 *173:7 0.000180781
9 *173:8 0.000113128
10 *173:6 *250:11 0.000110030176
11 *173:6 *175:5 0.000107645986
12 *173:6 *384:A1 0.000114321709

*RES
1 *484:B *173:8 7.90093
2 *411:B1 *173:8 6.84045
3 *173:8 *173:7 1.26239
4 *405:B1 *173:6 3.8668
5 *173:7 *173:5 3.80936
6 *173:6 *173:7 14.2592192
7 *173:5 *504:Y 3.85788
8 *413:B1 *173:6 4.87223
*END

*D_NET *174 0.000524879

*CONN
*I *411:Y O *C 27.77 13.04 *L 0 *D OAI22X1
*I *384:A1 I *C 32.1 12.825 *L 0.000391 *D OAI211X1

*CAP
1 *384:A1 0.000124754
2 *411:Y 3.08145e-05
3 *174:2 0.000155568125
4 *384:A1 *359:B0 9.94205469e-05
5 *384:A1 *173:6 0.000114321709

*RES
1 *174:2 *411:Y 6.86122
2 *384:A1 *174:2 10.3087425
*END

*D_NET *175 0.00122416

*CONN
*I *514:Y O *C 29.355 12.78 *L 0 *D NAND2X1
*I *414:B0 I *C 23.5 16.245 *L 0.000392 *D OAI22X1
*I *412:B0 I *C 23.3 14.535 *L 0.000392 *D OAI22X1
*I *410:B0 I *C 29.3 16.245 *L 0.000392 *D OAI22X1
*I *375:A0N I *C 25.445 12.56 *L 0.000209 *D OAI2BB1X1

*CAP
1 *410:B0 0.000136257
2 *514:Y 1.81799e-05
3 *414:B0 3.80291e-05
4 *412:B0 3.70745e-05
5 *175:5 2.61049e-05
6 *175:6 0.00029105
7 *175:7 0.000320792207
8 *175:8 0.000249027
9 *175:5 *173:6 0.000107645986

*RES
1 *412:B0 *175:8 3.92022
2 *175:8 *175:7 10.213
3 *414:B0 *175:8 3.86868
4 *175:7 *175:6 6.60808
5 *375:A0N *175:7 6.59996
6 *175:5 *514:Y 3.6478
7 *175:6 *175:5 3.3571
8 *410:B0 *175:6 16.6385174
*END

*D_NET *176 0.000809431

*CONN
*I *503:Y O *C 29.155 11.16 *L 0 *D NAND2X1
*I *413:A1 I *C 30.1 17.955 *L 0.000391 *D OAI22X1
*I *410:A1 I *C 28.7 16.245 *L 0.000391 *D OAI22X1
*I *405:A1 I *C 28.7 17.955 *L 0.000391 *D OAI22X1

*CAP
1 *413:A1 7.84385e-05
2 *503:Y 2.31844e-05
3 *176:4 0.000115158
4 *176:5 0.00010103
5 *176:6 0.000225248
6 *176:7 0.000266373164

*RES
1 *176:7 *176:6 3.85537
2 *176:5 *176:7 1.26317
3 *410:A1 *176:7 3.2999
4 *405:A1 *176:5 3.2999
5 *176:6 *503:Y 3.79137
6 *176:4 *176:5 3.87311
7 *413:A1 *176:4 7.59828091
*END

*D_NET *177 0.000477552

*CONN
*I *410:Y O *C 29.17 16.46 *L 0 *D OAI22X1
*I *384:A0 I *C 31.9 12.635 *L 0.000391 *D OAI211X1

*CAP
1 *410:Y 0.000238776211
2 *384:A0 0.000238776211

*RES
1 *384:A0 *410:Y 17.9846
*END

*D_NET *178 0.000974774

*CONN
*I *435:Y O *C 21.18 21.63 *L 0 *D AOI21X1
*I *414:A0 I *C 22.745 16.015 *L 0.000392 *D OAI22X1
*I *409:B I *C 22.34 21.1875 *L 0.000212 *D NAND4XL
*I *311:B0 I *C 25.3 19.665 *L 0.000212 *D AOI21XL

*CAP
1 *311:B0 1.40051e-05
2 *414:A0 0.000130532
3 *409:B 2.22938e-05
4 *435:Y 6.48483e-05
5 *178:4 0.000269711016
6 *178:5 0.000231502
7 *178:6 0.000241878

*RES
1 *178:6 *435:Y 7.7099
2 *409:B *178:6 6.81474
3 *414:A0 *178:5 5.97734
4 *178:5 *178:4 8.66162777
5 *311:B0 *178:4 3.47147
6 *178:4 *178:6 7.08026
*END

*D_NET *179 0.000637412

*CONN
*I *439:Y O *C 16.38 15.99 *L 0 *D AOI21X1
*I *414:B1 I *C 23.3 16.055 *L 0.000392 *D OAI22X1
*I *406:B I *C 20.34 16.4325 *L 0.000212 *D NAND4XL
*I *319:B0 I *C 17.9 16.245 *L 0.000212 *D AOI21XL

*CAP
1 *414:B1 0.00011134
2 *406:B 2.34827e-05
3 *439:Y 4.65515e-05
4 *179:4 0.000231802461
5 *179:5 0.000143528
6 *414:B1 *224:5 8.07046875e-05

*RES
1 *179:5 *439:Y 1.71417
2 *319:B0 *179:5 0.500077
3 *179:4 *179:5 9.09276
4 *406:B *179:4 10.2192163
5 *414:B1 *179:4 9.64694
*END

*D_NET *180 0.00109422

*CONN
*I *442:Y O *C 34.78 19.41 *L 0 *D AOI21X1
*I *408:B I *C 26.14 19.8525 *L 0.000212 *D NAND4XL
*I *405:B0 I *C 29.3 17.955 *L 0.000392 *D OAI22X1
*I *308:B0 I *C 33.9 17.955 *L 0.000212 *D AOI21XL

*CAP
1 *442:Y 2.44366e-05
2 *308:B0 4.66122e-05
3 *405:B0 2.20556e-05
4 *408:B 0.000197649
5 *180:4 0.00010091
6 *180:5 0.000245572
7 *180:6 0.000342190273
8 *180:6 *331:A1 0.000114798545

*RES
1 *408:B *180:6 13.4682655
2 *180:6 *180:5 9.79766
3 *405:B0 *180:6 3.48873
4 *180:5 *180:4 5.04074
5 *308:B0 *180:5 7.53603
6 *180:4 *442:Y 3.6295
*END

*D_NET *181 0.00136054

*CONN
*I *437:Y O *C 29.78 31.89 *L 0 *D AOI21X1
*I *407:B I *C 27.76 21.41 *L 0.000392 *D NAND4X1
*I *405:A0 I *C 28.545 18.185 *L 0.000392 *D OAI22X1
*I *322:B0 I *C 29.9 26.505 *L 0.000212 *D AOI21XL

*CAP
1 *437:Y 0.000167252
2 *405:A0 0.000115277
3 *407:B 1.56782e-05
4 *181:4 0.000214158
5 *181:5 0.000298202
6 *181:6 0.00038224457
7 *181:6 *352:B0 0.000167727461

*RES
1 *181:6 *181:5 19.3107128
2 *407:B *181:6 3.64757
3 *405:A0 *181:6 5.87047
4 *181:4 *437:Y 6.4981
5 *181:5 *181:4 0.846553
6 *322:B0 *181:5 3.29988
*END

*D_NET *182 0.000194907

*CONN
*I *405:Y O *C 29.17 17.74 *L 0 *D OAI22X1
*I *386:B I *C 30.005 16.21 *L 0.000212 *D NOR2XL

*CAP
1 *405:Y 9.74535938e-05
2 *386:B 9.74535938e-05

*RES
1 *386:B *405:Y 8.53527
*END

*D_NET *183 0.000225425

*CONN
*I *286:A I *C 25.5 17.955 *L 0.00021 *D BUFX2
*I *408:Y O *C 26.74 19.45 *L 0 *D NAND4XL

*CAP
1 *408:Y 6.72336e-05
2 *286:A 4.54788e-05
3 *183:2 0.000112712383

*RES
1 *286:A *183:2 4.14725
2 *183:2 *408:Y 11.038661
*END

*D_NET *184 0.000456095

*CONN
*I *393:Y O *C 21.5 16.625 *L 0 *D INVXL
*I *382:B0 I *C 20.9 11.115 *L 0.000212 *D AOI21XL

*CAP
1 *393:Y 6.25754e-06
2 *382:B0 7.9155e-05
3 *184:2 0.000148891
4 *184:3 0.000221788887

*RES
1 *382:B0 *184:3 5.00546
2 *184:3 *184:2 12.6489401
3 *184:2 *393:Y 0.239522
*END

*D_NET *185 0.000133514

*CONN
*I *289:A I *C 20.5 14.535 *L 0.00021 *D BUFX2
*I *406:Y O *C 20.94 16.03 *L 0 *D NAND4XL

*CAP
1 *289:A 6.67572021e-05
2 *185:2 6.67572021e-05

*RES
1 *289:A *185:2 4.57847118
2 *185:2 *406:Y 3.29993
*END

*D_NET *186 0.000402093

*CONN
*I *386:Y O *C 30.125 15.955 *L 0 *D NOR2XL
*I *377:A0 I *C 33.7 14.345 *L 0.000211 *D AO22XL

*CAP
1 *386:Y 0.000201046465
2 *377:A0 0.000201046465

*RES
1 *377:A0 *386:Y 17.0343
*END

*D_NET *187 0.000976205

*CONN
*I *530:Y O *C 38.33 12.39 *L 0 *D INVX1
*I *494:B1 I *C 37.3 12.825 *L 0.000212 *D OAI22XL
*I *384:C0 I *C 32.585 12.825 *L 0.000392 *D OAI211X1
*I *383:B0 I *C 31.195 14.71 *L 0.000393 *D OAI21X1

*CAP
1 *530:Y 5.06816e-06
2 *494:B1 2.55688e-05
3 *384:C0 1.46646e-05
4 *383:B0 0.000199022
5 *187:4 4.8578e-05
6 *187:5 0.000160394
7 *187:6 0.000304996973
8 *187:5 *44:6 0.00010490418
9 *187:5 *494:B0 0.00011301041

*RES
1 *383:B0 *187:6 20.0252533
2 *187:6 *187:5 3.68904
3 *384:C0 *187:6 6.78865
4 *494:B1 *187:5 7.08535
5 *187:5 *187:4 7.75086
6 *187:4 *530:Y 0.16592
*END

*D_NET *188 0.000359178

*CONN
*I *466:Y O *C 22.33 12.39 *L 0 *D INVX1
*I *382:A0 I *C 20.56 10.95 *L 0.000211 *D AOI21XL
*I *380:A I *C 21.545 12.685 *L 0.000211 *D OR2XL

*CAP
1 *466:Y 2.19347e-05
2 *380:A 4.42856e-05
3 *382:A0 8.58913e-05
4 *188:3 4.94121e-05
5 *188:4 0.000157654287

*RES
1 *382:A0 *188:4 8.47713
2 *380:A *188:4 10.7244253
3 *188:4 *188:3 3.79469
4 *188:3 *466:Y 3.64774
*END

*D_NET *189 6.2108e-05

*CONN
*I *382:Y O *C 21.14 10.99 *L 0 *D AOI21XL
*I *368:A1 I *C 21.5 11.115 *L 0.000391 *D OAI22X1

*CAP
1 *382:Y 3.1054021e-05
2 *368:A1 3.1054021e-05

*RES
1 *368:A1 *382:Y 7.04598
*END

*D_NET *190 0.000247717

*CONN
*I *288:A I *C 25.9 21.375 *L 0.00021 *D BUFX2
*I *407:Y O *C 28.34 21.6 *L 0 *D NAND4X1

*CAP
1 *407:Y 0.000105739
2 *288:A 1.8119e-05
3 *190:2 0.000123858447

*RES
1 *288:A *190:2 10.0337267
2 *190:2 *407:Y 8.60115
*END

*D_NET *191 0.000212193

*CONN
*I *385:Y O *C 20.915 12.95 *L 0 *D NOR2X1
*I *380:B I *C 21.1 13.015 *L 0.00021 *D OR2XL
*I *379:B I *C 22.9 13.205 *L 0.000392 *D NAND2X1

*CAP
1 *379:B 8.52339e-05
2 *385:Y 4.76837e-06
3 *191:3 0.0001013279
4 *191:4 2.08624e-05

*RES
1 *380:B *191:4 0.500032
2 *191:4 *385:Y 0.165836
3 *191:3 *191:4 6.78867
4 *379:B *191:3 8.27109814
*END

*D_NET *192 0.000290871

*CONN
*I *379:Y O *C 23.155 12.78 *L 0 *D NAND2X1
*I *375:A1N I *C 25.7 13.015 *L 0.00021 *D OAI2BB1X1

*CAP
1 *375:A1N 0.000121235
2 *379:Y 2.42004e-05
3 *192:2 0.000145435332

*RES
1 *192:2 *379:Y 6.84986
2 *375:A1N *192:2 8.8455677
*END

*D_NET *193 0.000465989

*CONN
*I *381:Y O *C 24.32 12.365 *L 0 *D NAND2BX1
*I *378:B I *C 23.575 9.175 *L 0.000392 *D NOR2X1
*I *361:B0 I *C 25.32 11.11 *L 0.000792 *D OAI2BB1X2

*CAP
1 *381:Y 2.35439e-05
2 *378:B 6.62798e-05
3 *193:3 0.000143170361
4 *193:4 0.000101448
5 *193:5 0.000131548

*RES
1 *378:B *193:5 7.79994
2 *193:4 *381:Y 3.64771
3 *193:5 *193:3 4.71036
4 *193:3 *193:4 7.84254074
5 *361:B0 *193:3 3.29996
*END

*D_NET *194 0.000571609

*CONN
*I *383:Y O *C 31.365 14.83 *L 0 *D OAI21X1
*I *377:A1 I *C 33.9 13.965 *L 0.000211 *D AO22XL
*I *338:B0 I *C 30.3 14.535 *L 0.000389 *D AOI32X1

*CAP
1 *377:A1 8.83335e-05
2 *383:Y 0.000116109
3 *338:B0 3.68363e-05
4 *194:3 0.000127613545
5 *194:4 0.000113665
6 *377:A1 *335:B 8.90493359e-05

*RES
1 *338:B0 *194:4 10.3913546
2 *194:4 *383:Y 7.47021
3 *194:3 *383:Y 6.86119
4 *377:A1 *194:3 8.7972
*END

*D_NET *195 0.000102997

*CONN
*I *377:Y O *C 34.91 14.67 *L 0 *D AO22XL
*I *373:A I *C 35.565 14.79 *L 0.00021 *D AND2X1

*CAP
1 *377:Y 5.14984131e-05
2 *373:A 5.14984131e-05

*RES
1 *373:A *377:Y 14.5901
*END

*D_NET *196 0.000123739

*CONN
*I *284:A I *C 23.7 21.375 *L 0.00021 *D BUFX2
*I *409:Y O *C 22.94 21.59 *L 0 *D NAND4XL

*CAP
1 *409:Y 6.18696191e-05
2 *284:A 6.18696191e-05

*RES
1 *284:A *409:Y 7.81095
*END

*D_NET *197 0.000479698

*CONN
*I *380:Y O *C 21.725 12.595 *L 0 *D OR2XL
*I *376:AN I *C 22.3 9.405 *L 0.00021 *D NOR2BX1
*I *369:A1N I *C 23.9 10.925 *L 0.00021 *D OAI2BB1X1

*CAP
1 *369:A1N 8.61289e-05
2 *380:Y 9.11955e-05
3 *376:AN 5.81738e-05
4 *197:3 9.048e-05
5 *197:4 0.000153720381

*RES
1 *376:AN *197:4 4.39749
2 *197:4 *380:Y 5.06332
3 *197:3 *197:4 3.33629
4 *369:A1N *197:3 8.0896616
*END

*D_NET *198 0.000133514

*CONN
*I *376:Y O *C 21.92 9.735 *L 0 *D NOR2BX1
*I *368:B1 I *C 21.9 11.305 *L 0.000392 *D OAI22X1

*CAP
1 *368:B1 6.67572021e-05
2 *198:2 6.67572021e-05

*RES
1 *368:B1 *198:2 4.50956821
2 *198:2 *376:Y 3.29995
*END

*D_NET *199 0.000215769

*CONN
*I *378:Y O *C 23.715 9.53 *L 0 *D NOR2X1
*I *374:B I *C 25.565 9.525 *L 0.000392 *D NOR2BX1
*I *372:B I *C 24.1 9.785 *L 0.000392 *D NAND2X1

*CAP
1 *374:B 9.08379e-05
2 *378:Y 1.70465e-05
3 *372:B 0.000107884404

*RES
1 *372:B *378:Y 0.491466
2 *374:B *372:B 14.727354
*END

*D_NET *200 0.000288248

*CONN
*I *462:Y O *C 25.18 7.95 *L 0 *D AOI21X1
*I *374:AN I *C 25.9 9.405 *L 0.00021 *D NOR2BX1
*I *372:A I *C 23.9 9.405 *L 0.00039 *D NAND2X1

*CAP
1 *374:AN 5.01878e-05
2 *462:Y 2.36633e-05
3 *372:A 7.0273e-05
4 *200:3 0.000144124033

*RES
1 *372:A *200:3 8.11946392
2 *200:3 *462:Y 3.69821
3 *374:AN *200:3 4.40416
*END

*D_NET *201 0.000302374

*CONN
*I *370:Y O *C 33.33 8.97 *L 0 *D INVX1
*I *345:A0 I *C 31.3 9.405 *L 0.000392 *D OAI221X1

*CAP
1 *370:Y 9.85264746e-05
2 *345:A0 9.85264746e-05
3 *345:A0 *8:75 9.53674e-05
4 *345:A0 *342:CK 9.95400493e-06

*RES
1 *345:A0 *370:Y 15.348
*END

*D_NET *202 0.0004673

*CONN
*I *375:Y O *C 25.135 12.34 *L 0 *D OAI2BB1X1
*I *369:B0 I *C 23.465 11.155 *L 0.00039 *D OAI2BB1X1
*I *361:A0N I *C 25.775 11.11 *L 0.00021 *D OAI2BB1X2

*CAP
1 *375:Y 4.88764e-05
2 *369:B0 9.1911e-05
3 *202:3 8.35656e-05
4 *202:4 0.000126600264
5 *369:B0 *43:13 0.000116348262

*RES
1 *369:B0 *202:4 15.4215097
2 *202:3 *375:Y 4.07869
3 *202:4 *202:3 0.743591
4 *361:A0N *202:4 3.30004
*END

*D_NET *203 0.000105023

*CONN
*I *369:Y O *C 23.335 11.6 *L 0 *D OAI2BB1X1
*I *365:B I *C 23.575 12.595 *L 0.000392 *D NOR2X1

*CAP
1 *369:Y 5.25116943e-05
2 *365:B 5.25116943e-05

*RES
1 *365:B *369:Y 7.76672
*END

*D_NET *204 0.000754952

*CONN
*I *387:Y O *C 21.315 14.41 *L 0 *D NOR2X1
*I *381:B I *C 24.1 13.015 *L 0.000392 *D NAND2BX1
*I *368:A0 I *C 21.345 11.345 *L 0.000392 *D OAI22X1
*I *365:A I *C 23.3 13.015 *L 0.000392 *D NOR2X1

*CAP
1 *381:B 8.36865e-05
2 *365:A 4.0709e-05
3 *387:Y 4.96521e-05
4 *368:A0 0.000150799
5 *204:4 0.000136317
6 *204:5 4.88747e-05
7 *204:6 0.000244915488

*RES
1 *368:A0 *204:6 19.5082436
2 *204:6 *387:Y 7.93743
3 *204:5 *204:4 3.35715
4 *204:4 *204:6 0.967732
5 *365:A *204:5 7.37274
6 *381:B *204:4 7.99101
*END

*D_NET *205 0.000425398

*CONN
*I *368:Y O *C 21.97 10.9 *L 0 *D OAI22X1
*I *361:A1N I *C 26.14 11.56 *L 0.00021 *D OAI2BB1X2

*CAP
1 *368:Y 0.000170052051
2 *361:A1N 0.000170052051
3 *361:A1N *357:B 8.5294248e-05

*RES
1 *361:A1N *368:Y 16.9803
*END

*D_NET *206 0.000509858

*CONN
*I *372:Y O *C 24.355 9.36 *L 0 *D NAND2X1
*I *367:B0 I *C 26.74 5.92 *L 0.000798 *D OAI21X2
*I *366:B I *C 23.7 7.695 *L 0.00021 *D AND2XL

*CAP
1 *367:B0 6.77108e-05
2 *372:Y 2.55098e-05
3 *366:B 3.12932e-05
4 *206:3 0.00019812584
5 *206:4 0.000187218

*RES
1 *366:B *206:4 4.06473
2 *206:4 *372:Y 3.85799
3 *367:B0 *206:3 4.79678
4 *206:3 *206:4 9.06908512
*END

*D_NET *207 0.000162959

*CONN
*I *366:Y O *C 24.33 8.025 *L 0 *D AND2XL
*I *364:D I *C 22.9 7.695 *L 0.000307 *D DFFHQX1

*CAP
1 *366:Y 8.14795508e-05
2 *364:D 8.14795508e-05

*RES
1 *364:D *366:Y 8.22151
*END

*D_NET *208 0.000429511

*CONN
*I *371:Y O *C 30.73 11.55 *L 0 *D INVX1
*I *363:A0 I *C 30.1 9.785 *L 0.000391 *D AOI21X1
*I *359:B1 I *C 30.54 12.75 *L 0.000392 *D AOI22X1
*I *338:B1 I *C 30.1 14.155 *L 0.000392 *D AOI32X1

*CAP
1 *371:Y 0.000135123
2 *363:A0 7.34334e-05
3 *338:B1 7.9631e-05
4 *208:4 0.000141322617

*RES
1 *338:B1 *208:4 4.78918
2 *363:A0 *371:Y 7.85267353
3 *359:B1 *208:4 6.60005
4 *208:4 *371:Y 4.60777
*END

*D_NET *209 0.000213385

*CONN
*I *358:Y O *C 27.74 9.695 *L 0 *D NAND2XL
*I *348:B I *C 29.1 9.595 *L 0.000209 *D MX2XL

*CAP
1 *348:B 9.19099e-05
2 *358:Y 1.47824e-05
3 *209:2 0.000106692314

*RES
1 *209:2 *358:Y 6.78863
2 *348:B *209:2 7.92384148
*END

*D_NET *210 0.00119448

*CONN
*I *444:Y O *C 34.58 21.63 *L 0 *D AOI21X1
*I *413:A0 I *C 29.945 18.185 *L 0.000392 *D OAI22X1
*I *407:C I *C 27.9 20.805 *L 0.00039 *D NAND4X1
*I *355:B0 I *C 28.165 17.835 *L 0.000389 *D AOI22X1
*I *314:B0 I *C 32.9 21.375 *L 0.000212 *D AOI21XL

*CAP
1 *314:B0 4.58377e-05
2 *444:Y 0.000120997
3 *413:A0 0.000168026
4 *355:B0 9.39949e-05
5 *407:C 4.4168e-05
6 *210:5 8.04665e-05
7 *210:6 0.000237882129
8 *210:7 0.000232397
9 *210:8 0.000119208
10 *210:9 5.14967e-05

*RES
1 *407:C *210:9 1.22264
2 *355:B0 *210:8 8.22617
3 *210:9 *210:7 3.35715
4 *210:7 *210:6 5.23188
5 *210:8 *413:A0 6.81194
6 *413:A0 *210:7 6.47757
7 *210:6 *444:Y 8.93676281
8 *210:5 *210:6 7.18026
9 *314:B0 *210:5 1.46823
*END

*D_NET *211 0.0015949

*CONN
*I *448:Y O *C 33.58 26.25 *L 0 *D AOI21X1
*I *413:B0 I *C 30.7 17.955 *L 0.000392 *D OAI22X1
*I *408:C I *C 26.34 19.7425 *L 0.000211 *D NAND4XL
*I *355:A0 I *C 27.3 17.765 *L 0.000391 *D AOI22X1
*I *316:B0 I *C 31.7 26.505 *L 0.000212 *D AOI21XL

*CAP
1 *316:B0 3.98173e-05
2 *448:Y 9.4531e-05
3 *413:B0 0.000126124
4 *355:A0 8.95848e-05
5 *408:C 3.23691e-05
6 *211:5 0.000410493
7 *211:6 0.000541150586
8 *211:7 0.000260827

*RES
1 *408:C *211:7 3.8291
2 *211:7 *211:6 5.77805
3 *355:A0 *211:7 5.16298
4 *211:6 *211:5 12.8781796
5 *413:B0 *211:6 8.56941
6 *211:5 *448:Y 8.55879
7 *316:B0 *211:5 7.35048
*END

*D_NET *212 0.000369191

*CONN
*I *355:Y O *C 27.955 18.425 *L 0 *D AOI22X1
*I *341:A1 I *C 27.425 14.79 *L 0.000391 *D OAI221X1

*CAP
1 *355:Y 2.9742e-05
2 *341:A1 0.000154854
3 *212:2 0.000184595586

*RES
1 *341:A1 *212:2 12.5471354
2 *212:2 *355:Y 3.76916
*END

*D_NET *213 0.00118721

*CONN
*I *464:Y O *C 18.98 21.63 *L 0 *D AOI21X1
*I *412:A0 I *C 22.545 14.765 *L 0.000392 *D OAI22X1
*I *409:C I *C 22.54 21.2975 *L 0.000211 *D NAND4XL
*I *354:B0 I *C 24.565 14.415 *L 0.000389 *D AOI22X1
*I *313:B0 I *C 20.9 19.665 *L 0.000212 *D AOI21XL

*CAP
1 *354:B0 0.000140726
2 *409:C 8.77377e-05
3 *412:A0 7.69076e-06
4 *313:B0 4.58904e-06
5 *464:Y 0.000132146
6 *213:5 0.000308454043
7 *213:6 0.000286163
8 *213:7 0.000219704

*RES
1 *213:7 *464:Y 6.53295
2 *313:B0 *213:7 3.33624
3 *213:6 *213:5 3.0616
4 *213:5 *213:7 8.29612
5 *412:A0 *213:6 3.34934
6 *409:C *213:5 5.21643
7 *354:B0 *213:6 12.095809
*END

*D_NET *214 0.000993252

*CONN
*I *446:Y O *C 17.18 11.37 *L 0 *D AOI21X1
*I *412:B1 I *C 23.1 14.725 *L 0.000392 *D OAI22X1
*I *406:C I *C 20.54 16.3225 *L 0.000211 *D NAND4XL
*I *354:A0 I *C 23.7 14.345 *L 0.000391 *D AOI22X1
*I *320:B0 I *C 19.3 16.245 *L 0.000212 *D AOI21XL

*CAP
1 *354:A0 6.09763e-05
2 *412:B1 1.94881e-05
3 *406:C 3.39148e-05
4 *446:Y 0.00020486
5 *320:B0 3.27255e-05
6 *214:5 0.000174108
7 *214:6 0.000349521641
8 *214:7 0.000117659

*RES
1 *320:B0 *214:7 3.99591
2 *214:6 *446:Y 11.8271112
3 *214:7 *214:6 4.27275
4 *406:C *214:7 3.85551
5 *412:B1 *214:5 6.84044
6 *214:5 *214:6 2.40022
7 *354:A0 *214:5 7.75234
*END

*D_NET *215 0.000445366

*CONN
*I *354:Y O *C 24.355 15.005 *L 0 *D AOI22X1
*I *341:B1 I *C 27.7 14.535 *L 0.00039 *D OAI221X1

*CAP
1 *341:B1 0.000157891
2 *354:Y 6.47916e-05
3 *215:2 0.000222682949

*RES
1 *215:2 *354:Y 7.50388
2 *341:B1 *215:2 8.98218155
*END

*D_NET *216 0.0010649

*CONN
*I *436:Y O *C 18.78 25.05 *L 0 *D AOI21X1
*I *409:A I *C 22.1 20.995 *L 0.000212 *D NAND4XL
*I *353:B0 I *C 24.3 17.955 *L 0.000392 *D OAI22X1
*I *315:B0 I *C 19.7 24.795 *L 0.000212 *D AOI21XL

*CAP
1 *353:B0 0.000110269
2 *409:A 2.65233e-05
3 *315:B0 0.000198604
4 *436:Y 3.65977e-05
5 *216:4 0.000188172
6 *216:5 0.000266432754
7 *216:5 *313:A1 0.000153422354
8 *216:5 *435:A0 8.48770117e-05

*RES
1 *315:B0 *436:Y 1.22867
2 *216:5 *315:B0 11.3555193
3 *409:A *216:5 6.8366
4 *216:4 *216:5 5.08067
5 *353:B0 *216:4 5.40295
*END

*D_NET *217 0.00148273

*CONN
*I *438:Y O *C 19.38 29.67 *L 0 *D AOI21X1
*I *406:A I *C 20.1 16.625 *L 0.000212 *D NAND4XL
*I *353:A0 I *C 23.545 18.185 *L 0.000392 *D OAI22X1
*I *317:B0 I *C 20.7 24.795 *L 0.000212 *D AOI21XL

*CAP
1 *353:A0 7.40265e-05
2 *317:B0 3.06981e-05
3 *438:Y 0.0001595
4 *406:A 0.000131849
5 *217:4 0.0004912
6 *217:5 0.000506877891
7 *217:5 *151:60 8.85725e-05

*RES
1 *406:A *217:5 9.42425
2 *217:4 *438:Y 7.25193
3 *317:B0 *217:4 3.92819
4 *217:5 *217:4 18.2800293
5 *353:A0 *217:5 8.06976
*END

*D_NET *218 0.000188351

*CONN
*I *353:Y O *C 24.17 17.74 *L 0 *D OAI22X1
*I *346:B1 I *C 24.74 16.17 *L 0.000392 *D AOI22X1

*CAP
1 *353:Y 9.41753418e-05
2 *346:B1 9.41753418e-05

*RES
1 *346:B1 *353:Y 11.6841
*END

*D_NET *219 0.00170588

*CONN
*I *365:Y O *C 23.715 12.95 *L 0 *D NOR2X1
*I *362:A I *C 26.1 13.015 *L 0.000395 *D INVX1
*I *359:A1 I *C 30.1 13.205 *L 0.000392 *D AOI22X1
*I *355:A1 I *C 27.5 17.575 *L 0.000392 *D AOI22X1
*I *354:A1 I *C 23.9 14.155 *L 0.000392 *D AOI22X1
*I *353:B1 I *C 24.1 18.145 *L 0.000392 *D OAI22X1
*I *352:B1 I *C 26.7 18.145 *L 0.000392 *D OAI22X1
*I *343:A0 I *C 26.9 16.435 *L 0.000391 *D AOI22X1

*CAP
1 *359:A1 0.000109435
2 *355:A1 6.62223e-05
3 *343:A0 5.32275e-05
4 *352:B1 2.81945e-05
5 *362:A 1.77034e-05
6 *353:B1 3.26044e-05
7 *354:A1 3.24836e-05
8 *365:Y 2.17542e-05
9 *219:8 0.000127135
10 *219:9 0.000144778
11 *219:10 0.000164868
12 *219:11 9.63801e-05
13 *219:12 0.000210702
14 *219:13 0.000219941133
15 *219:14 7.73075e-05
16 *219:8 *171:7 9.8586084e-05
17 *355:A1 *221:7 8.39233398e-05
18 *359:A1 *383:A0 0.000120639805

*RES
1 *219:14 *365:Y 3.71494
2 *354:A1 *219:14 3.96892
3 *353:B1 *219:13 6.94156
4 *219:12 *219:14 3.69918
5 *219:13 *219:12 10.1221
6 *219:11 *219:10 3.33637
7 *219:10 *219:12 1.57242
8 *362:A *219:11 3.71494
9 *219:9 *219:13 1.64415
10 *352:B1 *219:9 7.2127
11 *219:8 *219:11 1.75004
12 *343:A0 *219:8 4.5095
13 *355:A1 *219:9 8.00664
14 *359:A1 *219:10 10.1307631
*END

*D_NET *220 0.0013864

*CONN
*I *441:Y O *C 25.38 29.67 *L 0 *D AOI21X1
*I *407:A I *C 27.54 21.44 *L 0.000393 *D NAND4X1
*I *352:B0 I *C 26.9 17.955 *L 0.000392 *D OAI22X1
*I *321:B0 I *C 28.9 24.795 *L 0.000212 *D AOI21XL

*CAP
1 *321:B0 5.57871e-05
2 *441:Y 0.00017041
3 *352:B0 0.000122369
4 *220:4 0.000101624
5 *220:5 0.000381350508
6 *220:6 0.000287472
7 *352:B0 *181:6 0.000167727461
8 *220:4 *428:C0 9.96589648e-05

*RES
1 *352:B0 *220:6 6.28215
2 *407:A *220:6 3.29987
3 *220:6 *220:5 14.0821934
4 *220:5 *441:Y 10.6377
5 *321:B0 *220:4 4.28787
6 *220:4 *220:5 4.47589
*END

*D_NET *221 0.00179303

*CONN
*I *362:Y O *C 26.33 12.39 *L 0 *D INVX1
*I *358:B I *C 27.6 9.355 *L 0.000212 *D NAND2XL
*I *355:B1 I *C 27.94 18.03 *L 0.000392 *D AOI22X1
*I *354:B1 I *C 24.34 14.61 *L 0.000392 *D AOI22X1
*I *353:A1 I *C 23.7 17.955 *L 0.000391 *D OAI22X1
*I *352:A1 I *C 26.3 17.955 *L 0.000391 *D OAI22X1
*I *343:B0 I *C 27.765 16.365 *L 0.000389 *D AOI22X1

*CAP
1 *355:B1 6.79237e-06
2 *343:B0 7.87942e-05
3 *358:B 4.07679e-05
4 *352:A1 1.98493e-05
5 *362:Y 7.27215e-06
6 *354:B1 0.000166656
7 *221:7 0.000166416
8 *221:8 0.000373663
9 *221:9 0.000145854
10 *221:10 0.000449180586
11 *221:11 0.000253854
12 *221:7 *355:A1 8.39233398e-05

*RES
1 *221:11 *221:10 5.65562
2 *353:A1 *221:11 3.29986
3 *354:B1 *221:11 10.1228
4 *221:9 *221:8 5.40297
5 *221:8 *362:Y 3.4315
6 *221:10 *221:8 15.460372
7 *352:A1 *221:10 6.92952
8 *358:B *221:9 1.2227
9 *343:B0 *221:7 5.13285
10 *355:B1 *221:7 3.37181
11 *221:7 *221:10 4.97857
*END

*D_NET *222 0.00105214

*CONN
*I *440:Y O *C 30.38 25.05 *L 0 *D AOI21X1
*I *408:A I *C 25.9 20.045 *L 0.000212 *D NAND4XL
*I *352:A0 I *C 26.145 18.185 *L 0.000392 *D OAI22X1
*I *310:B0 I *C 29.7 23.085 *L 0.000212 *D AOI21XL

*CAP
1 *310:B0 5.42524e-06
2 *440:Y 3.86827e-05
3 *352:A0 7.05727e-05
4 *222:4 0.000144122
5 *222:5 0.000416815273
6 *222:6 0.000376523

*RES
1 *222:6 *222:5 12.3744011
2 *408:A *222:6 3.29998
3 *352:A0 *222:6 4.47688
4 *222:4 *440:Y 3.96198
5 *310:B0 *222:5 3.33623
6 *222:5 *222:4 1.96843
*END

*D_NET *223 0.000361979

*CONN
*I *352:Y O *C 26.77 17.74 *L 0 *D OAI22X1
*I *346:A1 I *C 24.3 16.625 *L 0.000392 *D AOI22X1

*CAP
1 *352:Y 2.55705e-05
2 *346:A1 0.000113428
3 *223:2 0.000138998027
4 *346:A1 *270:6 8.39829492e-05

*RES
1 *346:A1 *223:2 12.2548342
2 *223:2 *352:Y 3.85563
*END

*D_NET *224 0.00137311

*CONN
*I *443:Y O *C 15.98 18.21 *L 0 *D AOI21X1
*I *410:B1 I *C 29.1 16.055 *L 0.000392 *D OAI22X1
*I *406:D I *C 20.74 16.3225 *L 0.000212 *D NAND4XL
*I *351:B0 I *C 26.3 16.245 *L 0.000392 *D OAI22X1
*I *318:B0 I *C 20.7 17.955 *L 0.000212 *D AOI21XL

*CAP
1 *410:B1 7.00974e-05
2 *351:B0 2.13379e-05
3 *318:B0 6.69948e-05
4 *443:Y 0.000171124
5 *224:5 0.000239255
6 *224:6 8.02873e-05
7 *224:7 0.000332236289
8 *224:5 *414:B1 8.07046875e-05
9 *410:B1 *410:A0 9.31620605e-05
10 *410:B1 *386:A 0.00021791459

*RES
1 *224:7 *443:Y 11.6158724
2 *224:6 *224:7 3.63297
3 *318:B0 *224:6 4.48853
4 *406:D *224:6 3.29993
5 *224:5 *224:7 4.76999
6 *351:B0 *224:5 6.80511
7 *410:B1 *224:5 8.98911
*END

*D_NET *225 0.00109196

*CONN
*I *445:Y O *C 26.98 21.63 *L 0 *D AOI21X1
*I *411:B0 I *C 27.9 12.825 *L 0.000392 *D OAI22X1
*I *408:D I *C 26.54 19.7425 *L 0.000212 *D NAND4XL
*I *351:A0 I *C 25.545 16.015 *L 0.000392 *D OAI22X1
*I *309:B0 I *C 27.5 19.665 *L 0.000212 *D AOI21XL

*CAP
1 *411:B0 0.000164923
2 *309:B0 1.28761e-05
3 *445:Y 1.68103e-05
4 *408:D 3.5228e-05
5 *351:A0 4.53014e-05
6 *225:5 0.000187757
7 *225:6 0.000107529
8 *225:7 0.000380277617
9 *225:8 0.000141266

*RES
1 *351:A0 *225:8 4.12071
2 *225:8 *225:7 8.41716
3 *408:D *225:6 4.2298
4 *225:6 *445:Y 3.48188
5 *225:5 *225:6 1.26627
6 *309:B0 *225:5 3.57586
7 *225:7 *225:5 8.75541
8 *411:B0 *225:7 13.566494
*END

*D_NET *226 0.00013721

*CONN
*I *351:Y O *C 26.17 16.46 *L 0 *D OAI22X1
*I *343:A1 I *C 27.1 16.625 *L 0.000392 *D AOI22X1

*CAP
1 *351:Y 6.86049463e-05
2 *343:A1 6.86049463e-05

*RES
1 *343:A1 *351:Y 7.96831
*END

*D_NET *227 0.00189632

*CONN
*I *463:Y O *C 21.58 26.25 *L 0 *D AOI21X1
*I *411:A0 I *C 27.145 12.595 *L 0.000392 *D OAI22X1
*I *409:D I *C 22.74 21.2975 *L 0.000212 *D NAND4XL
*I *350:B0 I *C 26.5 14.535 *L 0.000392 *D OAI22X1
*I *312:B0 I *C 25.1 24.795 *L 0.000212 *D AOI21XL

*CAP
1 *411:A0 6.21666e-05
2 *350:B0 4.09462e-05
3 *312:B0 2.3186e-05
4 *409:D 0.000100077
5 *463:Y 0.000110684
6 *227:5 0.000381112109
7 *227:6 0.000305948
8 *227:7 0.000124874
9 *227:8 0.000214577
10 *227:9 0.000305233
11 *227:8 *312:A0 9.5784668e-05
12 *227:6 *228:7 0.00013172627

*RES
1 *227:9 *463:Y 6.03393
2 *409:D *227:9 5.37136
3 *312:B0 *227:8 6.80506
4 *227:8 *227:9 5.93111
5 *350:B0 *227:7 4.43596
6 *411:A0 *227:7 4.28627
7 *227:7 *227:6 6.80506
8 *227:6 *227:5 8.16822052
9 *227:5 *227:8 4.92952
*END

*D_NET *228 0.00183207

*CONN
*I *447:Y O *C 28.38 29.67 *L 0 *D AOI21X1
*I *410:A0 I *C 28.545 16.015 *L 0.000392 *D OAI22X1
*I *407:D I *C 28.1 20.995 *L 0.000392 *D NAND4X1
*I *350:A0 I *C 25.745 14.765 *L 0.000392 *D OAI22X1
*I *307:B0 I *C 28.5 26.505 *L 0.000212 *D AOI21XL

*CAP
1 *307:B0 6.21096e-05
2 *410:A0 8.2015e-05
3 *447:Y 5.68644e-05
4 *407:D 7.90359e-05
5 *350:A0 0.000102105
6 *228:5 0.000404894
7 *228:6 8.34473e-05
8 *228:7 0.000417172891
9 *228:8 8.63055e-05
10 *228:9 0.000233231
11 *228:7 *227:6 0.00013172627
12 *410:A0 *410:B1 9.31620605e-05

*RES
1 *350:A0 *228:9 11.674
2 *228:8 *228:9 3.3364
3 *228:9 *228:7 4.06692
4 *228:6 *228:7 3.3364
5 *228:7 *228:5 13.7691498
6 *407:D *228:6 7.96869
7 *228:5 *447:Y 4.55162
8 *410:A0 *228:8 8.22607
9 *307:B0 *228:5 4.3848
*END

*D_NET *229 0.00026989

*CONN
*I *350:Y O *C 26.37 14.32 *L 0 *D OAI22X1
*I *343:B1 I *C 27.54 16.17 *L 0.000392 *D AOI22X1

*CAP
1 *350:Y 0.000134944912
2 *343:B1 0.000134944912

*RES
1 *343:B1 *350:Y 15.2206
*END

*D_NET *230 0.000313759

*CONN
*I *357:Y O *C 31.555 11.16 *L 0 *D NAND2X1
*I *349:B0 I *C 32.195 11.29 *L 0.000393 *D OAI21X1
*I *345:A1 I *C 31.625 9.15 *L 0.000391 *D OAI221X1

*CAP
1 *349:B0 4.13653e-05
2 *345:A1 9.79889e-05
3 *357:Y 1.75228e-05
4 *230:3 0.000156879424

*RES
1 *230:3 *357:Y 3.71574
2 *345:A1 *230:3 5.14497
3 *349:B0 *230:3 7.5070858
*END

*D_NET *231 0.000577331

*CONN
*I *533:Y O *C 29.93 8.97 *L 0 *D INVX1
*I *504:B I *C 29.7 10.735 *L 0.000392 *D NAND2X1
*I *503:B I *C 28.9 10.735 *L 0.000392 *D NAND2X1
*I *349:A0 I *C 31.825 10.98 *L 0.000391 *D OAI21X1
*I *345:B0 I *C 32.1 9.405 *L 0.00039 *D OAI221X1

*CAP
1 *345:B0 8.75595e-05
2 *349:A0 1.35892e-05
3 *503:B 3.24857e-05
4 *231:5 0.00016313791
5 *231:6 5.05457e-05
6 *231:7 0.000145018
7 *231:5 *357:B 8.49962207e-05

*RES
1 *503:B *231:7 3.94629
2 *231:6 *533:Y 0.49997
3 *231:7 *231:6 3.98264
4 *504:B *231:7 3.2999
5 *231:5 *231:7 8.18741322
6 *349:A0 *231:5 6.80406
7 *345:B0 *231:5 4.76658
*END

*D_NET *232 0.000445068

*CONN
*I *363:Y O *C 30.78 9.15 *L 0 *D AOI21X1
*I *348:S0 I *C 28.57 9.145 *L 0.000419 *D MX2XL
*I *345:B1 I *C 31.9 9.405 *L 0.00039 *D OAI221X1

*CAP
1 *345:B1 5.27497e-05
2 *363:Y 3.40944e-05
3 *348:S0 6.38955e-05
4 *232:3 5.41803e-05
5 *232:4 9.94205469e-05
6 *348:S0 *8:78 0.000110626
7 *345:B1 *8:75 2.15769e-05
8 *345:B1 *8:78 8.52366536e-06

*RES
1 *348:S0 *232:4 11.7419958
2 *232:4 *363:Y 6.8928
3 *232:3 *232:4 0.0189919
4 *345:B1 *232:3 7.77269
*END

*D_NET *233 0.000164032

*CONN
*I *348:Y O *C 29.34 9.715 *L 0 *D MX2XL
*I *344:D I *C 30.1 7.695 *L 0.000307 *D DFFHQX1

*CAP
1 *348:Y 8.20159961e-05
2 *344:D 8.20159961e-05

*RES
1 *344:D *348:Y 8.35848
*END

*D_NET *234 0.00152475

*CONN
*I *361:Y O *C 25.26 11.74 *L 0 *D OAI2BB1X2
*I *360:A I *C 24.9 14.345 *L 0.000395 *D INVX1
*I *357:B I *C 31.3 10.735 *L 0.000392 *D NAND2X1
*I *351:A1 I *C 25.7 16.245 *L 0.000391 *D OAI22X1
*I *350:A1 I *C 25.9 14.535 *L 0.000391 *D OAI22X1
*I *346:B0 I *C 24.965 16.365 *L 0.000389 *D AOI22X1
*I *341:A0 I *C 27.1 14.535 *L 0.000392 *D OAI221X1

*CAP
1 *357:B 0.000185551
2 *341:A0 9.98353e-05
3 *351:A1 1.01333e-05
4 *346:B0 2.90886e-05
5 *361:Y 6.31843e-06
6 *234:7 0.000153778
7 *234:8 8.75613e-05
8 *234:9 0.000214635
9 *234:10 0.000119387
10 *234:11 0.000339686875
11 *357:B *231:5 8.49962207e-05
12 *357:B *361:A1N 8.5294248e-05
13 *357:B *43:12 0.000108480449

*RES
1 *234:11 *361:Y 3.4315
2 *346:B0 *234:10 3.79145
3 *234:9 *234:11 2.53616
4 *234:10 *234:9 1.20952
5 *360:A *234:9 3.29987
6 *234:8 *234:10 0.544237
7 *351:A1 *234:8 3.50408
8 *234:7 *234:8 1.10102
9 *350:A1 *234:7 3.29987
10 *341:A0 *234:7 11.103
11 *357:B *234:11 16.1243668
*END

*D_NET *235 0.000827789

*CONN
*I *360:Y O *C 25.13 14.97 *L 0 *D INVX1
*I *351:B1 I *C 26.1 16.055 *L 0.000392 *D OAI22X1
*I *350:B1 I *C 26.3 14.725 *L 0.000392 *D OAI22X1
*I *346:A0 I *C 24.1 16.435 *L 0.000391 *D AOI22X1
*I *341:B0 I *C 27.9 14.535 *L 0.00039 *D OAI221X1

*CAP
1 *341:B0 0.000122906
2 *350:B1 4.48232e-05
3 *351:B1 6.85488e-06
4 *360:Y 1.27544e-05
5 *346:A0 5.67441e-05
6 *235:5 0.000185787676
7 *235:6 5.54315e-05
8 *235:7 3.85637e-05
9 *235:8 0.000141679
10 *341:B0 *239:3 0.000162243848

*RES
1 *346:A0 *235:8 4.42642
2 *235:7 *360:Y 0.411571
3 *235:8 *235:7 3.7149
4 *351:B1 *235:6 3.43151
5 *235:6 *235:5 3.3363
6 *235:5 *235:8 4.71037
7 *350:B1 *235:6 4.12771
8 *341:B0 *235:5 9.04214382
*END

*D_NET *236 0.000174642

*CONN
*I *345:Y O *C 32.54 8.96 *L 0 *D OAI221X1
*I *342:D I *C 33.5 7.695 *L 0.000307 *D DFFHQX1

*CAP
1 *345:Y 8.73208008e-05
2 *342:D 8.73208008e-05

*RES
1 *342:D *345:Y 8.45397
*END

*D_NET *237 0.00054121

*CONN
*I *343:Y O *C 27.555 15.775 *L 0 *D AOI22X1
*I *341:C0 I *C 28.15 14.6 *L 0.000393 *D OAI221X1
*I *340:B I *C 28.9 14.155 *L 0.000392 *D NAND2X1

*CAP
1 *340:B 4.40458e-05
2 *343:Y 0.00017971
3 *341:C0 4.68495e-05
4 *237:3 0.000270605078

*RES
1 *341:C0 *237:3 7.1672
2 *237:3 *343:Y 16.4769897
3 *340:B *237:3 7.21271
*END

*D_NET *238 0.000229836

*CONN
*I *341:Y O *C 28.34 14.98 *L 0 *D OAI221X1
*I *338:A2 I *C 29.7 14.345 *L 0.000392 *D AOI32X1

*CAP
1 *341:Y 0.000114917754
2 *338:A2 0.000114917754

*RES
1 *338:A2 *341:Y 14.6972
*END

*D_NET *239 0.000765443

*CONN
*I *346:Y O *C 24.755 15.775 *L 0 *D AOI22X1
*I *340:A I *C 28.7 14.535 *L 0.00039 *D NAND2X1
*I *338:A1 I *C 29.5 14.345 *L 0.000391 *D AOI32X1

*CAP
1 *338:A1 7.63537e-05
2 *340:A 5.08442e-05
3 *346:Y 0.000174402
4 *239:3 0.000301599512
5 *239:3 *341:B0 0.000162243848

*RES
1 *239:3 *346:Y 10.461688
2 *340:A *239:3 7.22577
3 *338:A1 *239:3 7.88027
*END

*D_NET *240 0.000433803

*CONN
*I *340:Y O *C 29.155 14.58 *L 0 *D NAND2X1
*I *339:A1N I *C 32.7 14.345 *L 0.00021 *D OAI2BB1X1

*CAP
1 *339:A1N 0.000160396
2 *340:Y 1.62717e-05
3 *240:2 0.000176668164
4 *339:A1N *339:A0N 8.04662695e-05

*RES
1 *240:2 *340:Y 6.84993
2 *339:A1N *240:2 9.63175297
*END

*D_NET *241 0.000418067

*CONN
*I *384:Y O *C 32.745 12.23 *L 0 *D OAI211X1
*I *373:B I *C 35.1 14.535 *L 0.000211 *D AND2X1
*I *339:B0 I *C 32.265 14.575 *L 0.00039 *D OAI2BB1X1
*I *335:A I *C 32.9 14.535 *L 0.00039 *D NAND2X1

*CAP
1 *373:B 0.00010407
2 *384:Y 2.9922e-05
3 *339:B0 4.07698e-05
4 *241:4 0.000112950801
5 *241:5 3.42722e-05
6 *241:6 9.60827e-05

*RES
1 *339:B0 *241:6 7.43146
2 *241:6 *384:Y 3.84184
3 *241:5 *241:6 0.443486
4 *241:4 *241:5 3.35715
5 *335:A *241:5 3.29998
6 *373:B *241:4 8.5735321
*END

*D_NET *242 0.0014317

*CONN
*I *373:Y O *C 35.74 14.435 *L 0 *D AND2X1
*I *371:A I *C 30.5 10.925 *L 0.000395 *D INVX1
*I *359:A0 I *C 29.9 13.015 *L 0.000391 *D AOI22X1
*I *357:A I *C 31.1 11.115 *L 0.00039 *D NAND2X1
*I *349:A1 I *C 32.04 11.14 *L 0.000391 *D OAI21X1
*I *339:A0N I *C 32.445 14.8 *L 0.000209 *D OAI2BB1X1
*I *338:A0 I *C 29.3 14.535 *L 0.000391 *D AOI32X1

*CAP
1 *373:Y 9.60233e-05
2 *339:A0N 0.000148655
3 *349:A1 2.96816e-05
4 *357:A 2.13393e-05
5 *371:A 2.21128e-05
6 *359:A0 1.21e-05
7 *242:7 0.000218510625
8 *242:8 0.00018096
9 *242:9 9.18521e-05
10 *242:10 0.000150205
11 *242:11 0.000164806
12 *242:12 0.000214993
13 *339:A0N *339:A1N 8.04662695e-05

*RES
1 *242:12 *242:11 1.37205
2 *338:A0 *242:12 3.29992
3 *242:11 *242:10 1.88994
4 *359:A0 *242:11 3.576
5 *242:10 *242:9 4.15286
6 *371:A *242:10 3.67512
7 *242:9 *242:8 0.588127
8 *357:A *242:9 6.80494
9 *242:8 *242:7 6.20091
10 *349:A1 *242:8 6.90088
11 *339:A0N *242:12 16.0397301
12 *242:7 *373:Y 5.57974
*END

*D_NET *243 0.000471354

*CONN
*I *338:Y O *C 30.17 14.995 *L 0 *D AOI32X1
*I *335:B I *C 33.1 14.155 *L 0.000392 *D NAND2X1

*CAP
1 *335:B 0.000166534
2 *338:Y 2.46177e-05
3 *243:2 0.00019115209
4 *335:B *377:A1 8.90493359e-05

*RES
1 *243:2 *338:Y 6.8499
2 *335:B *243:2 9.35590267
*END

*D_NET *244 0.000759125

*CONN
*I *349:Y O *C 32.365 11.41 *L 0 *D OAI21X1
*I *347:A I *C 32.5 17.765 *L 0.000395 *D INVX1
*I *337:A I *C 31.9 17.955 *L 0.00039 *D NAND2X1
*I *334:A1 I *C 33.52 16.39 *L 0.000392 *D AOI21X1

*CAP
1 *334:A1 3.05185e-05
2 *349:Y 3.61204e-05
3 *337:A 3.7251e-05
4 *244:4 0.000194193
5 *244:5 0.000306189063
6 *244:6 0.000154854

*RES
1 *337:A *244:6 4.05965
2 *244:6 *244:5 2.39636
3 *347:A *244:6 3.29992
4 *244:4 *349:Y 1.14881
5 *244:5 *244:4 6.74748421
6 *334:A1 *244:5 4.1239
*END

*D_NET *245 0.000475645

*CONN
*I *337:Y O *C 32.355 18 *L 0 *D NAND2X1
*I *331:A1 I *C 28.32 19.81 *L 0.000392 *D AOI21X1

*CAP
1 *337:Y 0.000180423262
2 *331:A1 0.000180423262
3 *331:A1 *180:6 0.000114798545

*RES
1 *331:A1 *337:Y 17.5846
*END

*D_NET *246 0.000343084

*CONN
*I *545:A1 I *C 32.3 16.625 *L 0.000211 *D AO21X1
*I *339:Y O *C 32.135 15.02 *L 0 *D OAI2BB1X1
*I *337:B I *C 32.1 17.575 *L 0.000392 *D NAND2X1
*I *336:B I *C 31.5 17.575 *L 0.000392 *D NAND2X1

*CAP
1 *545:A1 3.32595e-05
2 *337:B 1.60937e-05
3 *339:Y 3.28417e-05
4 *336:B 2.18741e-05
5 *246:4 0.000133574014
6 *246:5 0.000105441

*RES
1 *336:B *246:5 3.70442
2 *246:5 *246:4 1.44388
3 *246:4 *339:Y 4.01961803
4 *337:B *246:5 3.55329
5 *545:A1 *246:4 3.85941
*END

*D_NET *247 0.0003438

*CONN
*I *347:Y O *C 32.73 18.39 *L 0 *D INVX1
*I *336:A I *C 31.3 17.955 *L 0.00039 *D NAND2X1
*I *333:A1 I *C 30.92 16.39 *L 0.000392 *D AOI21X1

*CAP
1 *336:A 2.12785e-05
2 *333:A1 5.75179e-05
3 *347:Y 8.97639e-05
4 *247:3 9.31024512e-05
5 *247:4 8.2135e-05

*RES
1 *247:4 *247:3 3.33635
2 *247:3 *347:Y 8.22615623
3 *333:A1 *247:4 4.15362
4 *336:A *247:4 3.78572
*END

*D_NET *248 0.000299454

*CONN
*I *336:Y O *C 31.755 18 *L 0 *D NAND2X1
*I *330:A1 I *C 29.92 19.81 *L 0.000392 *D AOI21X1

*CAP
1 *336:Y 1.81792e-05
2 *330:A1 0.000131548
3 *248:2 0.000149726865

*RES
1 *330:A1 *248:2 11.9835138
2 *248:2 *336:Y 3.71486
*END

*D_NET *249 0.000326037

*CONN
*I *332:Y O *C 34.335 12.34 *L 0 *D OAI2BB1X1
*I *324:D I *C 37.3 11.115 *L 0.000307 *D DFFHQX1

*CAP
1 *332:Y 0.000163018701
2 *324:D 0.000163018701

*RES
1 *324:D *332:Y 16.639
*END

*D_NET *250 0.00246155

*CONN
*I *545:B0 I *C 32.5 16.245 *L 0.00021 *D AO21X1
*I *367:Y O *C 26.585 6.18 *L 0 *D OAI21X2
*I *363:B0 I *C 30.6 9.6 *L 0.000392 *D AOI21X1
*I *332:A1N I *C 34.9 13.015 *L 0.00021 *D OAI2BB1X1
*I *331:B0 I *C 28.6 19.86 *L 0.000392 *D AOI21X1
*I *330:B0 I *C 30.2 19.86 *L 0.000392 *D AOI21X1
*I *327:B1 I *C 33.74 11.19 *L 0.000392 *D AOI22X1

*CAP
1 *332:A1N 0.000122132
2 *327:B1 3.68976e-05
3 *545:B0 0.000113071
4 *363:B0 3.7667e-05
5 *367:Y 0.000261603
6 *330:B0 3.17664e-05
7 *331:B0 6.99739e-05
8 *250:7 0.000279489
9 *250:8 0.000250399
10 *250:9 0.000416696055
11 *250:10 0.000304522
12 *250:11 0.000172439
13 *250:11 *173:6 0.000110030176
14 *330:B0 *252:4 0.000139117236
15 *545:B0 *5:16 0.000115752217

*RES
1 *331:B0 *250:11 11.2607
2 *250:10 *250:9 9.34119
3 *250:8 *250:10 3.20515
4 *250:11 *250:8 5.98792
5 *330:B0 *250:11 10.3086
6 *250:9 *367:Y 17.3654556
7 *363:B0 *250:9 3.93489
8 *545:B0 *250:8 15.4449
9 *327:B1 *250:7 7.04703
10 *250:7 *250:10 6.26933
11 *332:A1N *250:7 9.06774
*END

*D_NET *251 0.0002321

*CONN
*I *356:Y O *C 31.33 19.23 *L 0 *D INVX1
*I *329:A0N I *C 33.245 19.4 *L 0.000209 *D OAI2BB1X1
*I *325:A0 I *C 31.825 19.8 *L 0.000391 *D OAI21X1

*CAP
1 *329:A0N 9.66191e-05
2 *356:Y 0.000116050244
3 *325:A0 1.94311e-05

*RES
1 *325:A0 *356:Y 0.798733
2 *329:A0N *356:Y 18.3091164
*END

*D_NET *252 0.000848889

*CONN
*I *359:Y O *C 30.555 12.355 *L 0 *D AOI22X1
*I *356:A I *C 31.1 19.855 *L 0.000395 *D INVX1
*I *328:A0N I *C 29.845 21.64 *L 0.000209 *D OAI2BB1X1
*I *326:A0 I *C 30.625 21.24 *L 0.000391 *D OAI21X1

*CAP
1 *356:A 1.96092e-05
2 *359:Y 0.000139177
3 *328:A0N 5.71021e-05
4 *252:4 0.0001024
5 *252:5 0.000180363652
6 *252:6 9.87039e-05
7 *252:6 *326:B0 0.000112414355
8 *252:4 *330:B0 0.000139117236

*RES
1 *328:A0N *252:6 7.96072
2 *252:5 *359:Y 14.7430897
3 *252:4 *252:5 7.25861
4 *252:6 *252:4 0.994781
5 *326:A0 *252:6 3.29996
6 *356:A *252:4 3.82165
*END

*D_NET *253 9.83477e-05

*CONN
*I *327:Y O *C 33.755 11.585 *L 0 *D AOI22X1
*I *323:B I *C 33.9 9.785 *L 0.000392 *D NAND2X1

*CAP
1 *327:Y 4.9173833e-05
2 *323:B 4.9173833e-05

*RES
1 *323:B *327:Y 7.61342
*END

*D_NET *254 0.000241518

*CONN
*I *287:A I *C 26.9 11.115 *L 0.00021 *D BUFX2
*I *374:Y O *C 25.52 9.735 *L 0 *D NOR2BX1

*CAP
1 *374:Y 0.000120759014
2 *287:A 0.000120759014

*RES
1 *287:A *374:Y 18.8118
*END

*D_NET *255 0.00127804

*CONN
*I *335:Y O *C 33.355 14.58 *L 0 *D NAND2X1
*I *329:A1N I *C 33.5 19.855 *L 0.00021 *D OAI2BB1X1
*I *328:A1N I *C 30.1 21.185 *L 0.00021 *D OAI2BB1X1
*I *327:A1 I *C 33.3 10.735 *L 0.000392 *D AOI22X1
*I *326:A1 I *C 30.84 21.4 *L 0.000391 *D OAI21X1
*I *325:A1 I *C 32.04 19.64 *L 0.000391 *D OAI21X1

*CAP
1 *327:A1 0.000147345
2 *335:Y 5.28688e-05
3 *325:A1 1.43049e-05
4 *326:A1 2.43799e-05
5 *328:A1N 4.37497e-05
6 *255:6 0.00036001207
7 *255:7 0.000223099
8 *255:8 0.000168264
9 *255:9 0.000158788
10 *327:A1 *327:A0 8.52346387e-05

*RES
1 *328:A1N *255:9 7.37133
2 *255:9 *255:8 5.2031
3 *326:A1 *255:9 10.1783
4 *255:8 *255:7 1.35594
5 *325:A1 *255:8 6.91908
6 *255:6 *335:Y 10.3998
7 *327:A1 *255:6 13.4906769
8 *329:A1N *255:7 3.3
9 *255:7 *255:6 10.7718
*END

*D_NET *256 0.00025332

*CONN
*I *323:Y O *C 34.155 9.36 *L 0 *D NAND2X1
*I *306:D I *C 36.9 9.405 *L 0.000307 *D DFFHQX1

*CAP
1 *306:D 0.000103116
2 *323:Y 2.35442e-05
3 *256:2 0.000126659873

*RES
1 *256:2 *323:Y 6.84984
2 *306:D *256:2 8.96084309
*END

*D_NET *257 0.000438094

*CONN
*I *322:Y O *C 30.14 26.63 *L 0 *D AOI21XL
*I *293:D I *C 32.77 29.855 *L 0.00021 *D DFFQXL

*CAP
1 *322:Y 0.00021904707
2 *293:D 0.00021904707

*RES
1 *293:D *322:Y 17.6284
*END

*D_NET *258 0.000466585

*CONN
*I *321:Y O *C 29.14 24.67 *L 0 *D AOI21XL
*I *290:D I *C 26.37 28.285 *L 0.00021 *D DFFQXL

*CAP
1 *321:Y 6.19871e-05
2 *290:D 0.000171305
3 *258:2 0.000233292578

*RES
1 *290:D *258:2 13.5073662
2 *258:2 *321:Y 4.36594
*END

*D_NET *259 0.000242829

*CONN
*I *320:Y O *C 19.54 16.37 *L 0 *D AOI21XL
*I *304:D I *C 19.77 12.755 *L 0.00021 *D DFFQXL

*CAP
1 *320:Y 2.57484e-05
2 *304:D 9.56663e-05
3 *259:2 0.000121414658

*RES
1 *304:D *259:2 5.37133217
2 *259:2 *320:Y 3.82909
*END

*D_NET *260 0.000162601

*CONN
*I *319:Y O *C 18.14 16.37 *L 0 *D AOI21XL
*I *305:D I *C 19.37 14.605 *L 0.00021 *D DFFQXL

*CAP
1 *319:Y 8.13007373e-05
2 *305:D 8.13007373e-05

*RES
1 *305:D *319:Y 8.41248
*END

*D_NET *261 0.000204086

*CONN
*I *318:Y O *C 20.94 17.83 *L 0 *D AOI21XL
*I *303:D I *C 19.57 18.025 *L 0.00021 *D DFFQXL

*CAP
1 *318:Y 2.16372e-05
2 *303:D 8.0406e-05
3 *261:2 0.000102043154

*RES
1 *303:D *261:2 7.96866417
2 *261:2 *318:Y 6.80503
*END

*D_NET *262 0.000348687

*CONN
*I *317:Y O *C 20.94 24.67 *L 0 *D AOI21XL
*I *302:D I *C 21.57 28.285 *L 0.00021 *D DFFQXL

*CAP
1 *302:D 4.70272e-05
2 *317:Y 5.1915e-05
3 *262:2 0.000122428
4 *262:3 0.000127315518

*RES
1 *262:3 *317:Y 4.22227383
2 *302:D *262:2 4.22227383
3 *262:2 *262:3 1.48162
*END

*D_NET *263 0.00198627

*CONN
*I *326:Y O *C 31.165 21.67 *L 0 *D OAI21X1
*I *317:A1 I *C 20.5 24.225 *L 0.000212 *D AOI21XL
*I *310:A1 I *C 29.5 23.655 *L 0.000212 *D AOI21XL
*I *316:A1 I *C 31.5 27.075 *L 0.000212 *D AOI21XL
*I *320:A1 I *C 19.1 16.815 *L 0.000212 *D AOI21XL

*CAP
1 *316:A1 9.74539e-05
2 *326:Y 1.74648e-05
3 *310:A1 4.23803e-05
4 *317:A1 2.06223e-05
5 *320:A1 0.000196694
6 *263:5 0.00010097
7 *263:6 0.000215948
8 *263:7 0.000184595
9 *263:8 0.000161589
10 *263:9 0.000230431563
11 *263:7 *480:A 0.000331401836
12 *310:A1 *267:7 0.000386714922

*RES
1 *320:A1 *263:9 8.85264
2 *263:9 *263:8 4.47588
3 *263:8 *263:7 6.86389
4 *317:A1 *263:8 6.80513
5 *310:A1 *263:7 7.13169
6 *263:7 *263:6 4.75743
7 *263:5 *326:Y 3.54604
8 *263:6 *263:5 8.40482
9 *316:A1 *263:6 12.1876001
*END

*D_NET *264 0.000223994

*CONN
*I *316:Y O *C 31.94 26.63 *L 0 *D AOI21XL
*I *300:D I *C 32.97 28.285 *L 0.00021 *D DFFQXL

*CAP
1 *316:Y 4.97702e-05
2 *300:D 6.22269e-05
3 *264:2 0.000111997129

*RES
1 *300:D *264:2 4.22229
2 *264:2 *316:Y 4.44352627
*END

*D_NET *265 0.00174654

*CONN
*I *331:Y O *C 28.78 19.41 *L 0 *D AOI21X1
*I *318:A0 I *C 20.36 17.79 *L 0.000211 *D AOI21XL
*I *317:A0 I *C 20.36 24.63 *L 0.000211 *D AOI21XL
*I *315:A0 I *C 19.36 24.63 *L 0.000211 *D AOI21XL
*I *312:A0 I *C 24.76 24.63 *L 0.000211 *D AOI21XL

*CAP
1 *312:A0 9.22706e-05
2 *317:A0 2.30065e-05
3 *318:A0 4.08269e-05
4 *331:Y 0.000249982
5 *315:A0 5.38251e-05
6 *265:5 0.00043350457
7 *265:6 6.66976e-05
8 *265:7 0.000326754
9 *265:5 *88:4 0.000151693818
10 *312:A0 *227:8 9.5784668e-05
11 *312:A0 *92:3 0.000212192539

*RES
1 *315:A0 *265:7 7.62125
2 *265:6 *265:5 6.93656
3 *265:5 *331:Y 23.7920284
4 *265:7 *265:5 7.42412
5 *318:A0 *265:6 4.22213
6 *317:A0 *265:7 6.81966
7 *312:A0 *265:7 10.1916
*END

*D_NET *266 0.000242353

*CONN
*I *315:Y O *C 19.94 24.67 *L 0 *D AOI21XL
*I *294:D I *C 17.57 24.865 *L 0.00021 *D DFFQXL

*CAP
1 *315:Y 0.000107109
2 *294:D 1.40674e-05
3 *266:2 0.00012117624

*RES
1 *294:D *266:2 6.7886
2 *266:2 *315:Y 8.67974758
*END

*D_NET *267 0.00187123

*CONN
*I *325:Y O *C 32.365 19.37 *L 0 *D OAI21X1
*I *321:A1 I *C 28.7 24.225 *L 0.000212 *D AOI21XL
*I *315:A1 I *C 19.5 24.225 *L 0.000212 *D AOI21XL
*I *314:A1 I *C 32.7 20.805 *L 0.000212 *D AOI21XL
*I *313:A1 I *C 20.7 20.235 *L 0.000212 *D AOI21XL

*CAP
1 *321:A1 2.30066e-05
2 *313:A1 0.0001204
3 *315:A1 1.65084e-05
4 *267:5 6.44314e-05
5 *267:6 0.000234664
6 *267:7 0.00032508373
7 *267:8 0.000268758
8 *267:7 *310:A1 0.000386714922
9 *267:7 *147:4 0.000278234473
10 *313:A1 *216:5 0.000153422354

*RES
1 *267:8 *267:7 10.2826
2 *315:A1 *267:8 3.64765
3 *313:A1 *267:8 13.9731169
4 *267:7 *267:6 8.43342
5 *321:A1 *267:7 6.90319
6 *267:5 *325:Y 0.499984
7 *314:A1 *267:6 3.2999
8 *267:6 *267:5 4.3924
*END

*D_NET *268 0.00119495

*CONN
*I *334:Y O *C 33.98 15.99 *L 0 *D AOI21X1
*I *322:A0 I *C 29.56 26.67 *L 0.000211 *D AOI21XL
*I *316:A0 I *C 31.36 26.67 *L 0.000211 *D AOI21XL
*I *314:A0 I *C 32.56 21.21 *L 0.000211 *D AOI21XL
*I *308:A0 I *C 33.56 17.79 *L 0.000211 *D AOI21XL

*CAP
1 *308:A0 1.75856e-05
2 *334:Y 4.39271e-05
3 *322:A0 8.76793e-05
4 *268:5 0.000267624
5 *268:6 0.000440716758
6 *268:7 0.000242171
7 *268:8 9.52516e-05

*RES
1 *322:A0 *268:8 8.22616
2 *268:7 *268:6 4.99116
3 *268:8 *268:7 3.3571
4 *316:A0 *268:7 3.29992
5 *268:6 *268:5 17.509819
6 *314:A0 *268:6 3.29992
7 *268:5 *334:Y 4.11295
8 *308:A0 *268:5 3.71485
*END

*D_NET *269 0.000367939

*CONN
*I *314:Y O *C 33.14 21.25 *L 0 *D AOI21XL
*I *292:D I *C 36.77 23.015 *L 0.00021 *D DFFQXL

*CAP
1 *314:Y 0.00014102459
2 *292:D 0.00014102459
3 *292:D *458:B 8.5890293e-05

*RES
1 *292:D *314:Y 16.9261
*END

*D_NET *270 0.00168127

*CONN
*I *333:Y O *C 31.38 15.99 *L 0 *D AOI21X1
*I *320:A0 I *C 18.96 16.41 *L 0.000211 *D AOI21XL
*I *319:A0 I *C 17.56 16.41 *L 0.000211 *D AOI21XL
*I *313:A0 I *C 20.56 19.83 *L 0.000211 *D AOI21XL
*I *311:A0 I *C 24.96 19.83 *L 0.000211 *D AOI21XL

*CAP
1 *333:Y 2.41966e-05
2 *311:A0 1.99078e-05
3 *313:A0 1.58576e-05
4 *320:A0 1.41868e-05
5 *319:A0 3.1111e-05
6 *270:5 0.000318882
7 *270:6 0.000488817695
8 *270:7 0.00035012
9 *270:8 0.000205336
10 *270:6 *346:A1 8.39829492e-05
11 *270:6 *386:A 0.000128865244

*RES
1 *319:A0 *270:8 3.90151
2 *270:8 *270:7 7.12941
3 *320:A0 *270:8 3.58902
4 *270:7 *270:6 7.16183
5 *313:A0 *270:7 6.77831
6 *270:6 *270:5 13.9789581
7 *311:A0 *270:6 3.71487
8 *270:5 *333:Y 3.68202
*END

*D_NET *271 0.000180244

*CONN
*I *313:Y O *C 21.14 19.79 *L 0 *D AOI21XL
*I *296:D I *C 19.97 19.595 *L 0.00021 *D DFFQXL

*CAP
1 *313:Y 7.0035e-05
2 *296:D 2.00872e-05
3 *271:2 9.01222266e-05

*RES
1 *296:D *271:2 6.81199
2 *271:2 *313:Y 7.72678852
*END

*D_NET *272 0.000144243

*CONN
*I *312:Y O *C 25.34 24.67 *L 0 *D AOI21XL
*I *295:D I *C 24.17 24.865 *L 0.00021 *D DFFQXL

*CAP
1 *312:Y 7.21216211e-05
2 *295:D 7.21216211e-05

*RES
1 *295:D *312:Y 8.11946
*END

*D_NET *273 0.00133401

*CONN
*I *328:Y O *C 29.535 21.86 *L 0 *D OAI2BB1X1
*I *322:A1 I *C 29.7 27.075 *L 0.000212 *D AOI21XL
*I *312:A1 I *C 24.9 24.225 *L 0.000212 *D AOI21XL
*I *311:A1 I *C 25.1 20.235 *L 0.000212 *D AOI21XL
*I *307:A1 I *C 28.3 27.075 *L 0.000212 *D AOI21XL

*CAP
1 *322:A1 7.88575e-05
2 *328:Y 2.06838e-05
3 *307:A1 3.95187e-05
4 *311:A1 0.000114382
5 *312:A1 6.62799e-05
6 *273:5 0.000275254
7 *273:6 6.78903e-05
8 *273:7 0.00029480457
9 *273:8 0.000271381
10 *273:8 *8:81 5.28097e-05
11 *273:8 *8:88 2.40207e-05
12 *273:7 *8:81 2.81333819e-05

*RES
1 *273:8 *273:7 5.96702
2 *312:A1 *273:8 4.69524
3 *311:A1 *273:8 5.75678
4 *273:7 *273:6 4.32478
5 *273:5 *273:7 10.4694366
6 *307:A1 *273:5 6.9415
7 *273:6 *328:Y 3.71485
8 *322:A1 *273:5 7.89074
*END

*D_NET *274 0.000225902

*CONN
*I *311:Y O *C 25.54 19.79 *L 0 *D AOI21XL
*I *297:D I *C 24.17 19.595 *L 0.00021 *D DFFQXL

*CAP
1 *311:Y 2.37225e-05
2 *297:D 8.92283e-05
3 *274:2 0.000112950801

*RES
1 *297:D *274:2 7.96866417
2 *274:2 *311:Y 6.80503
*END

*D_NET *275 0.000320971

*CONN
*I *310:Y O *C 29.94 23.21 *L 0 *D AOI21XL
*I *298:D I *C 33.17 23.015 *L 0.00021 *D DFFQXL

*CAP
1 *298:D 9.73338e-05
2 *310:Y 2.18755e-05
3 *275:2 0.000119209287
4 *275:2 *298:CK 5.96046e-07
5 *298:D *8:76 6.14524e-05
6 *298:D *8:81 2.05039839e-05

*RES
1 *275:2 *310:Y 6.80513
2 *298:D *275:2 9.23871994
*END

*D_NET *276 0.00176287

*CONN
*I *329:Y O *C 32.935 19.18 *L 0 *D OAI2BB1X1
*I *319:A1 I *C 17.7 16.815 *L 0.000212 *D AOI21XL
*I *318:A1 I *C 20.5 17.385 *L 0.000212 *D AOI21XL
*I *309:A1 I *C 27.3 20.235 *L 0.000212 *D AOI21XL
*I *308:A1 I *C 33.7 17.385 *L 0.000212 *D AOI21XL

*CAP
1 *308:A1 3.96934e-05
2 *329:Y 1.72821e-05
3 *309:A1 3.52254e-05
4 *318:A1 2.66469e-05
5 *319:A1 0.000109554
6 *276:5 4.11231e-05
7 *276:6 0.000296056
8 *276:7 0.000585615625
9 *276:8 0.00045407
10 *276:7 *277:8 0.000157594678

*RES
1 *319:A1 *276:8 9.22403
2 *276:8 *276:7 14.3502951
3 *318:A1 *276:8 6.84998
4 *309:A1 *276:7 6.84056
5 *276:7 *276:6 9.16316
6 *276:5 *329:Y 3.61911
7 *308:A1 *276:6 4.22236
8 *276:6 *276:5 0.574572
*END

*D_NET *277 0.00107133

*CONN
*I *330:Y O *C 30.38 19.41 *L 0 *D AOI21X1
*I *321:A0 I *C 28.56 24.63 *L 0.000211 *D AOI21XL
*I *310:A0 I *C 29.36 23.25 *L 0.000211 *D AOI21XL
*I *309:A0 I *C 27.16 19.83 *L 0.000211 *D AOI21XL
*I *307:A0 I *C 28.16 26.67 *L 0.000211 *D AOI21XL

*CAP
1 *330:Y 3.57618e-05
2 *307:A0 4.89352e-05
3 *309:A0 5.39427e-05
4 *277:5 0.000231266016
5 *277:6 0.000122428
6 *277:7 7.99294e-05
7 *277:8 0.000229537
8 *277:8 *5:24 0.00011193752
9 *277:8 *276:7 0.000157594678

*RES
1 *309:A0 *277:8 8.34375
2 *277:7 *277:6 0.823956
3 *307:A0 *277:7 4.22224
4 *277:6 *277:5 1.87783
5 *321:A0 *277:6 3.29986
6 *277:8 *330:Y 7.7726
7 *277:5 *277:8 12.5988722
8 *310:A0 *277:5 3.29986
*END

*D_NET *278 0.000319242

*CONN
*I *309:Y O *C 27.74 19.79 *L 0 *D AOI21XL
*I *299:D I *C 28.57 23.015 *L 0.00021 *D DFFQXL

*CAP
1 *309:Y 0.00011897
2 *299:D 4.06512e-05
3 *278:2 0.00015962124

*RES
1 *299:D *278:2 4.19259
2 *278:2 *309:Y 5.99074364
*END

*D_NET *279 0.000251412

*CONN
*I *308:Y O *C 34.14 17.83 *L 0 *D AOI21XL
*I *301:D I *C 37.37 18.025 *L 0.00021 *D DFFQXL

*CAP
1 *308:Y 0.000125706191
2 *301:D 0.000125706191

*RES
1 *301:D *308:Y 16.0731
*END

*D_NET *280 0.000205994

*CONN
*I *307:Y O *C 28.74 26.63 *L 0 *D AOI21XL
*I *291:D I *C 29.57 28.285 *L 0.00021 *D DFFQXL

*CAP
1 *307:Y 0.000102996826
2 *291:D 0.000102996826

*RES
1 *291:D *307:Y 8.73005
*END

*D_NET *281 0.000702977

*CONN
*I *545:Y O *C 33.04 16.045 *L 0 *D AO21X1
*I *334:B0 I *C 33.8 16.44 *L 0.000392 *D AOI21X1
*I *333:B0 I *C 31.2 16.44 *L 0.000392 *D AOI21X1
*I *332:B0 I *C 34.465 12.785 *L 0.00039 *D OAI2BB1X1

*CAP
1 *332:B0 0.00010842
2 *334:B0 1.46631e-05
3 *545:Y 2.65828e-05
4 *333:B0 0.000100017
5 *281:4 0.000135958
6 *281:5 7.45648e-05
7 *281:6 0.000158965586
8 *332:B0 *44:11 8.38041309e-05

*RES
1 *333:B0 *281:6 8.19372
2 *281:6 *545:Y 6.84981
3 *281:5 *281:6 0.665149
4 *334:B0 *281:5 10.0209713
5 *281:4 *281:5 3.87117
6 *332:B0 *281:4 9.31056
*END

*D_NET *282 0.000573039

*CONN
*I *465:B I *C 26.5 7.505 *L 0.000796 *D NAND2X2
*I *462:A1 I *C 24.72 7.55 *L 0.000392 *D AOI21X1
*I *364:Q O *C 20.34 7.57 *L 0 *D DFFHQX1

*CAP
1 *465:B 6.97983e-05
2 *462:A1 3.73733e-05
3 *364:Q 0.00011772
4 *282:3 0.00022488832
5 *465:B *97:7 0.000123262402

*RES
1 *282:3 *364:Q 10.5204
2 *462:A1 *282:3 6.93118
3 *465:B *282:3 11.4614964
*END

