*SPEF "IEEE 1481-1998"
*DESIGN "aer_pending_direct_gray_scr_onehot_tree"
*DATE "Wed Aug 26 16:56:22 2026"
*VENDOR "Cadence Design Systems, Inc."
*PROGRAM "Innovus"
*VERSION "23.14-s088_1"
*DESIGN_FLOW "COUPLING C" "PIN_CAP NONE" "NAME_SCOPE LOCAL"
*DIVIDER /
*DELIMITER :
*BUS_DELIMITER []
*T_UNIT 1 NS
*C_UNIT 1 PF
*R_UNIT 1 OHM
*L_UNIT 1 HENRY

// MMMC spef file for corner 'rc_45nm'

*NAME_MAP

*1 FE_PHN10_rst_n
*2 FE_OFN11_n_165
*3 FE_OFN10_n_157
*4 FE_OFN9_n_116
*5 FE_OFN8_n_165
*6 FE_OFN5_n_161
*7 FE_OFN1_n_0
*8 FE_OFN0_reset_release_q_1
*9 clk
*10 rst_n
*11 src_req_async[15]
*12 src_req_async[14]
*13 src_req_async[13]
*14 src_req_async[12]
*15 src_req_async[11]
*16 src_req_async[10]
*17 src_req_async[9]
*18 src_req_async[8]
*19 src_req_async[7]
*20 src_req_async[6]
*21 src_req_async[5]
*22 src_req_async[4]
*23 src_req_async[3]
*24 src_req_async[2]
*25 src_req_async[1]
*26 src_req_async[0]
*27 src_ack_async[15]
*28 src_ack_async[14]
*29 src_ack_async[13]
*30 src_ack_async[12]
*31 src_ack_async[11]
*32 src_ack_async[10]
*33 src_ack_async[9]
*34 src_ack_async[8]
*35 src_ack_async[7]
*36 src_ack_async[6]
*37 src_ack_async[5]
*38 src_ack_async[4]
*39 src_ack_async[3]
*40 src_ack_async[2]
*41 src_ack_async[1]
*42 src_ack_async[0]
*43 out_addr[3]
*44 out_addr[2]
*45 out_addr[1]
*46 out_addr[0]
*47 out_valid
*48 out_ready
*49 pending_q[15]
*50 pending_q[14]
*51 pending_q[13]
*52 pending_q[12]
*53 pending_q[11]
*54 pending_q[10]
*55 pending_q[9]
*56 pending_q[8]
*57 pending_q[7]
*58 pending_q[6]
*59 pending_q[5]
*60 pending_q[4]
*61 pending_q[3]
*62 pending_q[2]
*63 pending_q[1]
*64 pending_q[0]
*65 epoch_gray_q[3]
*66 epoch_gray_q[2]
*67 epoch_gray_q[1]
*68 epoch_gray_q[0]
*69 ack_q[15]
*70 ack_q[14]
*71 ack_q[13]
*72 ack_q[12]
*73 ack_q[11]
*74 ack_q[10]
*75 ack_q[9]
*76 ack_q[8]
*77 ack_q[7]
*78 ack_q[6]
*79 ack_q[5]
*80 ack_q[4]
*81 ack_q[3]
*82 ack_q[2]
*83 ack_q[1]
*84 ack_q[0]
*85 req_sync_q[15]
*86 req_sync_q[14]
*87 req_sync_q[13]
*88 req_sync_q[12]
*89 req_sync_q[11]
*90 req_sync_q[10]
*91 req_sync_q[9]
*92 req_sync_q[8]
*93 req_sync_q[7]
*94 req_sync_q[6]
*95 req_sync_q[5]
*96 req_sync_q[4]
*97 req_sync_q[3]
*98 req_sync_q[2]
*99 req_sync_q[1]
*100 req_sync_q[0]
*101 req_meta_q[15]
*102 req_meta_q[14]
*103 req_meta_q[13]
*104 req_meta_q[12]
*105 req_meta_q[11]
*106 req_meta_q[10]
*107 req_meta_q[9]
*108 req_meta_q[8]
*109 req_meta_q[7]
*110 req_meta_q[6]
*111 req_meta_q[5]
*112 req_meta_q[4]
*113 req_meta_q[3]
*114 req_meta_q[2]
*115 req_meta_q[1]
*116 req_meta_q[0]
*117 reset_release_q[1]
*118 reset_release_q[0]
*119 UNCONNECTED
*120 n_0
*121 n_1
*122 n_2
*123 n_3
*124 n_4
*125 n_5
*126 n_6
*127 n_7
*128 n_8
*129 n_9
*130 n_10
*131 n_11
*132 n_12
*133 n_15
*134 n_16
*135 n_17
*136 n_18
*137 n_19
*138 n_20
*139 n_38
*140 n_39
*141 n_40
*142 n_41
*143 n_42
*144 n_43
*145 n_44
*146 n_45
*147 n_46
*148 n_47
*149 n_48
*150 n_49
*151 n_50
*152 n_51
*153 n_52
*154 n_53
*155 n_54
*156 n_55
*157 n_56
*158 n_57
*159 n_58
*160 n_59
*161 n_60
*162 n_61
*163 n_62
*164 n_63
*165 n_64
*166 n_65
*167 n_66
*168 n_67
*169 n_68
*170 n_69
*171 n_70
*172 n_71
*173 n_72
*174 n_73
*175 n_74
*176 n_75
*177 n_76
*178 n_77
*179 n_78
*180 n_79
*181 n_80
*182 n_81
*183 n_82
*184 n_83
*185 n_84
*186 n_85
*187 n_86
*188 n_87
*189 n_88
*190 n_89
*191 n_90
*192 n_91
*193 n_92
*194 n_93
*195 n_94
*196 n_95
*197 n_96
*198 n_97
*199 n_98
*200 n_99
*201 n_100
*202 n_101
*203 n_102
*204 n_103
*205 n_104
*206 n_105
*207 n_106
*208 n_107
*209 n_108
*210 n_109
*211 n_110
*212 n_111
*213 n_112
*214 n_113
*215 n_114
*216 n_115
*217 n_116
*218 n_117
*219 n_118
*220 n_119
*221 n_120
*222 n_121
*223 n_122
*224 n_123
*225 n_124
*226 n_125
*227 n_126
*228 n_127
*229 n_128
*230 n_129
*231 n_130
*232 n_131
*233 n_132
*234 n_133
*235 n_134
*236 n_135
*237 n_136
*238 n_137
*239 n_138
*240 n_139
*241 n_140
*242 n_141
*243 n_142
*244 n_143
*245 n_144
*246 n_145
*247 n_146
*248 n_147
*249 n_148
*250 n_149
*251 n_150
*252 n_151
*253 n_152
*254 n_153
*255 n_154
*256 n_155
*257 n_156
*258 n_157
*259 n_158
*260 n_159
*261 n_160
*262 n_161
*263 n_162
*264 n_163
*265 n_164
*266 n_165
*267 n_166
*268 n_169
*269 n_170
*270 n_171
*271 n_172
*272 n_173
*273 n_174
*274 n_175
*275 n_177
*276 n_178
*277 n_179
*278 n_181
*279 n_182
*280 n_183
*281 n_184
*282 n_185
*283 n_186
*284 n_187
*285 n_188
*286 n_189
*287 n_190
*288 n_192
*289 n_193
*290 n_194
*291 n_195
*292 n_197
*293 n_198
*294 n_199
*295 n_284
*296 n_285
*297 n_286
*298 out_valid_q
*299 FE_PHC10_rst_n
*300 FE_OFC11_n_165
*301 FE_OFC10_n_157
*302 FE_OFC9_n_116
*303 FE_OFC8_n_165
*304 FE_OFC5_n_161
*305 FE_OFC1_n_0
*306 FE_OFC0_reset_release_q_1
*307 out_addr_q_reg\[0\]
*308 g5937__2398
*309 g5938__5107
*310 g5944__6260
*311 pending_q_reg\[15\]
*312 pending_q_reg\[3\]
*313 out_addr_q_reg\[1\]
*314 pending_q_reg\[7\]
*315 pending_q_reg\[5\]
*316 pending_q_reg\[13\]
*317 pending_q_reg\[11\]
*318 pending_q_reg\[1\]
*319 pending_q_reg\[2\]
*320 pending_q_reg\[14\]
*321 pending_q_reg\[6\]
*322 g5954__8428
*323 pending_q_reg\[9\]
*324 pending_q_reg\[10\]
*325 pending_q_reg\[12\]
*326 g5957__5526
*327 g5959__6783
*328 g5974__3680
*329 pending_q_reg\[4\]
*330 pending_q_reg\[0\]
*331 g5945__1617
*332 epoch_gray_q_reg\[2\]
*333 epoch_gray_q_reg\[3\]
*334 epoch_gray_q_reg\[0\]
*335 epoch_gray_q_reg\[1\]
*336 g5968__2802
*337 g5956__1705
*338 g5971__5122
*339 g5972__8246
*340 g5973__7098
*341 g5982__6131
*342 g5955__1881
*343 g5970__5115
*344 pending_q_reg\[8\]
*345 g5976__7482
*346 g5958__4733
*347 g6008
*348 g5977__6161
*349 g5984__9315
*350 g5985__9945
*351 g5986__2883
*352 out_valid_q_reg
*353 out_addr_q_reg\[2\]
*354 g5987__2346
*355 g5983__1666
*356 g5999__7410
*357 g6013__6417
*358 g5994__5477
*359 g5969__2398
*360 g5989
*361 g6000
*362 out_addr_q_reg\[3\]
*363 g6003__5107
*364 g6002__6260
*365 g6001
*366 g6010__4319
*367 g5979__8428
*368 g5996__5526
*369 g5988
*370 g5991__6783
*371 g5997__3680
*372 g5993__1617
*373 g5998__2802
*374 g6011__1705
*375 g6012__5122
*376 g6004__8246
*377 g6005__7098
*378 g5995__6131
*379 g5992__1881
*380 g6026
*381 g6020__7482
*382 g6019__4733
*383 g6009__6161
*384 g6029__9945
*385 g6014__2883
*386 g6015__2346
*387 g6017__1666
*388 g6018
*389 g6024__7410
*390 g6027__6417
*391 g6016__5477
*392 g6021__2398
*393 g6025
*394 g6030
*395 g6022
*396 g6028__5107
*397 g6031__6260
*398 g6032__4319
*399 g6023__8428
*400 g6034__5526
*401 g6033__6783
*402 g6041__3680
*403 g6036__1617
*404 g6039__2802
*405 g6042
*406 g6035__1705
*407 g6040__5122
*408 g6043__8246
*409 g6044__7098
*410 g6045__6131
*411 g6038__1881
*412 g6037__5115
*413 ack_q_reg\[15\]
*414 ack_q_reg\[2\]
*415 ack_q_reg\[7\]
*416 ack_q_reg\[13\]
*417 ack_q_reg\[1\]
*418 ack_q_reg\[9\]
*419 ack_q_reg\[5\]
*420 ack_q_reg\[8\]
*421 ack_q_reg\[10\]
*422 g6047__7482
*423 ack_q_reg\[0\]
*424 ack_q_reg\[6\]
*425 g6062
*426 ack_q_reg\[4\]
*427 ack_q_reg\[3\]
*428 ack_q_reg\[14\]
*429 g6061
*430 ack_q_reg\[11\]
*431 ack_q_reg\[12\]
*432 g6067__4733
*433 g6066__6161
*434 g6065__9315
*435 g6063__9945
*436 g6046__2883
*437 g6064__2346
*438 g6068__1666
*439 g6072__7410
*440 g6069__6417
*441 g6075__5477
*442 g6070__2398
*443 g6102__5107
*444 g6077
*445 g6078
*446 g6080
*447 g6115__6260
*448 g6082
*449 g6100__4319
*450 g6101__8428
*451 g6076
*452 g6079
*453 g6081
*454 g6099
*455 g6109__5526
*456 g6104__6783
*457 g6105__3680
*458 g6106__1617
*459 g6107__2802
*460 g6108__1705
*461 g6103__5122
*462 g6110__8246
*463 g6111__7098
*464 g6112__6131
*465 g6113__1881
*466 g6114__5115
*467 g6087__7482
*468 g6084__4733
*469 g6085__6161
*470 g6086__9315
*471 g6083__9945
*472 g6088__2883
*473 g6089__2346
*474 g6090__1666
*475 g6116__7410
*476 g6091__6417
*477 g6093__5477
*478 g6095__2398
*479 g6096__5107
*480 g6097__6260
*481 g6098__4319
*482 g6094__8428
*483 g6092__5526
*484 g6131__6783
*485 g6130__3680
*486 g6121__1617
*487 g6127__2802
*488 g6120__1705
*489 g6118__5122
*490 g6129__8246
*491 g6125__7098
*492 g6126__6131
*493 g6128__1881
*494 g6122__5115
*495 g6117__7482
*496 g6133__4733
*497 g6119__6161
*498 g6132__9315
*499 g6124__9945
*500 g6123__2883
*501 g6154
*502 g6135
*503 g6137
*504 g6139
*505 g6140
*506 g6141
*507 g6134
*508 g6155
*509 g6156
*510 g6158
*511 g6159
*512 g6160
*513 g6136
*514 g6161
*515 g6138
*516 g6157
*517 req_sync_q_reg\[6\]
*518 req_sync_q_reg\[12\]
*519 req_sync_q_reg\[3\]
*520 req_sync_q_reg\[11\]
*521 req_sync_q_reg\[1\]
*522 req_sync_q_reg\[4\]
*523 req_sync_q_reg\[15\]
*524 req_sync_q_reg\[5\]
*525 req_sync_q_reg\[2\]
*526 g6170__2346
*527 g6171__1666
*528 req_sync_q_reg\[8\]
*529 req_sync_q_reg\[10\]
*530 req_sync_q_reg\[9\]
*531 req_sync_q_reg\[13\]
*532 req_sync_q_reg\[0\]
*533 req_sync_q_reg\[14\]
*534 req_sync_q_reg\[7\]
*535 reset_release_q_reg\[1\]
*536 req_meta_q_reg\[6\]
*537 req_meta_q_reg\[12\]
*538 req_meta_q_reg\[15\]
*539 req_meta_q_reg\[10\]
*540 reset_release_q_reg\[0\]
*541 req_meta_q_reg\[5\]
*542 req_meta_q_reg\[4\]
*543 req_meta_q_reg\[8\]
*544 g6190__7410
*545 req_meta_q_reg\[0\]
*546 req_meta_q_reg\[3\]
*547 req_meta_q_reg\[11\]
*548 req_meta_q_reg\[13\]
*549 req_meta_q_reg\[7\]
*550 req_meta_q_reg\[9\]
*551 req_meta_q_reg\[1\]
*552 req_meta_q_reg\[2\]
*553 req_meta_q_reg\[14\]
*554 g6198
*555 g6204
*556 g6202
*557 g6195
*558 g6199
*559 g6207
*560 g6197
*561 g6208
*562 g6209
*563 g6210
*564 g6194
*565 g6201
*566 g6203
*567 g6205
*568 g6192
*569 g6191
*570 g6206
*571 g6200
*572 g6193
*573 g6196
*574 g2
*575 g6348
*576 g6349


*PORTS

*9 I *C 0 0.095
*10 I *C 0 2.375
*11 I *C 0 42.655
*12 I *C 0 40.185
*13 I *C 0 37.905
*14 I *C 0 35.435
*15 I *C 0 33.155
*16 I *C 0 30.685
*17 I *C 0 28.405
*18 I *C 0 25.935
*19 I *C 0 23.655
*20 I *C 0 21.375
*21 I *C 0 18.905
*22 I *C 0 16.625
*23 I *C 0 14.155
*24 I *C 0 11.875
*25 I *C 0 9.405
*26 I *C 0 7.125
*27 O *C 45.8 8.645
*28 O *C 45.8 10.925
*29 O *C 45.8 13.015
*30 O *C 45.8 15.105
*31 O *C 45.8 17.195
*32 O *C 45.8 19.285
*33 O *C 45.8 21.375
*34 O *C 45.8 23.655
*35 O *C 45.8 25.745
*36 O *C 45.8 27.835
*37 O *C 45.8 29.925
*38 O *C 45.8 32.015
*39 O *C 45.8 34.295
*40 O *C 45.8 36.385
*41 O *C 45.8 38.475
*42 O *C 45.8 40.565
*43 O *C 45.8 0.285
*44 O *C 45.8 2.375
*45 O *C 45.8 4.465
*46 O *C 45.8 6.555
*47 O *C 45.8 42.655
*48 I *C 0 4.655


*D_NET *1 0.000540137

*CONN
*I *299:Y O *C 11.49 5.55 *L 0 *D DLY3X1
*I *535:RN I *C 7.9 7.695 *L 0.000422 *D DFFRX1
*I *540:RN I *C 6.3 5.985 *L 0.000617 *D DFFRHQX1

*CAP
1 *299:Y 2.02643e-05
2 *535:RN 4.42271e-05
3 *540:RN 8.16597e-05
4 *1:3 0.0001359
5 *1:4 5.25116e-05
6 *1:5 0.000205576426

*RES
1 *540:RN *1:5 8.3065033
2 *535:RN *1:4 4.18443
3 *1:4 *1:5 3.34676
4 *1:5 *1:3 6.42684
5 *1:3 *299:Y 3.67934
*END

*D_NET *2 0.000332952

*CONN
*I *303:A I *C 33.5 14.535 *L 0.00021 *D BUFX2
*I *300:Y O *C 32.735 18.42 *L 0 *D BUFX2

*CAP
1 *300:Y 0.00011927
2 *303:A 4.72081e-05
3 *2:2 0.000166475781

*RES
1 *303:A *2:2 4.27523
2 *2:2 *300:Y 5.55276871
*END

*D_NET *3 0.00118232

*CONN
*I *354:C I *C 30.54 17.8775 *L 0.000211 *D NAND4XL
*I *358:C0 I *C 26.9 24.605 *L 0.000212 *D AOI211XL
*I *364:B0 I *C 27.95 26.3 *L 0.000212 *D AOI2BB1XL
*I *301:Y O *C 26.335 21.84 *L 0 *D BUFX2

*CAP
1 *354:C 0.000126959
2 *364:B0 8.39817e-05
3 *301:Y 6.24651e-05
4 *3:4 0.00012934
5 *3:5 0.000300527
6 *3:6 0.000334858906
7 *3:7 0.000144183

*RES
1 *3:7 *3:6 5.36507
2 *358:C0 *3:7 3.29991
3 *3:6 *301:Y 7.59479
4 *3:5 *3:6 10.7406378
5 *3:4 *3:7 7.43237
6 *364:B0 *3:4 4.50957
7 *354:C *3:5 8.93622
*END

*D_NET *4 0.000720024

*CONN
*I *393:A I *C 23.9 16.435 *L 0.000395 *D INVX1
*I *386:B I *C 30.4 16.195 *L 0.000212 *D NAND2XL
*I *387:B0 I *C 23.4 16.44 *L 0.000392 *D AOI21X1
*I *302:Y O *C 29.335 18.42 *L 0 *D BUFX2

*CAP
1 *386:B 6.34171e-05
2 *302:Y 1.985e-05
3 *393:A 7.51122e-06
4 *387:B0 2.80148e-05
5 *4:4 0.000324487695
6 *4:5 0.000276747

*RES
1 *387:B0 *4:5 3.68934
2 *4:5 *4:4 11.6075277
3 *393:A *4:5 3.3468
4 *4:4 *302:Y 3.71485
5 *386:B *4:4 4.82874
*END

*D_NET *5 0.00037539

*CONN
*I *303:Y O *C 33.135 15 *L 0 *D BUFX2
*I *322:B I *C 34.9 10.925 *L 0.000209 *D MX2XL

*CAP
1 *303:Y 0.000143766406
2 *322:B 0.000143766406
3 *322:B *220:2 8.78572461e-05

*RES
1 *322:B *303:Y 17.2342
*END

*D_NET *6 0.00119114

*CONN
*I *354:B I *C 30.34 17.7675 *L 0.000212 *D NAND4XL
*I *356:C0 I *C 24.34 12.66 *L 0.000393 *D AOI211X1
*I *363:B0 I *C 21.95 12.62 *L 0.000212 *D AOI2BB1XL
*I *304:Y O *C 21.335 15 *L 0 *D BUFX2

*CAP
1 *354:B 7.21818e-05
2 *356:C0 2.37838e-05
3 *363:B0 3.67178e-05
4 *304:Y 5.35256e-05
5 *6:4 0.000331044
6 *6:5 0.000351130977
7 *6:6 0.000158728
8 *6:4 *7:24 0.000164031992

*RES
1 *6:6 *304:Y 4.48032
2 *363:B0 *6:6 3.79141
3 *356:C0 *6:5 3.67937
4 *6:5 *6:6 8.47918
5 *6:4 *6:5 13.3023262
6 *354:B *6:4 4.65305
*END

*D_NET *7 0.00487947

*CONN
*I *331:A0 I *C 32.56 16.11 *L 0.000212 *D AOI211XL
*I *371:A1 I *C 33.9 12.825 *L 0.000212 *D OAI21XL
*I *327:A0 I *C 23.16 11.25 *L 0.000212 *D AOI211XL
*I *392:B0 I *C 31.1 16.435 *L 0.00021 *D OA21X1
*I *337:A0 I *C 21.56 18.09 *L 0.000212 *D AOI211XL
*I *338:A0 I *C 20.36 12.69 *L 0.000212 *D AOI211XL
*I *342:A0 I *C 33.36 19.53 *L 0.000212 *D AOI211XL
*I *366:B0 I *C 32.9 21.185 *L 0.00039 *D OAI211X1
*I *328:A0 I *C 34.36 21.51 *L 0.000212 *D AOI211XL
*I *340:A0 I *C 31.96 26.37 *L 0.000212 *D AOI211XL
*I *373:B0 I *C 21.9 16.435 *L 0.00039 *D OAI211X1
*I *359:A0 I *C 20.96 21.51 *L 0.000212 *D AOI211XL
*I *374:B0 I *C 30.7 26.695 *L 0.00039 *D OAI211X1
*I *346:A0 I *C 21.56 22.95 *L 0.000212 *D AOI211XL
*I *336:A0 I *C 20.56 24.93 *L 0.000212 *D AOI211XL
*I *339:A0 I *C 28.76 26.37 *L 0.000212 *D AOI211XL
*I *375:B0 I *C 22.3 26.695 *L 0.00039 *D OAI211X1
*I *326:A0 I *C 25.36 26.37 *L 0.000212 *D AOI211XL
*I *305:Y O *C 20.135 11.58 *L 0 *D BUFX2

*CAP
1 *328:A0 4.32744e-05
2 *371:A1 5.33477e-05
3 *342:A0 1.37683e-05
4 *366:B0 4.49999e-05
5 *331:A0 2.55731e-05
6 *340:A0 1.25783e-05
7 *374:B0 2.33062e-05
8 *339:A0 2.00277e-05
9 *326:A0 2.21162e-05
10 *327:A0 4.05314e-05
11 *375:B0 2.59301e-05
12 *373:B0 9.75741e-05
13 *346:A0 1.28758e-05
14 *337:A0 5.00395e-06
15 *338:A0 4.55949e-05
16 *7:19 0.000136315
17 *7:20 0.000139177
18 *7:21 0.000191507
19 *7:22 0.000358345
20 *7:23 0.00010425
21 *7:24 0.000389933594
22 *7:25 0.000243486
23 *7:26 0.00010848
24 *7:27 0.000181737
25 *7:28 0.000214813
26 *7:29 0.000347492
27 *7:30 0.000207245
28 *7:31 0.000170825
29 *7:32 0.000197826
30 *7:33 0.000220596
31 *7:34 0.000179887
32 *7:35 0.000110807
33 *7:26 *351:B0 0.000220775605
34 *7:24 *355:B0 0.000113248828
35 *7:24 *6:4 0.000164031992
36 *7:19 *220:2 0.00013399124
37 *328:A0 *342:B0 0.000167489043
38 *328:A0 *328:A1 9.07182715e-05

*RES
1 *7:35 *305:Y 3.3
2 *338:A0 *7:35 4.46837
3 *7:34 *7:33 6.28777
4 *336:A0 *7:34 3.3
5 *7:32 *7:31 1.85197
6 *359:A0 *7:32 3.3
7 *7:31 *7:34 1.50431
8 *7:30 *7:32 3.19373
9 *337:A0 *7:30 3.33628
10 *346:A0 *7:31 3.86705
11 *373:B0 *7:30 5.54904
12 *7:29 *7:35 5.07027
13 *7:33 *7:28 2.32817
14 *375:B0 *7:33 6.84996
15 *327:A0 *7:29 7.62411
16 *7:28 *7:27 3.42827
17 *326:A0 *7:28 6.80511
18 *7:27 *7:26 1.49289
19 *339:A0 *7:27 6.84053
20 *7:26 *7:25 0.967547
21 *374:B0 *7:26 6.81197
22 *7:24 *7:29 18.7213421
23 *7:23 *7:24 1.47032
24 *392:B0 *7:23 3.3
25 *7:25 *7:22 8.64879
26 *340:A0 *7:25 6.78854
27 *7:21 *7:23 4.15271
28 *7:22 *7:21 6.8771
29 *331:A0 *7:21 7.04479
30 *366:B0 *7:20 4.38867
31 *7:20 *7:22 7.48928
32 *342:A0 *7:20 3.57253
33 *371:A1 *7:19 4.4001
34 *7:19 *7:24 8.87047
35 *328:A0 *7:20 4.64377
*END

*D_NET *8 0.0130713

*CONN
*I *456:C0 I *C 19.5 10.925 *L 0.000212 *D AOI211XL
*I *443:C0 I *C 19.3 16.435 *L 0.000212 *D AOI211XL
*I *450:C0 I *C 16.3 17.765 *L 0.000212 *D AOI211XL
*I *338:B0 I *C 20.96 12.99 *L 0.000212 *D AOI211XL
*I *343:B I *C 17.1 17.765 *L 0.000212 *D NOR3BXL
*I *337:B0 I *C 22.16 17.79 *L 0.000212 *D AOI211XL
*I *457:C0 I *C 22.3 9.595 *L 0.000212 *D AOI211XL
*I *327:B0 I *C 23.76 10.95 *L 0.000212 *D AOI211XL
*I *371:A0 I *C 33.5 12.825 *L 0.000211 *D OAI21XL
*I *359:B0 I *C 21.56 21.21 *L 0.000212 *D AOI211XL
*I *463:C0 I *C 19.1 23.275 *L 0.000212 *D AOI211XL
*I *331:B0 I *C 33.16 16.41 *L 0.000212 *D AOI211XL
*I *576:AN I *C 33.1 11.115 *L 0.00021 *D NAND2BX1
*I *575:AN I *C 33.3 9.405 *L 0.00021 *D NAND2BX1
*I *336:B0 I *C 21.16 24.63 *L 0.000212 *D AOI211XL
*I *346:B0 I *C 22.16 23.25 *L 0.000212 *D AOI211XL
*I *449:C0 I *C 35.9 16.435 *L 0.000212 *D AOI211XL
*I *485:A I *C 40.17 14.49 *L 0.000212 *D NOR2XL
*I *461:C0 I *C 19.1 30.115 *L 0.000212 *D AOI211XL
*I *345:B I *C 22.3 28.025 *L 0.000212 *D NOR3BXL
*I *447:C0 I *C 20.3 26.695 *L 0.000212 *D AOI211XL
*I *464:C0 I *C 15.9 23.275 *L 0.000212 *D AOI211XL
*I *466:C0 I *C 35.9 17.765 *L 0.000212 *D AOI211XL
*I *486:A I *C 40.37 16.29 *L 0.000212 *D NOR2XL
*I *326:B0 I *C 25.96 26.67 *L 0.000212 *D AOI211XL
*I *459:C0 I *C 24.9 28.025 *L 0.000212 *D AOI211XL
*I *495:A I *C 39.97 11.07 *L 0.000212 *D NOR2XL
*I *493:A I *C 39.97 9.45 *L 0.000212 *D NOR2XL
*I *328:B0 I *C 34.96 21.21 *L 0.000212 *D AOI211XL
*I *496:A I *C 40.37 17.91 *L 0.000212 *D NOR2XL
*I *342:B0 I *C 33.96 19.83 *L 0.000212 *D AOI211XL
*I *487:A I *C 40.37 19.71 *L 0.000212 *D NOR2XL
*I *458:C0 I *C 29.1 28.025 *L 0.000212 *D AOI211XL
*I *484:A I *C 40.17 21.33 *L 0.000212 *D NOR2XL
*I *488:A I *C 40.17 23.13 *L 0.000212 *D NOR2XL
*I *494:A I *C 40.17 24.75 *L 0.000212 *D NOR2XL
*I *339:B0 I *C 29.36 26.67 *L 0.000212 *D AOI211XL
*I *462:C0 I *C 38.3 24.605 *L 0.000212 *D AOI211XL
*I *455:C0 I *C 35.3 24.605 *L 0.000212 *D AOI211XL
*I *499:A I *C 40.37 26.55 *L 0.000212 *D NOR2XL
*I *492:A I *C 40.17 31.59 *L 0.000212 *D NOR2XL
*I *348:B I *C 30.1 28.025 *L 0.000212 *D NOR3BXL
*I *340:B0 I *C 32.56 26.67 *L 0.000212 *D AOI211XL
*I *341:B I *C 34.9 23.275 *L 0.000212 *D NOR3BXL
*I *465:C0 I *C 35.5 28.025 *L 0.000212 *D AOI211XL
*I *489:A I *C 39.97 29.97 *L 0.000212 *D NOR2XL
*I *500:B I *C 39.565 31.515 *L 0.000392 *D NOR2BX1
*I *460:C0 I *C 33.3 31.445 *L 0.000212 *D AOI211XL
*I *490:A I *C 30.57 33.39 *L 0.000212 *D NOR2XL
*I *498:A I *C 33.17 33.39 *L 0.000212 *D NOR2XL
*I *491:A I *C 31.17 33.39 *L 0.000212 *D NOR2XL
*I *497:A I *C 32.57 33.39 *L 0.000212 *D NOR2XL
*I *306:Y O *C 14.94 8.28 *L 0 *D BUFX3

*CAP
1 *499:A 1.51417e-05
2 *487:A 4.97713e-05
3 *496:A 6.40146e-05
4 *494:A 1.41849e-05
5 *485:A 1.33522e-05
6 *489:A 1.56165e-05
7 *493:A 3.84423e-05
8 *500:B 6.21081e-05
9 *462:C0 3.48121e-05
10 *466:C0 7.99306e-05
11 *465:C0 3.72517e-05
12 *328:B0 5.67468e-05
13 *342:B0 0.000127795
14 *371:A0 7.80826e-06
15 *460:C0 8.26112e-05
16 *575:AN 6.01433e-05
17 *576:AN 7.33348e-06
18 *331:B0 4.46437e-05
19 *497:A 2.20516e-05
20 *340:B0 4.12472e-05
21 *491:A 1.66902e-05
22 *490:A 3.28984e-05
23 *348:B 3.65359e-05
24 *339:B0 6.36567e-05
25 *326:B0 6.45551e-05
26 *459:C0 4.79233e-05
27 *327:B0 0.000107767
28 *345:B 3.39137e-05
29 *457:C0 2.64049e-05
30 *346:B0 6.69947e-05
31 *337:B0 4.94718e-05
32 *359:B0 3.77923e-05
33 *336:B0 2.09194e-05
34 *338:B0 1.86551e-05
35 *447:C0 2.71207e-05
36 *443:C0 6.02602e-05
37 *461:C0 0.000108717
38 *463:C0 2.64049e-05
39 *343:B 2.28916e-05
40 *450:C0 2.48564e-05
41 *306:Y 8.31517e-05
42 *464:C0 6.07934e-05
43 *8:53 0.000114261
44 *8:54 0.000226439
45 *8:55 0.000137926
46 *8:56 7.02159e-05
47 *8:57 6.81269e-05
48 *8:58 9.72124e-05
49 *8:59 0.00014263
50 *8:60 0.000171899
51 *8:61 0.000122785
52 *8:62 0.000197354
53 *8:63 9.10769e-05
54 *8:64 9.5306e-05
55 *8:65 0.000387791
56 *8:66 9.81693e-05
57 *8:67 0.000124392
58 *8:68 0.000134822
59 *8:69 0.00036961
60 *8:70 0.000170292
61 *8:71 0.000114443
62 *8:72 0.000198486
63 *8:73 0.000240566
64 *8:74 0.000104845
65 *8:75 0.000128628
66 *8:76 7.99306e-05
67 *8:77 0.000105503
68 *8:78 0.000112413
69 *8:79 0.000116109
70 *8:80 0.00021297
71 *8:81 0.000224234
72 *8:82 0.000145494
73 *8:83 6.38977e-05
74 *8:84 7.23633e-05
75 *8:85 0.000233831
76 *8:86 0.000108359
77 *8:87 9.67961e-05
78 *8:88 0.000214519
79 *8:89 0.000226797
80 *8:90 0.000218156
81 *8:91 5.13782e-05
82 *8:92 0.000260886
83 *8:93 7.21223e-05
84 *8:94 0.00024134
85 *8:95 0.00027025
86 *8:96 0.000141564
87 *8:97 0.000168802
88 *8:98 9.53645e-05
89 *8:99 0.000174762
90 *8:100 0.000222743
91 *8:101 0.000139175
92 *8:102 0.000222919
93 *8:103 0.00012678
94 *8:104 8.9112e-05
95 *8:105 0.000128029
96 *8:106 0.000478684883
97 *8:107 6.21081e-05
98 *8:108 0.000290396
99 *8:109 0.000264349
100 *8:110 0.000312922
101 *8:110 *9:109 6.25849e-06
102 *8:101 *316:CK 5.48363e-05
103 *8:100 *9:99 7.33137e-06
104 *8:100 *413:CK 5.48363e-06
105 *8:100 *9:101 3.12924e-05
106 *8:69 *9:79 0
107 *8:69 *9:80 0
108 *8:69 *9:77 0
109 *8:66 *9:78 1.90735e-06
110 *466:C0 *9:77 7.21217309e-06
111 *8:103 *476:B0 8.44001758e-05
112 *8:96 *323:D 9.48905957e-05
113 *8:75 *39:2 8.79764551e-05
114 *575:AN *290:9 8.46385938e-05
115 *342:B0 *328:A0 0.000167489043
116 *342:B0 *309:A2 9.03606445e-05
117 *465:C0 *465:A0 8.80956641e-05
118 *8:65 *317:D 9.67979395e-05
119 *493:A *495:B 0.00012588501
120 *8:56 *488:B 9.35792969e-05
121 *8:56 *509:A 9.00030176e-05
122 *494:A *298:3 0.000287175176

*RES
1 *464:C0 *8:110 7.73032
2 *8:109 *306:Y 8.43094
3 *8:108 *8:109 3.34678
4 *450:C0 *8:107 6.84985
5 *8:107 *8:106 3.35712
6 *8:106 *8:108 8.87086
7 *8:110 *8:106 8.72057
8 *343:B *8:105 6.80499
9 *8:105 *8:107 0.572234
10 *463:C0 *8:104 7.30115
11 *8:104 *8:103 3.33624
12 *8:103 *8:110 2.17709
13 *8:102 *8:104 1.48165
14 *461:C0 *8:102 5.86705
15 *443:C0 *8:101 4.4375
16 *8:101 *8:105 5.19414
17 *8:100 *8:109 8.30235
18 *456:C0 *8:100 3.29985
19 *8:99 *8:102 4.30395
20 *447:C0 *8:99 6.84985
21 *338:B0 *8:98 3.71497
22 *8:97 *8:100 7.79151
23 *8:98 *8:97 0.907139
24 *336:B0 *8:96 3.58928
25 *8:96 *8:103 4.90864
26 *8:95 *8:98 7.37867
27 *8:94 *8:95 3.33624
28 *359:B0 *8:93 4.22229
29 *8:93 *8:92 0.888326
30 *8:92 *8:95 12.4341
31 *337:B0 *8:91 4.36597
32 *346:B0 *8:96 4.99712
33 *8:91 *8:92 0.0452743
34 *457:C0 *8:90 6.94639
35 *8:90 *8:97 5.09532
36 *8:89 *8:99 5.62889
37 *345:B *8:89 3.86878
38 *327:B0 *8:90 8.57896
39 *8:88 *8:89 5.38309
40 *459:C0 *8:88 7.21535
41 *326:B0 *8:88 7.99721
42 *8:87 *8:86 4.0751
43 *458:C0 *8:87 3.29985
44 *339:B0 *8:87 4.50034
45 *8:86 *8:85 1.1149
46 *348:B *8:86 6.84055
47 *8:84 *8:83 1.43637
48 *490:A *8:84 4.33889
49 *8:85 *8:82 1.11883
50 *8:83 *8:81 3.34678
51 *8:81 *8:85 11.271
52 *491:A *8:83 3.5041
53 *340:B0 *8:82 7.3673
54 *8:82 *8:80 2.58601
55 *8:79 *8:81 1.0473
56 *497:A *8:79 6.81202
57 *331:B0 *8:78 7.14114
58 *576:AN *8:77 3.35464
59 *8:77 *8:76 1.28132
60 *8:75 *8:79 3.99592
61 *498:A *8:75 3.29985
62 *575:AN *8:77 8.41047
63 *8:74 *8:73 3.33624
64 *8:73 *8:94 9.13176
65 *8:78 *8:72 3.33624
66 *8:72 *8:74 2.19983
67 *460:C0 *8:75 4.895
68 *8:76 *8:74 7.10454
69 *371:A0 *8:76 3.35712
70 *342:B0 *8:72 13.5483742
71 *328:B0 *8:71 4.50965
72 *8:71 *8:70 1.12255
73 *341:B *8:71 3.29985
74 *8:70 *8:69 4.90864
75 *8:68 *8:70 0.568719
76 *455:C0 *8:68 3.29985
77 *8:80 *8:68 12.4419
78 *465:C0 *8:80 7.10682
79 *8:67 *8:78 2.02597
80 *8:66 *8:67 3.50162
81 *449:C0 *8:66 3.29985
82 *466:C0 *8:66 4.65312
83 *8:65 *8:67 1.11883
84 *8:69 *8:65 13.1219
85 *8:64 *8:69 0.816384
86 *462:C0 *8:64 7.21535
87 *500:B *8:63 4.7968
88 *8:62 *8:65 1.87464
89 *8:61 *8:60 2.60131
90 *493:A *8:61 4.36597
91 *495:A *8:61 3.29985
92 *489:A *8:59 3.7158
93 *8:60 *8:62 5.40955
94 *8:58 *8:57 1.64042
95 *8:57 *8:56 0.428142
96 *8:56 *8:64 4.75752
97 *8:55 *8:56 0.268338
98 *8:59 *8:54 2.71377
99 *8:63 *8:59 0.8691
100 *485:A *8:60 3.64778
101 *484:A *8:58 3.29985
102 *488:A *8:57 3.29985
103 *494:A *8:55 3.64778
104 *492:A *8:63 3.29985
105 *8:53 *8:62 4.28617
106 *8:54 *8:55 2.94055
107 *486:A *8:53 3.29985
108 *496:A *8:53 4.36597
109 *487:A *8:58 4.60784
110 *499:A *8:54 3.64778
*END

*D_NET *9 0.0164739

*CONN
*P *9 I *C 0 0.095 *L 0
*I *553:CK I *C 15.485 33.015 *L 0.00021 *D DFFQXL
*I *552:CK I *C 5.885 12.495 *L 0.00021 *D DFFQXL
*I *551:CK I *C 8.085 11.445 *L 0.00021 *D DFFQXL
*I *550:CK I *C 5.685 26.175 *L 0.00021 *D DFFQXL
*I *549:CK I *C 5.885 22.755 *L 0.00021 *D DFFQXL
*I *548:CK I *C 11.885 31.965 *L 0.00021 *D DFFQXL
*I *547:CK I *C 5.685 29.595 *L 0.00021 *D DFFQXL
*I *546:CK I *C 5.685 14.865 *L 0.00021 *D DFFQXL
*I *545:CK I *C 5.685 9.075 *L 0.00021 *D DFFQXL
*I *543:CK I *C 5.685 25.125 *L 0.00021 *D DFFQXL
*I *542:CK I *C 5.685 15.915 *L 0.00021 *D DFFQXL
*I *541:CK I *C 5.685 19.335 *L 0.00021 *D DFFQXL
*I *540:CK I *C 5.3 5.985 *L 0.00021 *D DFFRHQX1
*I *539:CK I *C 5.685 28.545 *L 0.00021 *D DFFQXL
*I *538:CK I *C 8.685 31.965 *L 0.00021 *D DFFQXL
*I *537:CK I *C 5.485 31.965 *L 0.00021 *D DFFQXL
*I *536:CK I *C 5.685 21.705 *L 0.00021 *D DFFQXL
*I *535:CK I *C 7.3 7.695 *L 0.00021 *D DFFRX1
*I *534:CK I *C 9.475 22.83 *L 0.00021 *D DFFHQX1
*I *533:CK I *C 15.275 31.89 *L 0.00021 *D DFFHQX1
*I *532:CK I *C 13.075 9.15 *L 0.00021 *D DFFHQX1
*I *531:CK I *C 14.475 29.67 *L 0.00021 *D DFFHQX1
*I *530:CK I *C 12.475 26.25 *L 0.00021 *D DFFHQX1
*I *529:CK I *C 9.075 19.41 *L 0.00021 *D DFFHQX1
*I *528:CK I *C 12.675 25.05 *L 0.00021 *D DFFHQX1
*I *525:CK I *C 8.875 14.79 *L 0.00021 *D DFFHQX1
*I *524:CK I *C 9.075 26.25 *L 0.00021 *D DFFHQX1
*I *523:CK I *C 11.275 11.37 *L 0.00021 *D DFFHQX1
*I *522:CK I *C 12.475 19.41 *L 0.00021 *D DFFHQX1
*I *521:CK I *C 11.275 12.57 *L 0.00021 *D DFFHQX1
*I *520:CK I *C 9.275 25.05 *L 0.00021 *D DFFHQX1
*I *519:CK I *C 10.675 15.99 *L 0.00021 *D DFFHQX1
*I *518:CK I *C 11.675 28.47 *L 0.00021 *D DFFHQX1
*I *517:CK I *C 9.075 21.63 *L 0.00021 *D DFFHQX1
*I *431:CK I *C 13.885 15.915 *L 0.00021 *D DFFQXL
*I *430:CK I *C 36.885 15.915 *L 0.00021 *D DFFQXL
*I *428:CK I *C 17.285 9.075 *L 0.00021 *D DFFQXL
*I *427:CK I *C 23.685 31.965 *L 0.00021 *D DFFQXL
*I *426:CK I *C 34.485 31.965 *L 0.00021 *D DFFQXL
*I *424:CK I *C 36.485 26.175 *L 0.00021 *D DFFQXL
*I *423:CK I *C 18.885 31.965 *L 0.00021 *D DFFQXL
*I *421:CK I *C 36.885 18.285 *L 0.00021 *D DFFQXL
*I *420:CK I *C 16.885 21.705 *L 0.00021 *D DFFQXL
*I *419:CK I *C 34.285 29.595 *L 0.00021 *D DFFQXL
*I *418:CK I *C 12.685 21.705 *L 0.00021 *D DFFQXL
*I *417:CK I *C 17.285 28.545 *L 0.00021 *D DFFQXL
*I *416:CK I *C 17.285 14.865 *L 0.00021 *D DFFQXL
*I *415:CK I *C 36.685 28.545 *L 0.00021 *D DFFQXL
*I *414:CK I *C 27.285 31.965 *L 0.00021 *D DFFQXL
*I *413:CK I *C 19.285 8.025 *L 0.00021 *D DFFQXL
*I *362:CK I *C 35.285 5.655 *L 0.00021 *D DFFQXL
*I *353:CK I *C 36.485 8.025 *L 0.00021 *D DFFQXL
*I *352:CK I *C 36.485 12.495 *L 0.00021 *D DFFQXL
*I *344:CK I *C 19.885 19.335 *L 0.00021 *D DFFQXL
*I *335:CK I *C 29.475 7.95 *L 0.00021 *D DFFHQX1
*I *334:CK I *C 29.875 14.79 *L 0.00021 *D DFFHQX1
*I *333:CK I *C 26.075 7.95 *L 0.00021 *D DFFHQX1
*I *332:CK I *C 26.475 14.79 *L 0.00021 *D DFFHQX1
*I *330:CK I *C 20.885 29.595 *L 0.00021 *D DFFQXL
*I *329:CK I *C 30.885 29.595 *L 0.00021 *D DFFQXL
*I *325:CK I *C 16.085 19.335 *L 0.00021 *D DFFQXL
*I *324:CK I *C 36.885 19.335 *L 0.00021 *D DFFQXL
*I *323:CK I *C 16.885 25.125 *L 0.00021 *D DFFQXL
*I *321:CK I *C 36.485 22.755 *L 0.00021 *D DFFQXL
*I *320:CK I *C 17.285 12.495 *L 0.00021 *D DFFQXL
*I *319:CK I *C 27.485 29.595 *L 0.00021 *D DFFQXL
*I *318:CK I *C 16.285 26.175 *L 0.00021 *D DFFQXL
*I *317:CK I *C 34.485 14.865 *L 0.00021 *D DFFQXL
*I *316:CK I *C 18.485 18.285 *L 0.00021 *D DFFQXL
*I *315:CK I *C 31.285 28.545 *L 0.00021 *D DFFQXL
*I *314:CK I *C 36.485 21.705 *L 0.00021 *D DFFQXL
*I *313:CK I *C 36.485 11.445 *L 0.00021 *D DFFQXL
*I *312:CK I *C 24.285 29.595 *L 0.00021 *D DFFQXL
*I *311:CK I *C 22.685 8.025 *L 0.00021 *D DFFQXL
*I *307:CK I *C 31.685 5.655 *L 0.00021 *D DFFQXL

*CAP
1 *324:CK 1.02496e-05
2 *421:CK 1.23375e-05
3 *430:CK 1.41881e-05
4 *415:CK 7.21794e-05
5 *424:CK 1.6508e-05
6 *321:CK 7.80846e-06
7 *314:CK 2.78331e-05
8 *352:CK 9.17929e-06
9 *313:CK 4.18999e-05
10 *353:CK 5.45379e-05
11 *362:CK 3.73709e-05
12 *426:CK 0.000109793
13 *317:CK 2.0979e-05
14 *419:CK 2.0979e-05
15 *307:CK 0.000110805
16 *315:CK 4.13674e-05
17 *329:CK 2.03252e-05
18 *334:CK 1.83586e-05
19 *335:CK 1.41248e-05
20 *319:CK 2.26503e-05
21 *414:CK 9.07753e-05
22 *332:CK 2.80124e-05
23 *333:CK 1.43041e-05
24 *312:CK 2.24131e-05
25 *427:CK 2.1696e-05
26 *311:CK 1.45413e-05
27 *330:CK 0.000109851
28 *344:CK 8.83341e-05
29 *413:CK 1.19789e-05
30 *423:CK 2.06837e-05
31 *316:CK 4.67295e-05
32 *417:CK 8.5176e-05
33 *416:CK 2.84289e-05
34 *320:CK 2.9921e-05
35 *428:CK 1.52584e-05
36 *323:CK 5.6146e-05
37 *420:CK 7.50793e-06
38 *318:CK 4.75045e-05
39 *325:CK 4.98297e-05
40 *553:CK 5.0842e-05
41 *531:CK 8.12427e-05
42 *431:CK 0.000106392
43 *532:CK 1.46046e-05
44 *418:CK 9.27472e-05
45 *528:CK 2.50915e-05
46 *530:CK 3.71917e-05
47 *522:CK 0.000112118
48 *548:CK 2.15168e-05
49 *518:CK 7.93341e-05
50 *521:CK 4.2675e-05
51 *523:CK 6.25836e-06
52 *519:CK 3.31424e-05
53 *534:CK 6.97541e-06
54 *520:CK 1.44253e-05
55 *524:CK 2.59878e-05
56 *517:CK 1.60914e-05
57 *529:CK 2.05044e-05
58 *525:CK 3.10546e-05
59 *538:CK 2.11582e-05
60 *551:CK 0.000113726
61 *535:CK 6.37172e-05
62 *549:CK 3.26047e-05
63 *552:CK 3.31424e-05
64 *547:CK 3.92215e-05
65 *539:CK 5.89984e-06
66 *550:CK 3.85625e-05
67 *543:CK 6.43763e-06
68 *536:CK 3.3617e-05
69 *541:CK 3.45133e-05
70 *542:CK 2.77171e-05
71 *546:CK 6.1371e-06
72 *545:CK 2.59878e-05
73 *537:CK 3.803e-05
74 *540:CK 1.7167e-05
75 *9 0.000262261
76 *9:76 0.000136376
77 *9:77 0.00013441
78 *9:78 0.000135839
79 *9:79 0.000220419
80 *9:80 0.000219586
81 *9:81 3.96381e-05
82 *9:82 0.000170109
83 *9:83 0.000121535
84 *9:84 0.000240027
85 *9:85 0.000201939
86 *9:86 0.000215589
87 *9:87 0.000216781
88 *9:88 0.000111997
89 *9:89 4.94711e-05
90 *9:90 0.000137747
91 *9:91 0.000220777
92 *9:92 0.000211118
93 *9:93 0.00029892
94 *9:94 0.000288723
95 *9:95 0.000293315
96 *9:96 0.000125289
97 *9:97 0.000188647
98 *9:98 0.00024289
99 *9:99 0.000199261
100 *9:100 0.000146568
101 *9:101 0.000179531
102 *9:102 0.000250936
103 *9:103 0.00011903
104 *9:104 5.14377e-05
105 *9:105 0.000163435
106 *9:106 0.000164805
107 *9:107 0.000160577
108 *9:108 0.000123796
109 *9:109 0.000255106
110 *9:110 0.000142814
111 *9:111 0.000260352
112 *9:112 0.000107884
113 *9:113 0.000160276
114 *9:114 0.000142872
115 *9:115 6.25256e-05
116 *9:116 0.00017476
117 *9:117 0.000143705
118 *9:118 0.000162422
119 *9:119 0.000142218
120 *9:120 0.000209689
121 *9:121 8.67261e-05
122 *9:122 0.000180544
123 *9:123 0.000222443
124 *9:124 0.000153127
125 *9:125 0.000190139
126 *9:126 0.000220477
127 *9:127 4.58384e-05
128 *9:128 0.000118076
129 *9:129 0.000224115
130 *9:130 0.000139593
131 *9:131 0.000156343
132 *9:132 0.000161948
133 *9:133 0.000194015
134 *9:134 0.000127376
135 *9:135 7.50424e-05
136 *9:136 0.00014621
137 *9:137 0.000178635
138 *9:138 0.000177264
139 *9:139 0.000112118
140 *9:140 9.4893e-05
141 *9:141 6.81882e-05
142 *9:142 0.000119389
143 *9:143 0.000130477
144 *9:144 0.000129939
145 *9:145 0.000170647
146 *9:146 6.4371e-05
147 *9:147 8.69053e-05
148 *9:148 6.4371e-05
149 *9:149 8.57717e-05
150 *9:150 5.21548e-05
151 *9:151 0.000189839
152 *9:152 0.000345528125
153 *9:150 *519:D 2.98023e-07
154 *542:CK *519:D 3.56436e-05
155 *9:130 *519:D 5.23329e-05
156 *9:122 *519:D 2.95639e-05
157 *431:CK *519:D 4.35113488e-05
158 *545:CK *116:2 4.52995e-06
159 *9:120 *116:2 0.00010246
160 *9:117 *116:2 2.67625e-05
161 *9:108 *116:2 4.1902436e-05
162 *536:CK *517:D 8.46386e-06
163 *549:CK *517:D 4.17233e-07
164 *9:128 *517:D 6.22869e-05
165 *9:124 *517:D 1.0252e-05
166 *418:CK *517:D 3.41534195e-05
167 *9:131 *101:2 7.92742e-06
168 *538:CK *101:2 1.43051e-06
169 *9:119 *101:2 6.06179e-05
170 *431:CK *523:D 6.19888e-06
171 *9:116 *101:2 2.86102587e-05
172 *9:125 *88:4 2.3365e-05
173 *9:123 *88:4 6.16908245e-05
174 *9:109 *8:110 6.25849e-06
175 *316:CK *8:101 5.48363e-05
176 *9:101 *8:100 3.12924e-05
177 *413:CK *8:100 5.48363e-06
178 *9:99 *8:100 7.33137e-06
179 *9:80 *8:69 0
180 *9:79 *8:69 0
181 *9:78 *8:66 1.90735e-06
182 *9:77 *8:69 0
183 *9:77 *466:C0 7.21217309e-06
184 *332:CK *145:4 7.98702e-06
185 *9:91 *145:4 7.64132e-05
186 *9:85 *145:4 7.76649e-05
187 *9:82 *145:4 3.42129759e-05
188 *9:84 *46:3 5.77569e-05
189 *9:84 *46:4 0.000112116
190 *353:CK *46:3 2.68254325e-06

*RES
1 *9:152 *9 15.1326
2 *540:CK *9:152 10.0723
3 *537:CK *9:151 7.16774
4 *9:150 *9:149 6.8845
5 *9:148 *9:147 6.8845
6 *9:146 *9:145 6.8845
7 *545:CK *9:144 6.98974
8 *546:CK *9:150 3.43134
9 *542:CK *9:150 4.14447
10 *541:CK *9:143 7.10701
11 *536:CK *9:142 7.01661
12 *543:CK *9:148 3.43134
13 *550:CK *9:148 4.14447
14 *539:CK *9:146 3.43134
15 *547:CK *9:146 4.14447
16 *9:141 *9:140 3.33618
17 *9:140 *9:152 5.04765
18 *9:144 *9:139 3.33618
19 *9:139 *9:140 0.763514
20 *9:138 *9:139 2.57014
21 *9:149 *9:138 1.84833
22 *9:137 *9:149 0.188919
23 *9:143 *9:136 3.33618
24 *9:136 *9:137 3.34877
25 *9:142 *9:135 3.33618
26 *9:135 *9:136 1.19425
27 *9:134 *9:135 0.852237
28 *9:147 *9:134 1.84833
29 *9:133 *9:147 0.188919
30 *9:145 *9:133 2.19986
31 *9:151 *9:145 5.70061
32 *552:CK *9:138 10.3091
33 *549:CK *9:134 10.3091
34 *535:CK *9:141 8.05384
35 *551:CK *9:132 12.7556
36 *9:131 *9:151 2.17719
37 *538:CK *9:131 6.80502
38 *9:130 *9:137 5.66478
39 *525:CK *9:130 10.3721
40 *9:129 *9:143 2.47946
41 *9:128 *9:142 2.47946
42 *529:CK *9:129 10.2296
43 *517:CK *9:128 10.0877
44 *524:CK *9:127 7.42775
45 *9:127 *9:126 3.33618
46 *9:126 *9:133 5.96705
47 *520:CK *9:127 7.01493
48 *534:CK *9:125 6.75632
49 *9:124 *9:128 0.514141
50 *9:125 *9:124 4.33339
51 *9:123 *9:125 7.5036
52 *9:122 *9:130 1.42123
53 *519:CK *9:122 10.5048
54 *523:CK *9:121 6.75632
55 *521:CK *9:132 7.65446
56 *9:120 *9:144 4.29393
57 *9:121 *9:120 5.05129
58 *9:132 *9:121 0.124827
59 *518:CK *9:123 11.6693
60 *9:119 *9:131 2.47946
61 *548:CK *9:119 6.80502
62 *522:CK *9:129 12.8563
63 *530:CK *9:118 7.42775
64 *9:118 *9:126 5.96705
65 *528:CK *9:118 7.01493
66 *418:CK *9:124 9.13334
67 *9:117 *9:120 1.26982
68 *532:CK *9:117 10.0782
69 *431:CK *9:122 9.68415
70 *9:116 *9:119 1.87464
71 *531:CK *9:116 18.3422565
72 *9:115 *9:114 3.43749
73 *9:114 *9:116 0.816412
74 *533:CK *9:115 6.60014
75 *553:CK *9:115 4.52203
76 *325:CK *9:113 7.59456
77 *318:CK *9:112 7.44343
78 *420:CK *9:111 3.35185
79 *323:CK *9:112 7.71435
80 *9:113 *9:110 0.363005
81 *9:111 *9:113 5.05129
82 *9:112 *9:109 3.33618
83 *9:109 *9:111 10.2943
84 *9:108 *9:117 3.23542
85 *428:CK *9:108 6.77815
86 *320:CK *9:107 10.3262
87 *416:CK *9:106 10.3366
88 *417:CK *9:109 11.8233
89 *9:105 *9:108 3.54805
90 *9:107 *9:105 2.48702
91 *9:106 *9:107 1.76885
92 *9:104 *9:103 3.33618
93 *9:103 *9:106 2.34344
94 *9:110 *9:103 4.12068
95 *316:CK *9:104 7.62143
96 *9:102 *9:114 2.78173
97 *423:CK *9:102 6.80502
98 *9:101 *9:105 5.3877
99 *413:CK *9:101 6.7885
100 *344:CK *9:110 8.65279
101 *330:CK *9:100 9.38999
102 *9:99 *9:101 2.6306
103 *311:CK *9:99 6.7885
104 *9:98 *9:102 3.68911
105 *427:CK *9:98 6.80502
106 *9:100 *9:97 0.21159
107 *312:CK *9:100 6.80502
108 *9:97 *9:98 8.85094
109 *9:96 *9:99 2.6306
110 *333:CK *9:96 10.0886
111 *332:CK *9:95 10.3086
112 *9:94 *9:96 0.514141
113 *9:95 *9:94 11.6327
114 *414:CK *9:93 15.2023
115 *9:93 *9:97 2.32833
116 *319:CK *9:93 6.80502
117 *9:92 *9:94 2.17719
118 *335:CK *9:92 10.0886
119 *9:91 *9:95 2.47946
120 *334:CK *9:91 10.097
121 *9:90 *9:93 2.6306
122 *329:CK *9:90 6.80502
123 *9:89 *9:88 3.35717
124 *9:88 *9:90 0.363005
125 *315:CK *9:89 4.28777
126 *307:CK *9:87 9.43562
127 *9:86 *9:88 2.32833
128 *419:CK *9:86 6.80502
129 *9:85 *9:91 3.53769
130 *317:CK *9:85 6.80502
131 *426:CK *9:86 15.2938
132 *9:87 *9:84 8.32925
133 *9:84 *9:92 4.29393
134 *362:CK *9:87 7.01661
135 *9:83 *9:82 1.58356
136 *9:81 *9:80 0.0906813
137 *353:CK *9:84 7.90747
138 *313:CK *9:83 4.28777
139 *352:CK *9:83 3.35465
140 *314:CK *9:81 4.22228
141 *321:CK *9:81 3.50411
142 *424:CK *9:79 3.65524
143 *9:82 *9:85 5.05996
144 *9:78 *9:82 0.986579
145 *9:77 *9:78 1.64038
146 *9:76 *9:77 1.06579
147 *9:80 *9:76 2.50213
148 *9:79 *9:80 2.93315
149 *415:CK *9:79 4.77448
150 *430:CK *9:78 3.49263
151 *421:CK *9:77 3.44785
152 *324:CK *9:76 3.44785
*END

*D_NET *10 0.00061059

*CONN
*I *299:A I *C 10.535 5.775 *L 0.00021 *D DLY3X1
*P *10 I *C 0 2.375 *L 0

*CAP
1 *299:A 8.95271e-05
2 *10 0.000215768
3 *10:2 0.000305295

*RES
1 *10:2 *10 11.1632347
2 *299:A *10:2 5.84428
*END

*D_NET *11 0.00100493

*CONN
*P *11 I *C 0 42.655 *L 0
*I *538:D I *C 11.17 31.705 *L 0.00021 *D DFFQXL

*CAP
1 *11 0.000237045
2 *11:2 0.000502467148
3 *11:3 0.000265422

*RES
1 *538:D *11:3 3.2999
2 *11:3 *11:2 8.16825
3 *11:2 *11 11.7783546
*END

*D_NET *12 0.00107193

*CONN
*P *12 I *C 0 40.185 *L 0
*I *553:D I *C 17.97 33.275 *L 0.00021 *D DFFQXL

*CAP
1 *12 0.000366093
2 *553:D 0.000169871
3 *12:2 0.000535964961

*RES
1 *553:D *12:2 8.45371
2 *12:2 *12 16.9187775
*END

*D_NET *13 0.000923991

*CONN
*P *13 I *C 0 37.905 *L 0
*I *548:D I *C 14.37 31.705 *L 0.00021 *D DFFQXL

*CAP
1 *13 0.000309287
2 *548:D 0.000152708
3 *13:2 0.000461995586

*RES
1 *548:D *13:2 7.87769
2 *13:2 *13 14.1973495
*END

*D_NET *14 0.000576973

*CONN
*P *14 I *C 0 35.435 *L 0
*I *537:D I *C 7.97 31.705 *L 0.00021 *D DFFQXL

*CAP
1 *14 0.000174342
2 *537:D 0.000114144
3 *14:2 0.000288486484

*RES
1 *537:D *14:2 6.01069
2 *14:2 *14 9.35935974
*END

*D_NET *15 0.000619292

*CONN
*P *15 I *C 0 33.155 *L 0
*I *547:D I *C 8.17 29.855 *L 0.00021 *D DFFQXL

*CAP
1 *15 0.00017303
2 *547:D 0.000136616
3 *15:2 0.000309646133

*RES
1 *547:D *15:2 5.80221
2 *15:2 *15 9.43112373
*END

*D_NET *16 0.000547051

*CONN
*P *16 I *C 0 30.685 *L 0
*I *539:D I *C 8.17 28.285 *L 0.00021 *D DFFQXL

*CAP
1 *16 0.000273525723
2 *539:D 0.000273525723

*RES
1 *539:D *16 14.6363
*END

*D_NET *17 0.000508428

*CONN
*P *17 I *C 0 28.405 *L 0
*I *550:D I *C 8.17 26.435 *L 0.00021 *D DFFQXL

*CAP
1 *17 0.000204147
2 *550:D 5.0067e-05
3 *17:2 0.000254213809

*RES
1 *550:D *17:2 4.29484
2 *17:2 *17 10.002017
*END

*D_NET *18 0.000542045

*CONN
*P *18 I *C 0 25.935 *L 0
*I *543:D I *C 8.17 24.865 *L 0.00021 *D DFFQXL

*CAP
1 *18 0.000271022324
2 *543:D 0.000271022324

*RES
1 *543:D *18 13.5117
*END

*D_NET *19 0.000520706

*CONN
*P *19 I *C 0 23.655 *L 0
*I *549:D I *C 8.37 23.015 *L 0.00021 *D DFFQXL

*CAP
1 *19 0.000260353086
2 *549:D 0.000260353086

*RES
1 *549:D *19 13.5362
*END

*D_NET *20 0.000465631

*CONN
*P *20 I *C 0 21.375 *L 0
*I *536:D I *C 8.17 21.445 *L 0.00021 *D DFFQXL

*CAP
1 *20 0.000232815742
2 *536:D 0.000232815742

*RES
1 *536:D *20 13.1593
*END

*D_NET *21 0.000430465

*CONN
*P *21 I *C 0 18.905 *L 0
*I *541:D I *C 8.17 19.595 *L 0.00021 *D DFFQXL

*CAP
1 *21 0.000215232363
2 *541:D 0.000215232363

*RES
1 *541:D *21 13.2897
*END

*D_NET *22 0.000421286

*CONN
*P *22 I *C 0 16.625 *L 0
*I *542:D I *C 8.17 16.175 *L 0.00021 *D DFFQXL

*CAP
1 *22 0.000210642813
2 *542:D 0.000210642813

*RES
1 *542:D *22 13.0999
*END

*D_NET *23 0.000413537

*CONN
*P *23 I *C 0 14.155 *L 0
*I *546:D I *C 8.17 14.605 *L 0.00021 *D DFFQXL

*CAP
1 *23 0.000206768516
2 *546:D 0.000206768516

*RES
1 *546:D *23 13.0894
*END

*D_NET *24 0.000470638

*CONN
*P *24 I *C 0 11.875 *L 0
*I *552:D I *C 8.37 12.755 *L 0.00021 *D DFFQXL

*CAP
1 *24 0.000235319141
2 *552:D 0.000235319141

*RES
1 *552:D *24 13.5715
*END

*D_NET *25 0.000647604

*CONN
*P *25 I *C 0 9.405 *L 0
*I *551:D I *C 10.57 11.185 *L 0.00021 *D DFFQXL

*CAP
1 *25 0.000235916
2 *551:D 3.89809e-05
3 *25:2 0.000274896621
4 *25:2 *116:2 9.78112207e-05

*RES
1 *551:D *25:2 4.1523
2 *25:2 *25 12.1837854
*END

*D_NET *26 0.000583529

*CONN
*P *26 I *C 0 7.125 *L 0
*I *545:D I *C 8.17 9.335 *L 0.00021 *D DFFQXL

*CAP
1 *26 0.000253735
2 *545:D 3.80294e-05
3 *26:2 0.000291764727

*RES
1 *545:D *26:2 4.19259
2 *26:2 *26 10.5395317
*END

*D_NET *27 0.000359654

*CONN
*P *27 O *C 45.8 8.645 *L 0
*I *493:Y O *C 40.325 9.115 *L 0 *D NOR2XL

*CAP
1 *493:Y 0.000179827207
2 *27 0.000179827207

*RES
1 *27 *493:Y 13.4083
*END

*D_NET *28 0.000312209

*CONN
*P *28 O *C 45.8 10.925 *L 0
*I *495:Y O *C 40.325 11.405 *L 0 *D NOR2XL

*CAP
1 *28 6.52073e-05
2 *495:Y 9.08972e-05
3 *28:2 0.000156104561

*RES
1 *28:2 *495:Y 9.74774361
2 *28 *28:2 2.22245
*END

*D_NET *29 0.00030756

*CONN
*P *29 O *C 45.8 13.015 *L 0
*I *485:Y O *C 40.525 14.825 *L 0 *D NOR2XL

*CAP
1 *29 0.000104665
2 *485:Y 4.91153e-05
3 *29:2 0.00015377998

*RES
1 *29:2 *485:Y 7.85064697
2 *29 *29:2 3.73438
*END

*D_NET *30 0.00035584

*CONN
*P *30 O *C 45.8 15.105 *L 0
*I *486:Y O *C 40.725 15.955 *L 0 *D NOR2XL

*CAP
1 *486:Y 0.000177919863
2 *30 0.000177919863

*RES
1 *30 *486:Y 13.2041
*END

*D_NET *31 0.000344396

*CONN
*P *31 O *C 45.8 17.195 *L 0
*I *496:Y O *C 40.725 18.245 *L 0 *D NOR2XL

*CAP
1 *496:Y 0.000172197813
2 *31 0.000172197813

*RES
1 *31 *496:Y 12.9168
*END

*D_NET *32 0.000252962

*CONN
*P *32 O *C 45.8 19.285 *L 0
*I *487:Y O *C 40.725 19.375 *L 0 *D NOR2XL

*CAP
1 *32 0.00011146
2 *487:Y 1.5021e-05
3 *32:2 0.000126481055

*RES
1 *32:2 *487:Y 6.7782402
2 *32 *32:2 3.88547
*END

*D_NET *33 0.000293016

*CONN
*P *33 O *C 45.8 21.375 *L 0
*I *484:Y O *C 40.525 21.665 *L 0 *D NOR2XL

*CAP
1 *33 6.19879e-05
2 *484:Y 8.45203e-05
3 *33:2 0.000146508213

*RES
1 *33:2 *484:Y 9.50205326
2 *33 *33:2 2.2224
*END

*D_NET *34 0.000332952

*CONN
*P *34 O *C 45.8 23.655 *L 0
*I *488:Y O *C 40.525 22.795 *L 0 *D NOR2XL

*CAP
1 *34 7.64719e-05
2 *488:Y 9.00039e-05
3 *34:2 0.000166475781

*RES
1 *34:2 *488:Y 9.83572006
2 *34 *34:2 2.07127
*END

*D_NET *35 0.00036025

*CONN
*P *35 O *C 45.8 25.745 *L 0
*I *494:Y O *C 40.525 25.085 *L 0 *D NOR2XL

*CAP
1 *494:Y 0.000180125234
2 *35 0.000180125234

*RES
1 *35 *494:Y 13.3061
*END

*D_NET *36 0.000298619

*CONN
*P *36 O *C 45.8 27.835 *L 0
*I *499:Y O *C 40.725 26.215 *L 0 *D NOR2XL

*CAP
1 *36 0.000102579
2 *499:Y 4.67306e-05
3 *36:2 0.000149309639

*RES
1 *36:2 *499:Y 7.70699978
2 *36 *36:2 3.58314
*END

*D_NET *37 0.000259042

*CONN
*P *37 O *C 45.8 29.925 *L 0
*I *489:Y O *C 40.325 29.635 *L 0 *D NOR2XL

*CAP
1 *37 0.000107109
2 *489:Y 2.24119e-05
3 *37:2 0.000129520889

*RES
1 *37:2 *489:Y 6.98888302
2 *37 *37:2 3.8855
*END

*D_NET *38 0.000256181

*CONN
*P *38 O *C 45.8 32.015 *L 0
*I *492:Y O *C 40.525 31.925 *L 0 *D NOR2XL

*CAP
1 *38 0.000114262
2 *492:Y 1.38283e-05
3 *38:2 0.000128090381

*RES
1 *38:2 *492:Y 6.78861141
2 *38 *38:2 4.03675
*END

*D_NET *39 0.000810385

*CONN
*P *39 O *C 45.8 34.295 *L 0
*I *490:Y O *C 30.925 33.055 *L 0 *D NOR2XL

*CAP
1 *39 1.51395e-05
2 *490:Y 3.95781e-05
3 *39:2 0.000321626
4 *39:3 0.00034606457
5 *39:2 *8:75 8.79764551e-05

*RES
1 *39:3 *490:Y 7.71268
2 *39:2 *39:3 11.0179186
3 *39 *39:2 0.402648
*END

*D_NET *40 0.000677824

*CONN
*P *40 O *C 45.8 36.385 *L 0
*I *498:Y O *C 33.525 33.055 *L 0 *D NOR2XL

*CAP
1 *40 0.000249503
2 *498:Y 8.94095e-05
3 *40:2 0.000338911992

*RES
1 *40:2 *498:Y 8.99976
2 *40 *40:2 9.02593136
*END

*D_NET *41 0.000870347

*CONN
*P *41 O *C 45.8 38.475 *L 0
*I *491:Y O *C 31.525 33.055 *L 0 *D NOR2XL

*CAP
1 *41 0.000285926
2 *491:Y 0.000149248
3 *41:2 0.000435173516

*RES
1 *41:2 *491:Y 10.8253956
2 *41 *41:2 10.3867
*END

*D_NET *42 0.00095892

*CONN
*P *42 O *C 45.8 40.565 *L 0
*I *497:Y O *C 32.925 33.055 *L 0 *D NOR2XL

*CAP
1 *42 0.000262618
2 *497:Y 0.000216842
3 *42:2 0.000479459766

*RES
1 *42:2 *497:Y 12.2414827
2 *42 *42:2 9.78202
*END

*D_NET *43 0.000896931

*CONN
*P *43 O *C 45.8 0.285 *L 0
*I *378:A I *C 34.7 7.695 *L 0.000209 *D MX2XL
*I *362:Q O *C 34.9 6.175 *L 0 *D DFFQXL

*CAP
1 *43 0.000230253
2 *378:A 4.0232e-05
3 *43:3 0.000386655313
4 *43:4 0.000177979
5 *43:5 6.18082e-05

*RES
1 *43:5 *43:4 0.529117
2 *378:A *43:5 7.52222
3 *43:3 *43:4 7.78242
4 *43:4 *362:Q 3.30001
5 *43 *43:3 8.27002525
*END

*D_NET *44 0.00102639

*CONN
*P *44 O *C 45.8 2.375 *L 0
*I *368:A I *C 34.5 9.405 *L 0.000209 *D MX2XL
*I *353:Q O *C 36.1 7.505 *L 0 *D DFFQXL

*CAP
1 *44 0.000195862
2 *353:Q 4.94638e-06
3 *368:A 0.000119567
4 *44:3 0.000388681875
5 *44:4 4.94638e-06
6 *44:5 0.000312387

*RES
1 *368:A *44:5 15.4627562
2 *44:4 *353:Q 0.165868
3 *44:5 *44:4 3.2999
4 *44:3 *44:5 7.87861
5 *44 *44:3 7.36307
*END

*D_NET *45 0.00102544

*CONN
*P *45 O *C 45.8 4.465 *L 0
*I *322:A I *C 34.1 11.115 *L 0.000209 *D MX2XL
*I *313:Q O *C 36.1 10.925 *L 0 *D DFFQXL

*CAP
1 *45 0.000188527
2 *322:A 1.61525e-05
3 *45:3 0.000422239297
4 *45:4 0.000308038
5 *45:5 9.04785e-05

*RES
1 *45:5 *45:4 4.92956
2 *322:A *45:5 10.0705624
3 *45:4 *313:Q 3.29995
4 *45:3 *45:4 8.75658
5 *45 *45:3 6.90937
*END

*D_NET *46 0.00112003

*CONN
*P *46 O *C 45.8 6.555 *L 0
*I *308:A0N I *C 33.445 7.96 *L 0.000209 *D OAI2BB1X1
*I *307:Q O *C 31.3 6.175 *L 0 *D DFFQXL

*CAP
1 *46 0.000133035
2 *308:A0N 2.05045e-05
3 *307:Q 9.78091e-05
4 *46:3 0.000304639336
5 *46:4 0.000289918
6 *46:4 *9:84 0.000112116
7 *46:3 *353:CK 2.68221e-06
8 *46:3 *9:84 5.77572341e-05
9 *46:3 *495:B 0.000101566318

*RES
1 *46:4 *307:Q 9.50448
2 *308:A0N *46:4 10.0970268
3 *46:3 *46:4 6.47842
4 *46 *46:3 4.15769
*END

*D_NET *47 0.000824332

*CONN
*P *47 O *C 45.8 42.655 *L 0
*I *500:Y O *C 39.52 31.305 *L 0 *D NOR2BX1

*CAP
1 *47 0.000136731
2 *47:2 0.000143468
3 *47:3 0.000275433066
4 *47:4 0.000268696

*RES
1 *47:4 *500:Y 3.29989
2 *47:3 *47:4 8.16822052
3 *47:2 *47:3 3.35723
4 *47 *47:2 4.94386
*END

*D_NET *48 0.00136387

*CONN
*P *48 I *C 0 4.655 *L 0
*I *544:AN I *C 21.9 11.115 *L 0.00021 *D NAND2BX1

*CAP
1 *48 0.000639138
2 *544:AN 4.27986e-05
3 *48:2 0.000681936719

*RES
1 *544:AN *48:2 4.20014
2 *48:2 *48 24.426342
*END

*D_NET *49 0.000482321

*CONN
*I *478:B0 I *C 24 9.6 *L 0.000392 *D AOI21X1
*I *457:A0 I *C 21.56 9.27 *L 0.000212 *D AOI211XL
*I *311:Q O *C 22.3 7.505 *L 0 *D DFFQXL

*CAP
1 *478:B0 6.49687e-05
2 *457:A0 5.3053e-06
3 *311:Q 2.52129e-05
4 *49:3 7.16442e-05
5 *49:4 7.9632e-05
6 *49:5 9.28640332e-05
7 *478:B0 *144:4 0.000142693516

*RES
1 *49:5 *311:Q 3.82577
2 *49:4 *49:5 1.43712
3 *49:3 *49:4 3.34677
4 *457:A0 *49:4 3.37185
5 *478:B0 *49:3 8.65018368
*END

*D_NET *50 0.000241876

*CONN
*I *470:B0 I *C 16.8 10.92 *L 0.000392 *D AOI21X1
*I *456:A0 I *C 18.76 11.25 *L 0.000212 *D AOI211XL
*I *320:Q O *C 16.9 13.015 *L 0 *D DFFQXL

*CAP
1 *456:A0 4.40479e-05
2 *50:3 6.24659e-05
3 *50:4 5.84721e-05
4 *50:5 7.68899902e-05

*RES
1 *50:5 *50:4 4.35304642
2 *50:4 *320:Q 0.500026
3 *470:B0 *50:5 3.29992
4 *50:3 *50:5 3.59902
5 *456:A0 *50:3 1.71409
*END

*D_NET *51 0.000364304

*CONN
*I *477:B0 I *C 20.6 16.44 *L 0.000392 *D AOI21X1
*I *443:A0 I *C 18.56 16.11 *L 0.000212 *D AOI211XL
*I *316:Q O *C 18.1 17.765 *L 0 *D DFFQXL

*CAP
1 *477:B0 0.000125529
2 *443:A0 1.19211e-05
3 *316:Q 4.47048e-05
4 *51:3 0.000182151797

*RES
1 *51:3 *316:Q 4.28784
2 *443:A0 *51:3 3.576
3 *477:B0 *51:3 12.4803782
*END

*D_NET *52 0.000261068

*CONN
*I *471:B0 I *C 14.6 17.76 *L 0.000392 *D AOI21X1
*I *450:A0 I *C 15.56 18.09 *L 0.000212 *D AOI211XL
*I *325:Q O *C 15.7 19.855 *L 0 *D DFFQXL

*CAP
1 *450:A0 2.36041e-05
2 *325:Q 2.03248e-05
3 *471:B0 2.55111e-05
4 *52:3 8.14203e-05
5 *52:4 0.000110208984

*RES
1 *471:B0 *52:4 3.64402
2 *52:4 *52:3 4.40788269
3 *52:3 *325:Q 0.731105
4 *450:A0 *52:4 3.84116
*END

*D_NET *53 0.000180483

*CONN
*I *481:B0 I *C 34.4 16.44 *L 0.000392 *D AOI21X1
*I *449:A0 I *C 35.16 16.11 *L 0.000212 *D AOI211XL
*I *317:Q O *C 34.1 14.345 *L 0 *D DFFQXL

*CAP
1 *449:A0 2.65237e-05
2 *317:Q 6.37177e-05
3 *53:3 9.02414355e-05

*RES
1 *53:3 *317:Q 4.63807583
2 *481:B0 *53:3 3.29993
3 *449:A0 *53:3 3.83864
*END

*D_NET *54 0.000316024

*CONN
*I *472:B0 I *C 35 19.86 *L 0.000392 *D AOI21X1
*I *466:A0 I *C 35.16 18.09 *L 0.000212 *D AOI211XL
*I *324:Q O *C 36.5 19.855 *L 0 *D DFFQXL

*CAP
1 *324:Q 6.97401e-06
2 *466:A0 6.04383e-05
3 *472:B0 2.24708e-05
4 *54:3 7.51008e-05
5 *54:4 0.000151038174

*RES
1 *54:4 *54:3 11.041522
2 *472:B0 *54:4 6.94779
3 *466:A0 *54:4 4.58233
4 *54:3 *324:Q 0.239579
*END

*D_NET *55 0.000424981

*CONN
*I *476:B0 I *C 17 23.28 *L 0.000392 *D AOI21X1
*I *464:A0 I *C 15.16 22.95 *L 0.000212 *D AOI211XL
*I *323:Q O *C 16.5 24.605 *L 0 *D DFFQXL

*CAP
1 *476:B0 9.03007e-05
2 *323:Q 2.40794e-05
3 *464:A0 3.99353e-05
4 *55:3 4.00536e-05
5 *55:4 0.000146210195
6 *476:B0 *8:103 8.44001758e-05

*RES
1 *464:A0 *55:4 4.2373
2 *55:4 *55:3 3.68973
3 *55:3 *323:Q 0.976727
4 *476:B0 *55:4 15.5215263
*END

*D_NET *56 0.000509024

*CONN
*I *473:B0 I *C 21 23.28 *L 0.000392 *D AOI21X1
*I *463:A0 I *C 18.36 22.95 *L 0.000212 *D AOI211XL
*I *344:Q O *C 19.5 19.855 *L 0 *D DFFQXL

*CAP
1 *473:B0 0.000119627
2 *344:Q 1.16829e-05
3 *463:A0 8.28514e-06
4 *56:3 0.0001266
5 *56:4 0.000242829316

*RES
1 *56:4 *56:3 6.09091
2 *463:A0 *56:4 3.40248
3 *56:3 *344:Q 0.485326
4 *473:B0 *56:4 12.1769905
*END

*D_NET *57 0.000523329

*CONN
*I *480:B0 I *C 33.2 24.6 *L 0.000392 *D AOI21X1
*I *455:A0 I *C 34.56 24.93 *L 0.000212 *D AOI211XL
*I *314:Q O *C 36.1 21.185 *L 0 *D DFFQXL

*CAP
1 *314:Q 6.61604e-06
2 *455:A0 1.00136e-05
3 *480:B0 6.37163e-05
4 *57:3 0.000187934
5 *57:4 0.000255048281

*RES
1 *480:B0 *57:4 4.44529
2 *57:4 *57:3 13.432622
3 *455:A0 *57:4 3.57583
4 *57:3 *314:Q 0.239605
*END

*D_NET *58 0.000304103

*CONN
*I *469:B0 I *C 36.2 24.6 *L 0.000392 *D AOI21X1
*I *462:A0 I *C 37.56 24.93 *L 0.000212 *D AOI211XL
*I *321:Q O *C 36.1 23.275 *L 0 *D DFFQXL

*CAP
1 *462:A0 7.12276e-05
2 *321:Q 7.39693e-05
3 *58:3 7.80823e-05
4 *58:4 8.08238965e-05

*RES
1 *58:4 *321:Q 4.36595
2 *58:3 *58:4 3.35722
3 *469:B0 *58:4 3.29999
4 *462:A0 *58:3 7.84575939
*END

*D_NET *59 0.000501871

*CONN
*I *483:B0 I *C 34.4 26.7 *L 0.000392 *D AOI21X1
*I *465:A0 I *C 34.76 28.35 *L 0.000212 *D AOI211XL
*I *315:Q O *C 30.9 28.025 *L 0 *D DFFQXL

*CAP
1 *465:A0 3.48684e-05
2 *483:B0 6.38366e-05
3 *315:Q 9.94209e-05
4 *59:3 0.000143051152
5 *59:4 7.25984e-05
6 *465:A0 *465:C0 8.80956641e-05

*RES
1 *59:4 *59:3 3.35718
2 *59:3 *315:Q 9.48059559
3 *483:B0 *59:4 4.2959
4 *465:A0 *59:3 7.23544
*END

*D_NET *60 0.000264645

*CONN
*I *474:B0 I *C 31 31.44 *L 0.000392 *D AOI21X1
*I *460:A0 I *C 32.56 31.77 *L 0.000212 *D AOI211XL
*I *329:Q O *C 30.5 30.115 *L 0 *D DFFQXL

*CAP
1 *460:A0 6.1393e-05
2 *474:B0 2.28886e-05
3 *329:Q 4.80407e-05
4 *60:3 0.000132322314

*RES
1 *60:3 *329:Q 4.41124
2 *474:B0 *60:3 3.6049
3 *460:A0 *60:3 4.86683846
*END

*D_NET *61 0.000317693

*CONN
*I *479:B0 I *C 25.8 28.02 *L 0.000392 *D AOI21X1
*I *459:A0 I *C 24.16 28.35 *L 0.000212 *D AOI211XL
*I *312:Q O *C 23.9 30.115 *L 0 *D DFFQXL

*CAP
1 *479:B0 6.22276e-05
2 *459:A0 8.52354e-06
3 *312:Q 1.7762e-05
4 *61:3 6.92009912e-05
5 *61:4 3.72525e-05
6 *61:5 3.95175e-05
7 *479:B0 *479:A1 8.32080859e-05

*RES
1 *61:5 *312:Q 3.79134
2 *61:4 *61:5 0.728473
3 *61:3 *61:4 3.34685
4 *459:A0 *61:4 3.35717
5 *479:B0 *61:3 7.95686245
*END

*D_NET *62 0.000206113

*CONN
*I *467:B0 I *C 27.6 28.02 *L 0.000392 *D AOI21X1
*I *458:A0 I *C 28.36 28.35 *L 0.000212 *D AOI211XL
*I *319:Q O *C 27.1 30.115 *L 0 *D DFFQXL

*CAP
1 *458:A0 2.47361e-05
2 *319:Q 2.95642e-05
3 *62:3 7.34923e-05
4 *62:4 7.83205029e-05

*RES
1 *62:4 *319:Q 3.93497944
2 *62:3 *62:4 0.944957
3 *467:B0 *62:3 3.29996
4 *458:A0 *62:3 3.83867
*END

*D_NET *63 0.000504017

*CONN
*I *482:B0 I *C 21.2 26.7 *L 0.000392 *D AOI21X1
*I *447:A0 I *C 19.56 26.37 *L 0.000212 *D AOI211XL
*I *318:Q O *C 15.9 26.695 *L 0 *D DFFQXL

*CAP
1 *482:B0 7.21207e-05
2 *447:A0 2.08613e-05
3 *318:Q 9.72164e-05
4 *63:3 0.000190198418
5 *482:B0 *482:A0 0.000123620029

*RES
1 *63:3 *318:Q 9.63175297
2 *447:A0 *63:3 6.8051
3 *482:B0 *63:3 8.0292
*END

*D_NET *64 0.000332832

*CONN
*I *468:B0 I *C 20 30.12 *L 0.000392 *D AOI21X1
*I *461:A0 I *C 18.36 29.79 *L 0.000212 *D AOI211XL
*I *330:Q O *C 20.5 30.115 *L 0 *D DFFQXL

*CAP
1 *468:B0 2.10994e-05
2 *330:Q 4.21405e-05
3 *461:A0 0.000103176
4 *64:3 0.000166416172

*RES
1 *461:A0 *64:3 8.07499886
2 *64:3 *330:Q 7.31908
3 *468:B0 *64:3 6.75919
*END

*D_NET *65 0.00102758

*CONN
*I *564:A I *C 25.3 9.595 *L 0.000395 *D INVX1
*I *526:B0 I *C 25.765 10.995 *L 0.000389 *D AOI22X1
*I *404:A I *C 26.18 9.06 *L 0.00021 *D MXI2XL
*I *401:A0 I *C 27.5 16.435 *L 0.000211 *D OA21X1
*I *400:A0 I *C 28.7 16.625 *L 0.000391 *D AOI21X1
*I *333:Q O *C 25.74 7.57 *L 0 *D DFFHQX1

*CAP
1 *400:A0 7.78439e-05
2 *401:A0 3.02792e-05
3 *404:A 1.10887e-05
4 *333:Q 4.18442e-05
5 *564:A 4.238e-05
6 *65:6 0.00032514334
7 *65:7 7.67127e-05
8 *65:8 0.000239073
9 *65:9 8.82131e-05
10 *65:6 *436:C 9.50098047e-05

*RES
1 *564:A *65:9 4.20473
2 *526:B0 *65:8 3.29998
3 *65:7 *333:Q 4.28785
4 *65:9 *65:7 0.699255
5 *65:8 *65:9 0.491459
6 *404:A *65:7 3.57586
7 *65:6 *65:8 11.5898848
8 *401:A0 *65:6 4.00312
9 *400:A0 *65:6 4.96305
*END

*D_NET *66 0.00122917

*CONN
*I *561:A I *C 25.7 16.435 *L 0.000395 *D INVX1
*I *527:B0 I *C 25.765 14.415 *L 0.000389 *D AOI22X1
*I *411:B I *C 28.1 12.635 *L 0.00021 *D MXI2XL
*I *407:B0 I *C 28.395 21.55 *L 0.000393 *D OAI21X1
*I *396:A0 I *C 27.3 18.145 *L 0.000391 *D OAI211X1
*I *332:Q O *C 26.14 14.41 *L 0 *D DFFHQX1

*CAP
1 *407:B0 0.000164031
2 *411:B 9.31045e-05
3 *396:A0 2.21735e-05
4 *332:Q 6.31736e-06
5 *66:6 0.000328838828
6 *66:7 0.000186264
7 *66:8 0.000231625
8 *66:9 0.000186324
9 *66:10 1.04921e-05

*RES
1 *527:B0 *66:10 0.499877
2 *66:10 *332:Q 0.239688
3 *66:9 *66:10 3.33633
4 *66:8 *66:9 1.56656
5 *561:A *66:8 3.29985
6 *66:7 *66:9 5.11575
7 *396:A0 *66:6 6.81195
8 *66:6 *66:8 6.04465
9 *411:B *66:7 8.18043
10 *407:B0 *66:6 19.7587013
*END

*D_NET *67 0.00306308

*CONN
*I *562:A I *C 29.3 19.855 *L 0.000395 *D INVX1
*I *527:A1 I *C 25.1 14.155 *L 0.000392 *D AOI22X1
*I *436:B I *C 27.7 11.115 *L 0.000211 *D NAND3BXL
*I *422:A I *C 26.54 11.17 *L 0.000392 *D NOR3X1
*I *406:B I *C 30.3 9.215 *L 0.00021 *D MXI2XL
*I *391:A0 I *C 25.7 20.045 *L 0.000391 *D AOI21X1
*I *390:A0 I *C 23.7 23.465 *L 0.000391 *D AOI21X1
*I *389:A0 I *C 30.5 23.465 *L 0.000391 *D AOI21X1
*I *387:A0 I *C 22.9 16.625 *L 0.000391 *D AOI21X1
*I *385:A0 I *C 28.1 19.475 *L 0.000391 *D OAI211X1
*I *382:A0 I *C 23.3 14.725 *L 0.000391 *D OAI211X1
*I *381:A0 I *C 25.3 22.895 *L 0.000391 *D OAI211X1
*I *335:Q O *C 29.14 7.57 *L 0 *D DFFHQX1

*CAP
1 *389:A0 0.000171126
2 *406:B 6.68171e-05
3 *335:Q 1.99668e-05
4 *385:A0 2.09201e-05
5 *436:B 3.42139e-05
6 *422:A 1.38858e-05
7 *391:A0 1.43646e-05
8 *381:A0 1.82996e-05
9 *527:A1 4.38686e-05
10 *390:A0 0.000104426
11 *382:A0 1.0608e-05
12 *387:A0 3.73741e-05
13 *67:13 0.000249922
14 *67:14 2.75365e-05
15 *67:15 0.000201283
16 *67:16 0.00020796
17 *67:17 0.00019723
18 *67:18 0.000169337
19 *67:19 0.000268875
20 *67:20 0.000138579
21 *67:21 0.000285267832
22 *67:22 0.000198723
23 *67:23 0.000153719
24 *67:24 0.000117659
25 *67:24 *218:6 0.000104069707
26 *67:13 *435:A 8.16583643e-05
27 *389:A0 *398:A 0.000105381016

*RES
1 *67:24 *67:23 4.83218
2 *387:A0 *67:24 4.65303
3 *382:A0 *67:24 3.71153
4 *390:A0 *67:22 11.9322538
5 *67:23 *67:21 4.32675
6 *527:A1 *67:23 7.31856
7 *67:20 *67:19 7.54305
8 *67:22 *67:20 1.76901
9 *381:A0 *67:22 3.58936
10 *67:21 *67:18 6.64271
11 *67:19 *67:21 3.34885
12 *391:A0 *67:20 3.58645
13 *422:A *67:18 6.70807
14 *67:18 *67:17 0.89725
15 *436:B *67:17 6.93111
16 *67:17 *67:16 9.99883
17 *67:15 *67:19 5.21108
18 *385:A0 *67:15 6.80165
19 *67:14 *335:Q 3.71499
20 *67:16 *67:14 3.35722
21 *67:13 *67:15 4.8351
22 *562:A *67:13 3.29987
23 *406:B *67:16 8.02936
24 *389:A0 *67:13 7.29853
*END

*D_NET *68 0.00313938

*CONN
*I *563:A I *C 24.1 24.605 *L 0.000395 *D INVX1
*I *526:A1 I *C 25.1 10.735 *L 0.000392 *D AOI22X1
*I *435:A I *C 30.57 19.71 *L 0.000212 *D NOR2XL
*I *432:A I *C 29.3 11.115 *L 0.00039 *D NAND2X1
*I *422:B I *C 26.7 11.115 *L 0.000393 *D NOR3X1
*I *410:A0 I *C 29.9 10.925 *L 0.000211 *D OA21X1
*I *379:A0 I *C 24.3 21.565 *L 0.000391 *D OAI211X1
*I *377:A0 I *C 22.7 24.985 *L 0.000391 *D OAI211X1
*I *376:A0 I *C 30.5 24.985 *L 0.000391 *D OAI211X1
*I *372:A0 I *C 23.7 18.145 *L 0.000391 *D OAI211X1
*I *334:Q O *C 29.54 14.41 *L 0 *D DFFHQX1

*CAP
1 *435:A 9.60218e-05
2 *376:A0 0.000214696
3 *410:A0 4.98906e-05
4 *432:A 3.16025e-06
5 *422:B 2.59289e-05
6 *526:A1 6.3836e-05
7 *379:A0 6.88415e-05
8 *563:A 3.83843e-05
9 *372:A0 7.75481e-05
10 *377:A0 8.60108e-05
11 *68:11 0.000338974
12 *68:12 0.000245869
13 *68:13 0.000154974
14 *68:14 0.000136135
15 *68:15 0.000161825
16 *68:16 0.000172138
17 *68:17 0.000347495078
18 *68:18 0.000271023
19 *68:19 9.7989e-05
20 *68:20 0.000188114
21 *68:20 *97:3 8.76188281e-05
22 *376:A0 *221:6 0.000131249424
23 *435:A *67:13 8.16583643e-05

*RES
1 *377:A0 *68:20 7.75231
2 *372:A0 *68:19 5.06277
3 *68:19 *68:18 6.80501
4 *68:18 *68:17 12.6947
5 *68:16 *68:18 1.27381
6 *68:20 *68:16 5.12612
7 *563:A *68:20 7.16786
8 *379:A0 *68:16 11.0184
9 *526:A1 *68:15 8.02932
10 *68:15 *68:14 2.02606
11 *422:B *68:15 6.93875
12 *68:14 *68:13 3.53579
13 *68:13 *68:12 3.11823
14 *432:A *68:13 3.3362
15 *68:12 *334:Q 3.29987
16 *68:17 *68:12 9.8029
17 *68:11 *68:17 0.763605
18 *410:A0 *68:14 7.32612
19 *376:A0 *68:11 14.8806572
20 *435:A *68:11 11.1993
*END

*D_NET *69 0.000244975

*CONN
*I *565:A I *C 20.7 9.595 *L 0.000395 *D INVX1
*I *413:Q O *C 18.9 7.505 *L 0 *D DFFQXL

*CAP
1 *413:Q 0.000122487549
2 *565:A 0.000122487549

*RES
1 *565:A *413:Q 15.7554
*END

*D_NET *70 5.3525e-05

*CONN
*I *559:A I *C 16.3 9.595 *L 0.000395 *D INVX1
*I *428:Q O *C 16.9 9.595 *L 0 *D DFFQXL

*CAP
1 *559:A 7.4507e-06
2 *428:Q 1.93118e-05
3 *70:2 2.67624854e-05

*RES
1 *70:2 *428:Q 3.6444664
2 *559:A *70:2 3.35718
*END

*D_NET *71 0.000288844

*CONN
*I *560:A I *C 20.3 14.345 *L 0.000395 *D INVX1
*I *416:Q O *C 16.9 14.345 *L 0 *D DFFQXL

*CAP
1 *416:Q 0.000144422051
2 *560:A 0.000144422051

*RES
1 *560:A *416:Q 16.6792
*END

*D_NET *72 0.000280142

*CONN
*I *569:A I *C 16.7 16.435 *L 0.000395 *D INVX1
*I *431:Q O *C 13.5 16.435 *L 0 *D DFFQXL

*CAP
1 *431:Q 0.000140070918
2 *569:A 0.000140070918

*RES
1 *569:A *431:Q 16.3462
*END

*D_NET *73 0.00037992

*CONN
*I *556:A I *C 39.7 16.435 *L 0.000395 *D INVX1
*I *430:Q O *C 36.5 16.435 *L 0 *D DFFQXL

*CAP
1 *556:A 0.000110685
2 *430:Q 4.88686e-06
3 *73:2 0.000138580801
4 *73:3 3.27828e-05
5 *556:A *141:5 9.29832422e-05

*RES
1 *73:3 *430:Q 0.165783
2 *73:2 *73:3 6.84991
3 *556:A *73:2 9.48059559
*END

*D_NET *74 0.000356078

*CONN
*I *558:A I *C 39.9 17.765 *L 0.000395 *D INVX1
*I *421:Q O *C 36.5 17.765 *L 0 *D DFFQXL

*CAP
1 *558:A 0.000105918
2 *421:Q 5.00774e-06
3 *74:2 0.000130593779
4 *74:3 2.96838e-05
5 *558:A *421:D 8.48770117e-05

*RES
1 *74:3 *421:Q 0.165887
2 *74:2 *74:3 6.84994
3 *558:A *74:2 9.58693027
*END

*D_NET *75 0.000264883

*CONN
*I *554:A I *C 15.5 21.185 *L 0.000395 *D INVX1
*I *418:Q O *C 12.3 21.185 *L 0 *D DFFQXL

*CAP
1 *554:A 0.00011009
2 *418:Q 2.23515e-05
3 *75:2 0.000132441523

*RES
1 *75:2 *418:Q 6.80504
2 *554:A *75:2 9.32943821
*END

*D_NET *76 0.000270128

*CONN
*I *566:A I *C 20.1 21.185 *L 0.000395 *D INVX1
*I *420:Q O *C 16.5 21.185 *L 0 *D DFFQXL

*CAP
1 *566:A 0.000115753
2 *420:Q 1.93111e-05
3 *76:2 0.000135064121

*RES
1 *76:2 *420:Q 6.80503
2 *566:A *76:2 9.58693027
*END

*D_NET *77 0.000301242

*CONN
*I *570:A I *C 39.5 28.025 *L 0.000395 *D INVX1
*I *415:Q O *C 36.3 28.025 *L 0 *D DFFQXL

*CAP
1 *570:A 0.000129759
2 *415:Q 2.08619e-05
3 *77:2 0.000150620938

*RES
1 *77:2 *415:Q 6.80507
2 *570:A *77:2 9.35590267
*END

*D_NET *78 0.000290513

*CONN
*I *573:A I *C 39.7 26.695 *L 0.000395 *D INVX1
*I *424:Q O *C 36.1 26.695 *L 0 *D DFFQXL

*CAP
1 *573:A 0.000124096
2 *424:Q 2.11607e-05
3 *78:2 0.000145256523

*RES
1 *78:2 *424:Q 6.8051
2 *573:A *78:2 9.63175297
*END

*D_NET *79 0.000276446

*CONN
*I *567:A I *C 37.3 30.115 *L 0.000395 *D INVX1
*I *419:Q O *C 33.9 30.115 *L 0 *D DFFQXL

*CAP
1 *567:A 0.000117897
2 *419:Q 2.03259e-05
3 *79:2 0.000138223174

*RES
1 *79:2 *419:Q 6.80506
2 *567:A *79:2 9.43565369
*END

*D_NET *80 0.000241637

*CONN
*I *557:A I *C 37.3 31.445 *L 0.000395 *D INVX1
*I *426:Q O *C 34.1 31.445 *L 0 *D DFFQXL

*CAP
1 *426:Q 0.000120818613
2 *557:A 0.000120818613

*RES
1 *557:A *426:Q 16.0359
*END

*D_NET *81 0.000211477

*CONN
*I *568:A I *C 25.3 33.535 *L 0.000395 *D INVX1
*I *427:Q O *C 23.3 31.445 *L 0 *D DFFQXL

*CAP
1 *568:A 4.04125e-05
2 *427:Q 6.53261e-05
3 *81:2 0.000105738643

*RES
1 *81:2 *427:Q 8.15856457
2 *568:A *81:2 1.7141
*END

*D_NET *82 0.000185966

*CONN
*I *555:A I *C 28.5 33.535 *L 0.000395 *D INVX1
*I *414:Q O *C 26.9 31.445 *L 0 *D DFFQXL

*CAP
1 *555:A 4.78629e-05
2 *414:Q 4.51203e-05
3 *82:2 9.29832422e-05

*RES
1 *82:2 *414:Q 7.69042969
2 *555:A *82:2 2.00287
*END

*D_NET *83 0.000388265

*CONN
*I *571:A I *C 20.7 28.025 *L 0.000395 *D INVX1
*I *417:Q O *C 16.9 28.025 *L 0 *D DFFQXL

*CAP
1 *571:A 0.000126063
2 *417:Q 1.76435e-05
3 *83:2 0.000143706797
4 *571:A *482:A0 0.000100851055

*RES
1 *83:2 *417:Q 3.71489
2 *571:A *83:2 13.3519173
*END

*D_NET *84 0.000139236

*CONN
*I *572:A I *C 19.5 33.535 *L 0.000395 *D INVX1
*I *423:Q O *C 18.5 31.445 *L 0 *D DFFQXL

*CAP
1 *423:Q 6.96182227e-05
2 *572:A 6.96182227e-05

*RES
1 *572:A *423:Q 8.76117
*END

*D_NET *85 0.000826716

*CONN
*I *523:Q O *C 10.94 10.99 *L 0 *D DFFHQX1
*I *501:A I *C 23.1 9.595 *L 0.000212 *D INVXL
*I *478:A0 I *C 23.5 9.785 *L 0.000391 *D AOI21X1

*CAP
1 *478:A0 2.62258e-05
2 *501:A 1.38861e-05
3 *523:Q 1.35908e-05
4 *85:3 0.00035190582
5 *85:4 6.42543e-05
6 *85:5 0.000335512
7 *85:6 2.13393e-05

*RES
1 *85:6 *523:Q 3.5724
2 *85:5 *85:6 3.34674
3 *85:4 *85:3 3.76923
4 *85:3 *85:5 9.6912384
5 *501:A *85:4 3.64767
6 *478:A0 *85:4 3.80649
*END

*D_NET *86 0.00150347

*CONN
*I *533:Q O *C 14.94 31.51 *L 0 *D DFFHQX1
*I *504:A I *C 15.9 10.925 *L 0.000212 *D INVXL
*I *470:A0 I *C 16.3 10.735 *L 0.000391 *D AOI21X1

*CAP
1 *470:A0 5.19708e-05
2 *504:A 4.83944e-05
3 *533:Q 0.000190434
4 *86:3 8.6549e-05
5 *86:4 0.000509318
6 *86:5 0.000616788867

*RES
1 *86:5 *533:Q 8.1002
2 *86:4 *86:5 10.8062029
3 *504:A *86:4 4.73926
4 *86:3 *86:4 7.41855
5 *470:A0 *86:3 4.28779
*END

*D_NET *87 0.00133145

*CONN
*I *531:Q O *C 14.14 30.05 *L 0 *D DFFHQX1
*I *514:A I *C 17.5 16.435 *L 0.000212 *D INVXL
*I *477:A0 I *C 20.1 16.625 *L 0.000391 *D AOI21X1

*CAP
1 *477:A0 7.80238e-05
2 *514:A 1.69883e-05
3 *531:Q 0.000142221
4 *87:3 0.000479935
5 *87:4 0.000527143477
6 *477:A0 *97:6 8.71419922e-05

*RES
1 *87:4 *531:Q 6.52027
2 *87:3 *87:4 12.966156
3 *514:A *87:3 6.78856
4 *477:A0 *87:3 8.83094
*END

*D_NET *88 0.00105923

*CONN
*I *518:Q O *C 11.34 28.09 *L 0 *D DFFHQX1
*I *503:A I *C 13.3 17.765 *L 0.000212 *D INVXL
*I *471:A0 I *C 14.1 17.575 *L 0.000391 *D AOI21X1

*CAP
1 *471:A0 4.14839e-05
2 *518:Q 3.64771e-05
3 *88:3 0.00013459
4 *88:4 0.000409126289
5 *88:5 0.000352503
6 *88:4 *9:123 6.16908e-05
7 *88:4 *9:125 2.33650251e-05

*RES
1 *88:5 *518:Q 1.46835
2 *88:4 *88:5 15.0570869
3 *88:3 *88:4 3.60023
4 *503:A *88:3 0.499942
5 *471:A0 *88:3 7.4155
*END

*D_NET *89 0.00191486

*CONN
*I *520:Q O *C 8.94 24.67 *L 0 *D DFFHQX1
*I *513:A I *C 34.1 17.765 *L 0.000212 *D INVXL
*I *481:A0 I *C 33.9 16.625 *L 0.000391 *D AOI21X1

*CAP
1 *513:A 8.46455e-06
2 *481:A0 4.0238e-05
3 *520:Q 5.25728e-05
4 *89:3 0.000632524492
5 *89:4 0.000260953
6 *89:5 0.000472847
7 *89:3 *93:3 0.000447273242

*RES
1 *89:5 *520:Q 13.8212
2 *89:4 *89:3 15.4577
3 *89:3 *89:5 18.9590454
4 *481:A0 *89:4 4.09493
5 *513:A *89:4 3.35723
*END

*D_NET *90 0.00204134

*CONN
*I *529:Q O *C 8.74 19.79 *L 0 *D DFFHQX1
*I *512:A I *C 35.5 19.855 *L 0.000212 *D INVXL
*I *472:A0 I *C 34.5 20.045 *L 0.000391 *D AOI21X1

*CAP
1 *512:A 9.25114e-05
2 *472:A0 4.87531e-05
3 *529:Q 1.17441e-05
4 *90:3 0.000314711
5 *90:4 0.000732302656
6 *90:5 0.000605464
7 *90:6 5.83518e-05
8 *90:4 *112:2 0.000177502637

*RES
1 *90:6 *529:Q 3.57249
2 *90:5 *90:6 4.63933
3 *90:4 *90:5 15.1793957
4 *90:3 *90:4 3.56045
5 *472:A0 *90:3 7.34789
6 *512:A *90:3 8.17291
*END

*D_NET *91 0.000609994

*CONN
*I *530:Q O *C 12.14 26.63 *L 0 *D DFFHQX1
*I *511:A I *C 13.9 23.275 *L 0.000212 *D INVXL
*I *476:A0 I *C 16.5 23.465 *L 0.000391 *D AOI21X1

*CAP
1 *476:A0 0.000156641
2 *511:A 4.99472e-05
3 *530:Q 8.95267e-05
4 *91:3 0.000255048281
5 *91:4 5.88283e-05

*RES
1 *91:4 *91:3 3.45116
2 *91:3 *530:Q 5.29268
3 *511:A *91:4 1.92908
4 *476:A0 *91:3 13.376832
*END

*D_NET *92 0.000742793

*CONN
*I *528:Q O *C 12.34 24.67 *L 0 *D DFFHQX1
*I *510:A I *C 19.5 23.275 *L 0.000212 *D INVXL
*I *473:A0 I *C 20.5 23.465 *L 0.000391 *D AOI21X1

*CAP
1 *473:A0 4.51785e-05
2 *510:A 1.66274e-05
3 *528:Q 0.000309585
4 *92:3 0.000371396523

*RES
1 *92:3 *528:Q 16.8262711
2 *510:A *92:3 3.64763
3 *473:A0 *92:3 4.54445
*END

*D_NET *93 0.00161231

*CONN
*I *534:Q O *C 9.14 23.21 *L 0 *D DFFHQX1
*I *516:A I *C 33.7 24.605 *L 0.000212 *D INVXL
*I *480:A0 I *C 32.7 24.415 *L 0.000391 *D AOI21X1

*CAP
1 *516:A 5.7222e-05
2 *480:A0 4.67278e-05
3 *534:Q 6.26432e-05
4 *93:3 0.000151874
5 *93:4 0.000415924
6 *93:5 0.000430643555
7 *93:3 *89:3 0.000447273242

*RES
1 *93:5 *534:Q 14.2286
2 *93:4 *93:5 17.4472332
3 *93:3 *93:4 7.51682
4 *480:A0 *93:3 6.94551
5 *516:A *93:3 7.54371
*END

*D_NET *94 0.00185537

*CONN
*I *517:Q O *C 8.74 21.25 *L 0 *D DFFHQX1
*I *509:A I *C 38.7 24.605 *L 0.000212 *D INVXL
*I *469:A0 I *C 35.7 24.415 *L 0.000391 *D AOI21X1

*CAP
1 *509:A 8.78559e-05
2 *469:A0 1.65063e-05
3 *517:Q 7.15846e-05
4 *94:3 0.000167188
5 *94:4 0.000583651
6 *94:5 0.000592410547
7 *94:4 *148:4 0.000246167188
8 *509:A *8:56 9.00030176e-05

*RES
1 *94:5 *517:Q 14.423
2 *94:4 *94:5 20.4709778
3 *94:3 *94:4 7.97211
4 *469:A0 *94:3 6.76296
5 *509:A *94:3 9.39992
*END

*D_NET *95 0.00185442

*CONN
*I *524:Q O *C 8.74 26.63 *L 0 *D DFFHQX1
*I *508:A I *C 34.9 26.695 *L 0.000212 *D INVXL
*I *483:A0 I *C 33.9 26.885 *L 0.000391 *D AOI21X1

*CAP
1 *508:A 4.79198e-05
2 *524:Q 7.3015e-05
3 *95:3 5.50127e-05
4 *95:4 0.00070858
5 *95:5 8.07025e-05
6 *95:6 0.000707985
7 *95:5 *483:A1 8.54730566e-05
8 *95:4 *270:2 9.57250586e-05

*RES
1 *95:6 *524:Q 8.36252
2 *95:5 *95:4 5.06626
3 *95:3 *95:5 3.3467
4 *95:4 *95:6 19.110321
5 *483:A0 *95:5 3.30004
6 *508:A *95:3 7.5437
*END

*D_NET *96 0.00190842

*CONN
*I *522:Q O *C 12.14 19.79 *L 0 *D DFFHQX1
*I *505:A I *C 31.5 31.445 *L 0.000212 *D INVXL
*I *474:A0 I *C 30.5 31.255 *L 0.000391 *D AOI21X1

*CAP
1 *505:A 5.73384e-05
2 *474:A0 2.15755e-05
3 *522:Q 5.63275e-05
4 *96:3 0.000157419
5 *96:4 0.000453770156
6 *96:5 0.0003832
7 *96:6 0.000324608
8 *96:7 0.000373008
9 *96:4 *531:D 8.11815283e-05

*RES
1 *96:7 *522:Q 4.72115
2 *96:6 *96:7 7.73701
3 *96:5 *96:6 3.3571
4 *96:4 *96:5 11.9590759
5 *96:3 *96:4 2.19233
6 *474:A0 *96:3 6.80508
7 *505:A *96:3 7.62132
*END

*D_NET *97 0.00181901

*CONN
*I *519:Q O *C 10.34 16.37 *L 0 *D DFFHQX1
*I *507:A I *C 23.3 28.025 *L 0.000212 *D INVXL
*I *479:A0 I *C 25.3 27.835 *L 0.000391 *D AOI21X1

*CAP
1 *479:A0 6.42546e-05
2 *507:A 1.97884e-05
3 *519:Q 2.91476e-05
4 *97:3 0.000281692
5 *97:4 9.06572e-05
6 *97:5 0.000283778
7 *97:6 0.000275434
8 *97:7 0.000295877461
9 *97:6 *240:4 0.000201344492
10 *97:6 *477:A0 8.71419922e-05
11 *97:3 *68:20 8.76188281e-05
12 *479:A0 *98:3 0.000102281572

*RES
1 *97:7 *519:Q 7.21504
2 *97:6 *97:7 9.88781452
3 *97:5 *97:6 3.39501
4 *97:4 *97:3 3.34673
5 *97:3 *97:5 8.26997
6 *507:A *97:4 6.92174
7 *479:A0 *97:4 8.27797
*END

*D_NET *98 0.00222158

*CONN
*I *525:Q O *C 8.54 14.41 *L 0 *D DFFHQX1
*I *502:A I *C 26.7 28.025 *L 0.000212 *D INVXL
*I *467:A0 I *C 27.1 27.835 *L 0.000391 *D AOI21X1

*CAP
1 *467:A0 4.1125e-05
2 *502:A 1.44768e-05
3 *525:Q 6.56254e-05
4 *98:3 0.000564753
5 *98:4 0.000938415547
6 *98:5 0.000494904
7 *98:3 *479:A0 0.000102281572

*RES
1 *98:5 *525:Q 4.79682
2 *98:4 *98:5 13.7249
3 *98:3 *98:4 14.2873526
4 *502:A *98:3 6.7783
5 *467:A0 *98:3 7.23546
*END

*D_NET *99 0.0017643

*CONN
*I *521:Q O *C 10.94 12.95 *L 0 *D DFFHQX1
*I *515:A I *C 15.5 26.695 *L 0.000212 *D INVXL
*I *482:A0 I *C 20.7 26.885 *L 0.000391 *D AOI21X1

*CAP
1 *482:A0 8.95849e-05
2 *515:A 1.72862e-05
3 *521:Q 7.93952e-05
4 *99:3 0.000271378
5 *99:4 0.000496864336
6 *99:5 0.000419137
7 *99:6 0.000166175
8 *482:A0 *571:A 0.000100851055
9 *482:A0 *482:B0 0.000123620029

*RES
1 *99:6 *521:Q 4.91049
2 *99:5 *99:6 2.17702
3 *99:4 *99:5 8.06204
4 *99:3 *99:4 7.34124
5 *515:A *99:3 6.92959
6 *482:A0 *99:3 14.0800476
*END

*D_NET *100 0.00184238

*CONN
*I *532:Q O *C 12.74 9.53 *L 0 *D DFFHQX1
*I *506:A I *C 17.7 30.115 *L 0.000212 *D INVXL
*I *468:A0 I *C 19.5 30.305 *L 0.000391 *D AOI21X1

*CAP
1 *468:A0 0.00010192
2 *532:Q 6.2033e-06
3 *100:3 0.000120754
4 *100:4 0.000813066953
5 *100:5 0.000800425

*RES
1 *100:5 *532:Q 0.239783
2 *100:4 *100:5 29.6498528
3 *100:3 *100:4 3.55105
4 *506:A *100:4 3.29996
5 *468:A0 *100:3 8.12367
*END

*D_NET *101 0.0016284

*CONN
*I *538:Q O *C 8.3 31.445 *L 0 *D DFFQXL
*I *523:D I *C 13.5 11.115 *L 0.000307 *D DFFHQX1

*CAP
1 *523:D 0.000344156
2 *538:Q 0.000137331
3 *101:2 0.000417653
4 *101:3 0.000624477852
5 *101:2 *9:116 2.86102e-05
6 *101:2 *9:119 6.06179e-05
7 *101:2 *538:CK 1.43051e-06
8 *101:2 *9:131 7.92742e-06
9 *523:D *431:CK 6.1989382e-06

*RES
1 *101:3 *101:2 8.31166
2 *101:2 *538:Q 14.3345
3 *523:D *101:3 18.0159798
*END

*D_NET *102 0.000249147

*CONN
*I *553:Q O *C 15.1 33.535 *L 0 *D DFFQXL
*I *533:D I *C 17.5 31.635 *L 0.000307 *D DFFHQX1

*CAP
1 *553:Q 8.55336e-05
2 *533:D 3.90401e-05
3 *102:2 0.000124573711

*RES
1 *533:D *102:2 4.16928
2 *102:2 *553:Q 12.004137
*END

*D_NET *103 0.000482202

*CONN
*I *548:Q O *C 11.5 31.445 *L 0 *D DFFQXL
*I *531:D I *C 16.7 29.925 *L 0.000307 *D DFFHQX1

*CAP
1 *531:D 0.000178099
2 *548:Q 2.24115e-05
3 *103:2 0.00020051002
4 *531:D *96:4 8.11815283e-05

*RES
1 *103:2 *548:Q 3.85798
2 *531:D *103:2 14.9855614
*END

*D_NET *104 0.00103498

*CONN
*I *537:Q O *C 5.1 31.445 *L 0 *D DFFQXL
*I *518:D I *C 13.9 28.215 *L 0.000307 *D DFFHQX1

*CAP
1 *537:Q 0.000517487539
2 *518:D 0.000517487539

*RES
1 *518:D *537:Q 30.9055
*END

*D_NET *105 0.000708222

*CONN
*I *547:Q O *C 5.3 30.115 *L 0 *D DFFQXL
*I *520:D I *C 11.5 24.795 *L 0.000307 *D DFFHQX1

*CAP
1 *547:Q 0.00030333
2 *520:D 5.07811e-05
3 *105:2 0.000354111211

*RES
1 *520:D *105:2 4.39229
2 *105:2 *547:Q 18.0698624
*END

*D_NET *106 0.00095427

*CONN
*I *539:Q O *C 5.3 28.025 *L 0 *D DFFQXL
*I *529:D I *C 11.3 19.665 *L 0.000307 *D DFFHQX1

*CAP
1 *529:D 4.17859e-05
2 *539:Q 2.84347e-05
3 *106:2 0.00044870375
4 *106:3 0.000435353

*RES
1 *106:3 *539:Q 4.04906
2 *529:D *106:2 4.16934
3 *106:2 *106:3 17.0243988
*END

*D_NET *107 0.000699162

*CONN
*I *550:Q O *C 5.3 26.695 *L 0 *D DFFQXL
*I *530:D I *C 14.7 26.505 *L 0.000307 *D DFFHQX1

*CAP
1 *530:D 1.62729e-05
2 *550:Q 2.06831e-05
3 *107:2 0.000274838
4 *107:3 0.000279247754
5 *107:2 *524:D 0.000108122822

*RES
1 *107:3 *550:Q 6.80504
2 *530:D *107:2 10.088563
3 *107:2 *107:3 8.0735
*END

*D_NET *108 0.000665665

*CONN
*I *543:Q O *C 5.3 24.605 *L 0 *D DFFQXL
*I *528:D I *C 14.9 24.795 *L 0.000307 *D DFFHQX1

*CAP
1 *528:D 1.65124e-05
2 *543:Q 1.96691e-05
3 *108:2 0.000313165
4 *108:3 0.000316321855

*RES
1 *108:3 *543:Q 6.80503
2 *528:D *108:2 6.7837
3 *108:2 *108:3 7.72571564
*END

*D_NET *109 0.000469446

*CONN
*I *549:Q O *C 5.5 23.275 *L 0 *D DFFQXL
*I *534:D I *C 11.7 23.085 *L 0.000307 *D DFFHQX1

*CAP
1 *534:D 0.000112535
2 *549:Q 0.000122188
3 *109:2 0.000234723086

*RES
1 *109:2 *549:Q 9.25047
2 *534:D *109:2 9.56559181
*END

*D_NET *110 0.000511229

*CONN
*I *536:Q O *C 5.3 21.185 *L 0 *D DFFQXL
*I *517:D I *C 11.3 21.375 *L 0.000307 *D DFFHQX1

*CAP
1 *536:Q 0.000197827813
2 *517:D 0.000197827813
3 *517:D *418:CK 3.41535e-05
4 *517:D *9:124 1.0252e-05
5 *517:D *9:128 6.22869e-05
6 *517:D *549:CK 4.17233e-07
7 *517:D *536:CK 8.46377754e-06

*RES
1 *517:D *536:Q 19.4631
*END

*D_NET *111 0.000849128

*CONN
*I *541:Q O *C 5.3 19.855 *L 0 *D DFFQXL
*I *524:D I *C 11.3 26.505 *L 0.000307 *D DFFHQX1

*CAP
1 *524:D 0.000364306
2 *541:Q 6.19624e-06
3 *111:2 0.000370502461
4 *524:D *107:2 0.000108122822

*RES
1 *111:2 *541:Q 0.239714
2 *524:D *111:2 23.6239433
*END

*D_NET *112 0.000860333

*CONN
*I *542:Q O *C 5.3 16.435 *L 0 *D DFFQXL
*I *522:D I *C 14.7 19.665 *L 0.000307 *D DFFHQX1

*CAP
1 *522:D 4.80426e-05
2 *542:Q 6.09741e-05
3 *112:2 0.000232398
4 *112:3 5.67432e-05
5 *112:4 0.000284671777
6 *112:2 *90:4 0.000177502637

*RES
1 *112:4 *542:Q 8.21912289
2 *522:D *112:3 4.18443
3 *112:3 *112:2 3.3572
4 *112:2 *112:4 7.92227
*END

*D_NET *113 0.000601947

*CONN
*I *546:Q O *C 5.3 14.345 *L 0 *D DFFQXL
*I *519:D I *C 12.9 16.245 *L 0.000307 *D DFFHQX1

*CAP
1 *546:Q 0.00022029877
2 *519:D 0.00022029877
3 *519:D *431:CK 4.35114e-05
4 *519:D *9:122 2.95639e-05
5 *519:D *9:130 5.23329e-05
6 *519:D *542:CK 3.56436e-05
7 *519:D *9:150 2.97970156e-07

*RES
1 *519:D *546:Q 23.8384
*END

*D_NET *114 0.000417352

*CONN
*I *552:Q O *C 5.5 13.015 *L 0 *D DFFQXL
*I *525:D I *C 11.1 14.535 *L 0.000307 *D DFFHQX1

*CAP
1 *552:Q 0.000154436
2 *525:D 5.42395e-05
3 *114:2 0.000208675859

*RES
1 *525:D *114:2 7.52223
2 *114:2 *552:Q 14.5014524
*END

*D_NET *115 0.000473022

*CONN
*I *551:Q O *C 7.7 10.925 *L 0 *D DFFQXL
*I *521:D I *C 13.5 12.825 *L 0.000307 *D DFFHQX1

*CAP
1 *551:Q 0.00023651123
2 *521:D 0.00023651123

*RES
1 *521:D *551:Q 19.2113
*END

*D_NET *116 0.000633597

*CONN
*I *545:Q O *C 5.3 9.595 *L 0 *D DFFQXL
*I *532:D I *C 15.3 9.405 *L 0.000307 *D DFFHQX1

*CAP
1 *532:D 1.57941e-05
2 *545:Q 2.03261e-05
3 *116:2 0.000159741
4 *116:3 0.00016427041
5 *116:2 *9:108 4.19021e-05
6 *116:2 *9:117 2.67625e-05
7 *116:2 *9:120 0.00010246
8 *116:2 *545:CK 4.53028419e-06
9 *116:2 *25:2 9.78112207e-05

*RES
1 *116:3 *545:Q 6.80503
2 *532:D *116:2 6.8084
3 *116:2 *116:3 7.619977
*END

*D_NET *117 0.000529408

*CONN
*I *306:A I *C 15.345 7.7 *L 0.000389 *D BUFX3
*I *535:QN O *C 6.5 7.315 *L 0 *D DFFRX1

*CAP
1 *306:A 0.00019574
2 *535:QN 6.89641e-05
3 *117:2 0.000264704219

*RES
1 *117:2 *535:QN 7.94652
2 *306:A *117:2 12.6106739
*END

*D_NET *118 0.000457764

*CONN
*I *540:Q O *C 5.14 5.68 *L 0 *D DFFRHQX1
*I *535:D I *C 9.9 7.505 *L 0.00021 *D DFFRX1

*CAP
1 *540:Q 0.000184356
2 *535:D 4.4526e-05
3 *118:2 0.000228881836

*RES
1 *535:D *118:2 7.65957
2 *118:2 *540:Q 14.4833326
*END

*D_NET *120 0.000116467

*CONN
*I *305:A I *C 20.5 11.115 *L 0.00021 *D BUFX2
*I *544:Y O *C 21.52 11.575 *L 0 *D NAND2BX1

*CAP
1 *544:Y 2.93252e-05
2 *305:A 2.89085e-05
3 *120:2 5.82337402e-05

*RES
1 *305:A *120:2 0.866291
2 *120:2 *544:Y 1.01983547
*END

*D_NET *121 0.000170588

*CONN
*I *527:Y O *C 25.555 15.005 *L 0 *D AOI22X1
*I *475:B I *C 26.145 12.785 *L 0.000419 *D XNOR2X1

*CAP
1 *475:B 6.54463e-05
2 *527:Y 1.9848e-05
3 *121:2 8.5294248e-05

*RES
1 *121:2 *527:Y 3.62549
2 *475:B *121:2 4.54771519
*END

*D_NET *122 0.000167727

*CONN
*I *526:Y O *C 25.555 11.585 *L 0 *D AOI22X1
*I *475:A I *C 25.415 12.785 *L 0.000211 *D XNOR2X1

*CAP
1 *475:A 7.61153e-05
2 *526:Y 7.74845e-06
3 *122:2 8.38637305e-05

*RES
1 *122:2 *526:Y 3.35717
2 *475:A *122:2 7.87484646
*END

*D_NET *123 0.000158072

*CONN
*I *516:Y O *C 33.9 24.415 *L 0 *D INVXL
*I *455:B0 I *C 35.16 24.63 *L 0.000212 *D AOI211XL

*CAP
1 *516:Y 7.90357568e-05
2 *455:B0 7.90357568e-05

*RES
1 *455:B0 *516:Y 8.26049
*END

*D_NET *124 0.000420451

*CONN
*I *515:Y O *C 15.7 26.885 *L 0 *D INVXL
*I *447:B0 I *C 20.16 26.67 *L 0.000212 *D AOI211XL

*CAP
1 *447:B0 0.000193417
2 *515:Y 1.68091e-05
3 *124:2 0.000210225586

*RES
1 *124:2 *515:Y 3.715
2 *447:B0 *124:2 14.0293837
*END

*D_NET *125 0.000170588

*CONN
*I *514:Y O *C 17.7 16.625 *L 0 *D INVXL
*I *443:B0 I *C 19.16 16.41 *L 0.000212 *D AOI211XL

*CAP
1 *514:Y 8.5294248e-05
2 *443:B0 8.5294248e-05

*RES
1 *443:B0 *514:Y 8.50618
*END

*D_NET *126 0.000218511

*CONN
*I *513:Y O *C 34.3 17.575 *L 0 *D INVXL
*I *449:B0 I *C 35.76 16.41 *L 0.000212 *D AOI211XL

*CAP
1 *513:Y 0.000109255313
2 *449:B0 0.000109255313

*RES
1 *449:B0 *513:Y 9.00888
*END

*D_NET *127 0.000125051

*CONN
*I *512:Y O *C 35.7 20.045 *L 0 *D INVXL
*I *466:B0 I *C 35.76 17.79 *L 0.000212 *D AOI211XL

*CAP
1 *466:B0 6.25252734e-05
2 *127:2 6.25252734e-05

*RES
1 *466:B0 *127:2 4.50956821
2 *127:2 *512:Y 3.29995
*END

*D_NET *128 0.000223041

*CONN
*I *511:Y O *C 14.1 23.465 *L 0 *D INVXL
*I *464:B0 I *C 15.76 23.25 *L 0.000212 *D AOI211XL

*CAP
1 *464:B0 7.24188e-05
2 *511:Y 3.91014e-05
3 *128:2 0.000111520293

*RES
1 *128:2 *511:Y 7.46235
2 *464:B0 *128:2 7.57563114
*END

*D_NET *129 7.93934e-05

*CONN
*I *510:Y O *C 19.7 23.465 *L 0 *D INVXL
*I *463:B0 I *C 18.96 23.25 *L 0.000212 *D AOI211XL

*CAP
1 *510:Y 3.24249e-05
2 *463:B0 7.27182e-06
3 *129:2 3.96966943e-05

*RES
1 *463:B0 *129:2 3.35718
2 *129:2 *510:Y 3.90148163
*END

*D_NET *130 0.000100374

*CONN
*I *509:Y O *C 38.9 24.415 *L 0 *D INVXL
*I *462:B0 I *C 38.16 24.63 *L 0.000212 *D AOI211XL

*CAP
1 *509:Y 3.92797e-05
2 *462:B0 1.09074e-05
3 *130:2 5.01871094e-05

*RES
1 *462:B0 *130:2 3.50416
2 *130:2 *509:Y 3.96192074
*END

*D_NET *131 0.000108123

*CONN
*I *508:Y O *C 35.1 26.885 *L 0 *D INVXL
*I *465:B0 I *C 35.36 28.05 *L 0.000212 *D AOI211XL

*CAP
1 *508:Y 6.8543e-06
2 *465:B0 4.72071e-05
3 *131:2 5.40614111e-05

*RES
1 *465:B0 *131:2 4.15229797
2 *131:2 *508:Y 3.34681
*END

*D_NET *132 0.000160813

*CONN
*I *507:Y O *C 23.5 27.835 *L 0 *D INVXL
*I *459:B0 I *C 24.76 28.05 *L 0.000212 *D AOI211XL

*CAP
1 *507:Y 8.0406665e-05
2 *459:B0 8.0406665e-05

*RES
1 *459:B0 *507:Y 8.23677
*END

*D_NET *133 0.00015223

*CONN
*I *506:Y O *C 17.9 30.305 *L 0 *D INVXL
*I *461:B0 I *C 18.96 30.09 *L 0.000212 *D AOI211XL

*CAP
1 *506:Y 7.61151318e-05
2 *461:B0 7.61151318e-05

*RES
1 *461:B0 *506:Y 8.22687
*END

*D_NET *134 0.000154853

*CONN
*I *505:Y O *C 31.7 31.255 *L 0 *D INVXL
*I *460:B0 I *C 33.16 31.47 *L 0.000212 *D AOI211XL

*CAP
1 *505:Y 7.74264355e-05
2 *460:B0 7.74264355e-05

*RES
1 *460:B0 *505:Y 8.48258
*END

*D_NET *135 0.000246644

*CONN
*I *504:Y O *C 16.1 10.735 *L 0 *D INVXL
*I *456:B0 I *C 19.36 10.95 *L 0.000212 *D AOI211XL

*CAP
1 *504:Y 0.000123322012
2 *456:B0 0.000123322012

*RES
1 *456:B0 *504:Y 16.0664
*END

*D_NET *136 0.000265241

*CONN
*I *503:Y O *C 13.5 17.575 *L 0 *D INVXL
*I *450:B0 I *C 16.16 17.79 *L 0.000212 *D AOI211XL

*CAP
1 *503:Y 0.000132620332
2 *450:B0 0.000132620332

*RES
1 *450:B0 *503:Y 15.6195
*END

*D_NET *137 0.000201583

*CONN
*I *502:Y O *C 26.9 27.835 *L 0 *D INVXL
*I *458:B0 I *C 28.96 28.05 *L 0.000212 *D AOI211XL

*CAP
1 *502:Y 0.000100791455
2 *458:B0 0.000100791455

*RES
1 *458:B0 *502:Y 15.1592
*END

*D_NET *138 0.000173688

*CONN
*I *501:Y O *C 23.3 9.785 *L 0 *D INVXL
*I *457:B0 I *C 22.16 9.57 *L 0.000212 *D AOI211XL

*CAP
1 *501:Y 2.01463e-05
2 *457:B0 6.66977e-05
3 *138:2 8.68439648e-05

*RES
1 *457:B0 *138:2 8.1319809
2 *138:2 *501:Y 0.774161
*END

*D_NET *139 0.0007236

*CONN
*I *567:Y O *C 37.53 29.49 *L 0 *D INVX1
*I *489:B I *C 40.205 29.89 *L 0.000212 *D NOR2XL
*I *483:A1 I *C 34.12 26.65 *L 0.000392 *D AOI21X1
*I *465:A1 I *C 35.06 28.065 *L 0.000212 *D AOI211XL

*CAP
1 *489:B 8.84535e-05
2 *567:Y 2.02671e-05
3 *465:A1 1.2218e-05
4 *483:A1 5.94838e-05
5 *139:4 0.000225424766
6 *139:5 0.000150861
7 *139:6 8.14192e-05
8 *483:A1 *95:5 8.54730566e-05

*RES
1 *139:6 *139:5 0.604794
2 *483:A1 *139:6 4.65313
3 *139:5 *139:4 6.22592
4 *465:A1 *139:5 3.47152
5 *139:4 *567:Y 6.80506
6 *489:B *139:4 8.94510746
*END

*D_NET *140 0.00124407

*CONN
*I *571:Y O *C 20.93 28.65 *L 0 *D INVX1
*I *491:B I *C 31.405 33.31 *L 0.000212 *D NOR2XL
*I *482:A1 I *C 20.92 26.65 *L 0.000392 *D AOI21X1
*I *447:A1 I *C 19.86 26.655 *L 0.000212 *D AOI211XL

*CAP
1 *491:B 2.24134e-05
2 *571:Y 0.000232997
3 *447:A1 5.85301e-05
4 *140:4 0.000232757
5 *140:5 0.000383615508
6 *140:6 0.000118254
7 *140:4 *497:B 0.000195503242

*RES
1 *447:A1 *140:6 4.24868
2 *140:6 *571:Y 4.22228
3 *482:A1 *140:6 3.29997
4 *140:5 *571:Y 10.879159
5 *140:4 *140:5 7.877
6 *491:B *140:4 6.91933
*END

*D_NET *141 0.000780821

*CONN
*I *556:Y O *C 39.93 15.81 *L 0 *D INVX1
*I *496:B I *C 40.605 17.99 *L 0.000212 *D NOR2XL
*I *481:A1 I *C 34.12 16.39 *L 0.000392 *D AOI21X1
*I *449:A1 I *C 35.46 16.395 *L 0.000212 *D AOI211XL

*CAP
1 *496:B 5.72789e-05
2 *556:Y 1.29938e-05
3 *449:A1 2.25299e-05
4 *481:A1 4.98304e-05
5 *141:4 7.90963e-05
6 *141:5 0.000125706
7 *141:6 0.000163257119
8 *141:6 *285:2 9.64403125e-05
9 *141:5 *430:D 8.07046875e-05
10 *141:5 *556:A 9.29832422e-05

*RES
1 *481:A1 *141:6 7.73906708
2 *141:6 *141:5 3.91582
3 *449:A1 *141:6 6.8253
4 *141:5 *556:Y 6.78857
5 *141:4 *141:5 3.79183
6 *496:B *141:4 4.22226
*END

*D_NET *142 0.000917912

*CONN
*I *570:Y O *C 39.73 28.65 *L 0 *D INVX1
*I *494:B I *C 40.405 24.83 *L 0.000212 *D NOR2XL
*I *480:A1 I *C 32.92 24.65 *L 0.000392 *D AOI21X1
*I *455:A1 I *C 34.86 24.645 *L 0.000212 *D AOI211XL

*CAP
1 *494:B 4.84567e-05
2 *570:Y 2.78953e-05
3 *455:A1 1.80587e-05
4 *480:A1 8.6903e-05
5 *142:4 9.9779e-05
6 *142:5 0.00025868416
7 *142:6 0.000243306
8 *494:B *499:B 0.000134825703

*RES
1 *480:A1 *142:6 8.34667683
2 *142:6 *142:5 4.53568
3 *455:A1 *142:6 6.75964
4 *142:5 *142:4 4.83217
5 *142:4 *570:Y 3.93492
6 *494:B *142:5 7.73726
*END

*D_NET *143 0.00108838

*CONN
*I *568:Y O *C 25.53 32.91 *L 0 *D INVX1
*I *490:B I *C 30.805 33.31 *L 0.000212 *D NOR2XL
*I *479:A1 I *C 25.52 28.07 *L 0.000392 *D AOI21X1
*I *459:A1 I *C 24.46 28.065 *L 0.000212 *D AOI211XL

*CAP
1 *490:B 4.36285e-05
2 *479:A1 6.22855e-05
3 *568:Y 2.61652e-05
4 *459:A1 1.65126e-05
5 *143:4 0.000256834
6 *143:5 5.0845e-05
7 *143:6 0.000353991992
8 *143:7 0.000194905
9 *479:A1 *479:B0 8.32080859e-05

*RES
1 *143:7 *143:6 2.98228
2 *459:A1 *143:7 3.62558
3 *143:6 *143:5 3.83347
4 *143:5 *568:Y 0.976768
5 *479:A1 *143:7 11.3334
6 *143:4 *143:6 11.9094849
7 *490:B *143:4 4.1444
*END

*D_NET *144 0.0015167

*CONN
*I *565:Y O *C 20.93 8.97 *L 0 *D INVX1
*I *493:B I *C 40.205 9.37 *L 0.000212 *D NOR2XL
*I *478:A1 I *C 23.72 9.55 *L 0.000392 *D AOI21X1
*I *457:A1 I *C 21.86 9.555 *L 0.000212 *D AOI211XL

*CAP
1 *493:B 0.000178696
2 *478:A1 2.539e-05
3 *457:A1 5.06922e-06
4 *565:Y 3.17077e-05
5 *144:4 0.000411152852
6 *144:5 0.000310245
7 *144:6 8.91694e-05
8 *144:4 *297:10 9.8347666e-05
9 *144:4 *350:B0 0.000114679336
10 *144:4 *349:B0 0.00010955334
11 *144:4 *478:B0 0.000142693516

*RES
1 *144:6 *565:Y 4.05565
2 *457:A1 *144:6 3.37178
3 *144:5 *144:6 4.85116
4 *478:A1 *144:5 6.84044
5 *144:4 *144:5 8.75004
6 *493:B *144:4 11.3780499
*END

*D_NET *145 0.0017764

*CONN
*I *560:Y O *C 20.53 14.97 *L 0 *D INVX1
*I *485:B I *C 40.405 14.57 *L 0.000212 *D NOR2XL
*I *477:A1 I *C 20.32 16.39 *L 0.000392 *D AOI21X1
*I *443:A1 I *C 18.86 16.395 *L 0.000212 *D AOI211XL

*CAP
1 *485:B 2.58074e-05
2 *477:A1 4.71473e-05
3 *443:A1 5.07196e-05
4 *145:4 0.000404776
5 *145:5 0.000558733945
6 *145:6 3.55864e-05
7 *145:7 7.76609e-05
8 *145:8 0.000256897
9 *145:9 0.000122788
10 *145:4 *9:82 3.42131e-05
11 *145:4 *9:85 7.76649e-05
12 *145:4 *9:91 7.64132e-05
13 *145:4 *332:CK 7.98689675e-06

*RES
1 *145:9 *145:8 4.76793
2 *443:A1 *145:9 4.40791
3 *145:7 *145:6 0.622654
4 *477:A1 *145:7 4.22231
5 *145:6 *560:Y 3.29997
6 *145:8 *145:6 3.33629
7 *145:5 *145:8 4.29384
8 *145:4 *145:5 12.019515
9 *485:B *145:4 7.07203
*END

*D_NET *146 0.00167155

*CONN
*I *554:Y O *C 15.73 21.81 *L 0 *D INVX1
*I *484:B I *C 40.405 21.41 *L 0.000212 *D NOR2XL
*I *476:A1 I *C 16.72 23.23 *L 0.000392 *D AOI21X1
*I *464:A1 I *C 15.46 23.235 *L 0.000212 *D AOI211XL

*CAP
1 *484:B 6.19264e-05
2 *476:A1 8.82763e-05
3 *464:A1 6.64612e-05
4 *146:4 9.41162e-05
5 *146:5 0.000533524
6 *146:6 0.000173868
7 *146:7 0.000541329375
8 *146:8 0.000112057

*RES
1 *464:A1 *146:8 4.64042
2 *146:8 *554:Y 3.29993
3 *146:7 *146:6 4.25376
4 *146:6 *146:8 7.49954
5 *476:A1 *146:6 11.4467
6 *146:5 *146:7 17.1447983
7 *146:4 *146:5 7.32374
8 *484:B *146:4 7.66645
*END

*D_NET *147 0.000778556

*CONN
*I *557:Y O *C 37.53 32.07 *L 0 *D INVX1
*I *492:B I *C 40.405 31.67 *L 0.000212 *D NOR2XL
*I *474:A1 I *C 30.72 31.49 *L 0.000392 *D AOI21X1
*I *460:A1 I *C 32.86 31.485 *L 0.000212 *D AOI211XL

*CAP
1 *492:B 9.6619e-05
2 *557:Y 2.15154e-05
3 *460:A1 1.77032e-05
4 *474:A1 8.72598e-05
5 *147:4 0.000112832
6 *147:5 0.000187695
7 *147:6 0.000254929063

*RES
1 *474:A1 *147:6 8.49786
2 *147:6 *147:5 3.68908
3 *460:A1 *147:6 6.75966
4 *147:5 *557:Y 6.80502
5 *147:4 *147:5 0.536703
6 *492:B *147:4 8.71706009
*END

*D_NET *148 0.00156969

*CONN
*I *566:Y O *C 20.33 21.81 *L 0 *D INVX1
*I *488:B I *C 40.405 23.05 *L 0.000212 *D NOR2XL
*I *473:A1 I *C 20.72 23.23 *L 0.000392 *D AOI21X1
*I *463:A1 I *C 18.66 23.235 *L 0.000212 *D AOI211XL

*CAP
1 *488:B 0.00014806
2 *473:A1 2.41427e-05
3 *566:Y 4.79197e-05
4 *463:A1 7.71895e-05
5 *148:4 0.000386655313
6 *148:5 5.26927e-05
7 *148:6 0.0002538
8 *148:7 5.62681e-05
9 *148:8 9.88837e-05
10 *148:4 *94:4 0.000246167188
11 *488:B *321:D 8.43405762e-05
12 *488:B *8:56 9.35792969e-05

*RES
1 *463:A1 *148:8 8.20992
2 *148:7 *566:Y 4.57497
3 *148:8 *148:7 3.35722
4 *148:6 *148:5 6.74939
5 *148:5 *148:8 0.26941
6 *473:A1 *148:5 6.86121
7 *148:4 *148:6 10.3413
8 *488:B *148:4 18.1833496
*END

*D_NET *149 0.000671506

*CONN
*I *558:Y O *C 40.13 18.39 *L 0 *D INVX1
*I *487:B I *C 40.605 19.63 *L 0.000212 *D NOR2XL
*I *472:A1 I *C 34.72 19.81 *L 0.000392 *D AOI21X1
*I *466:A1 I *C 35.46 17.805 *L 0.000212 *D AOI211XL

*CAP
1 *487:B 4.94139e-05
2 *558:Y 5.72071e-06
3 *466:A1 2.34266e-05
4 *472:A1 9.70379e-05
5 *149:4 0.000215293
6 *149:5 0.000280618672

*RES
1 *472:A1 *149:5 4.8421
2 *149:5 *149:4 10.8013153
3 *466:A1 *149:5 3.68971
4 *149:4 *558:Y 3.43145
5 *487:B *149:4 4.52648
*END

*D_NET *150 0.00185144

*CONN
*I *569:Y O *C 16.93 15.81 *L 0 *D INVX1
*I *486:B I *C 40.605 16.21 *L 0.000212 *D NOR2XL
*I *471:A1 I *C 14.32 17.81 *L 0.000392 *D AOI21X1
*I *450:A1 I *C 15.86 17.805 *L 0.000212 *D AOI211XL

*CAP
1 *486:B 7.13438e-05
2 *569:Y 2.21699e-05
3 *450:A1 2.30034e-05
4 *471:A1 8.0947e-05
5 *150:4 0.000603616
6 *150:5 5.74621e-05
7 *150:6 0.000606894492
8 *150:7 0.000138761
9 *150:8 0.000132797
10 *150:7 *343:C 0.000114440918

*RES
1 *471:A1 *150:8 7.98101
2 *150:8 *150:7 0.816572
3 *450:A1 *150:8 6.85
4 *150:6 *150:7 8.32904
5 *150:7 *150:5 3.98076
6 *150:5 *569:Y 3.79144
7 *150:4 *150:6 17.749548
8 *486:B *150:4 14.3023
*END

*D_NET *151 0.00206828

*CONN
*I *559:Y O *C 16.53 8.97 *L 0 *D INVX1
*I *495:B I *C 40.205 11.15 *L 0.000212 *D NOR2XL
*I *470:A1 I *C 16.52 10.97 *L 0.000392 *D AOI21X1
*I *456:A1 I *C 19.06 10.965 *L 0.000212 *D AOI211XL

*CAP
1 *495:B 0.000257193
2 *456:A1 4.77471e-05
3 *470:A1 4.8877e-05
4 *559:Y 0.000111283
5 *151:4 0.000622212891
6 *151:5 0.000138048
7 *151:6 0.000566604
8 *151:7 4.8877e-05
9 *495:B *493:A 0.00012588501
10 *495:B *46:3 0.000101566318

*RES
1 *151:7 *559:Y 3.2999
2 *470:A1 *151:7 4.22234
3 *151:6 *559:Y 9.78109
4 *151:5 *151:6 5.60335
5 *456:A1 *151:5 4.79676
6 *151:4 *151:6 12.0043
7 *495:B *151:4 15.0642395
*END

*D_NET *152 0.000579

*CONN
*I *573:Y O *C 39.93 26.07 *L 0 *D INVX1
*I *499:B I *C 40.605 26.47 *L 0.000212 *D NOR2XL
*I *469:A1 I *C 35.92 24.65 *L 0.000392 *D AOI21X1
*I *462:A1 I *C 37.86 24.645 *L 0.000212 *D AOI211XL

*CAP
1 *499:B 4.72653e-05
2 *573:Y 7.92764e-06
3 *462:A1 1.72254e-05
4 *469:A1 6.97367e-05
5 *152:4 0.000135124
6 *152:5 0.000166893008
7 *499:B *494:B 0.000134825703

*RES
1 *469:A1 *152:5 8.34667683
2 *152:5 *152:4 5.68918
3 *462:A1 *152:5 6.74933
4 *152:4 *573:Y 3.64772
5 *499:B *152:4 4.35827
*END

*D_NET *153 0.00121284

*CONN
*I *572:Y O *C 19.73 32.91 *L 0 *D INVX1
*I *497:B I *C 32.805 33.31 *L 0.000212 *D NOR2XL
*I *468:A1 I *C 19.72 30.07 *L 0.000392 *D AOI21X1
*I *461:A1 I *C 18.66 30.075 *L 0.000212 *D AOI211XL

*CAP
1 *497:B 9.58456e-05
2 *461:A1 8.6843e-05
3 *153:4 0.000297069551
4 *153:5 0.000205875
5 *153:6 0.000124752
6 *153:7 0.000206949
7 *497:B *140:4 0.000195503242

*RES
1 *461:A1 *153:7 11.3947392
2 *153:7 *153:6 2.41401
3 *153:6 *572:Y 3.29988
4 *153:5 *153:6 3.33639
5 *468:A1 *153:7 3.29988
6 *153:4 *153:5 8.78408
7 *497:B *153:4 8.35428
*END

*D_NET *154 0.000870228

*CONN
*I *555:Y O *C 28.73 32.91 *L 0 *D INVX1
*I *498:B I *C 33.405 33.31 *L 0.000212 *D NOR2XL
*I *467:A1 I *C 27.32 28.07 *L 0.000392 *D AOI21X1
*I *458:A1 I *C 28.66 28.065 *L 0.000212 *D AOI211XL

*CAP
1 *498:B 0.000185966
2 *555:Y 1.1682e-05
3 *467:A1 7.75432e-05
4 *154:4 0.000350058086
5 *154:5 0.00015992
6 *154:6 8.50534e-05

*RES
1 *467:A1 *154:6 7.69306
2 *154:6 *154:5 3.35707
3 *154:5 *154:4 3.64004
4 *458:A1 *154:5 3.29996
5 *154:4 *555:Y 3.57254
6 *498:B *154:4 14.17768
*END

*D_NET *155 0.000310063

*CONN
*I *466:Y O *C 36.14 18.395 *L 0 *D AOI211XL
*I *421:D I *C 39.37 18.025 *L 0.00021 *D DFFQXL

*CAP
1 *421:D 9.34007e-05
2 *466:Y 1.91925e-05
3 *155:2 0.000112593174
4 *421:D *558:A 8.48770117e-05

*RES
1 *155:2 *466:Y 6.80504
2 *421:D *155:2 9.32943821
*END

*D_NET *156 0.000131845

*CONN
*I *465:Y O *C 35.74 28.655 *L 0 *D AOI211XL
*I *419:D I *C 36.77 29.855 *L 0.00021 *D DFFQXL

*CAP
1 *465:Y 6.59227393e-05
2 *419:D 6.59227393e-05

*RES
1 *419:D *465:Y 8.25346
*END

*D_NET *157 0.000180125

*CONN
*I *464:Y O *C 16.14 22.645 *L 0 *D AOI211XL
*I *418:D I *C 15.17 21.445 *L 0.00021 *D DFFQXL

*CAP
1 *464:Y 8.22499e-06
2 *418:D 8.18376e-05
3 *157:2 9.00626172e-05

*RES
1 *418:D *157:2 11.8386745
2 *157:2 *464:Y 0.282708
*END

*D_NET *158 7.9155e-05

*CONN
*I *463:Y O *C 19.34 22.645 *L 0 *D AOI211XL
*I *420:D I *C 19.37 21.445 *L 0.00021 *D DFFQXL

*CAP
1 *420:D 3.95774854e-05
2 *158:2 3.95774854e-05

*RES
1 *420:D *158:2 4.22227383
2 *158:2 *463:Y 3.29994
*END

*D_NET *159 0.000147581

*CONN
*I *462:Y O *C 38.54 25.235 *L 0 *D AOI211XL
*I *424:D I *C 38.97 26.435 *L 0.00021 *D DFFQXL

*CAP
1 *462:Y 7.37905518e-05
2 *424:D 7.37905518e-05

*RES
1 *424:D *462:Y 8.2705
*END

*D_NET *160 0.000280857

*CONN
*I *461:Y O *C 19.34 29.485 *L 0 *D AOI211XL
*I *423:D I *C 21.37 31.705 *L 0.00021 *D DFFQXL

*CAP
1 *461:Y 0.000140428545
2 *423:D 0.000140428545

*RES
1 *423:D *461:Y 15.7413
*END

*D_NET *161 0.00028801

*CONN
*I *460:Y O *C 33.54 32.075 *L 0 *D AOI211XL
*I *426:D I *C 36.97 31.705 *L 0.00021 *D DFFQXL

*CAP
1 *460:Y 0.000144004824
2 *426:D 0.000144004824

*RES
1 *426:D *460:Y 16.6323
*END

*D_NET *162 0.000275016

*CONN
*I *459:Y O *C 25.14 28.655 *L 0 *D AOI211XL
*I *427:D I *C 26.17 31.705 *L 0.00021 *D DFFQXL

*CAP
1 *459:Y 0.00013750792
2 *427:D 0.00013750792

*RES
1 *427:D *459:Y 9.8052
*END

*D_NET *163 0.000260472

*CONN
*I *458:Y O *C 29.34 28.655 *L 0 *D AOI211XL
*I *414:D I *C 29.77 31.705 *L 0.00021 *D DFFQXL

*CAP
1 *458:Y 7.12876e-05
2 *414:D 5.89486e-05
3 *163:2 0.000130236152

*RES
1 *414:D *163:2 4.50958
2 *163:2 *458:Y 4.91011143
*END

*D_NET *164 0.000157714

*CONN
*I *457:Y O *C 22.54 8.965 *L 0 *D AOI211XL
*I *413:D I *C 21.77 7.765 *L 0.00021 *D DFFQXL

*CAP
1 *457:Y 2.30079e-05
2 *413:D 5.5849e-05
3 *164:2 7.88569434e-05

*RES
1 *413:D *164:2 4.45663929
2 *164:2 *457:Y 3.76913
*END

*D_NET *165 0.000135779

*CONN
*I *456:Y O *C 19.74 11.555 *L 0 *D AOI211XL
*I *428:D I *C 19.77 9.335 *L 0.00021 *D DFFQXL

*CAP
1 *428:D 6.78896924e-05
2 *165:2 6.78896924e-05

*RES
1 *428:D *165:2 4.22227383
2 *165:2 *456:Y 3.29994
*END

*D_NET *166 0.000441194

*CONN
*I *455:Y O *C 35.54 25.235 *L 0 *D AOI211XL
*I *415:D I *C 39.17 28.285 *L 0.00021 *D DFFQXL

*CAP
1 *455:Y 0.000220596797
2 *415:D 0.000220596797

*RES
1 *415:D *455:Y 18.4919
*END

*D_NET *167 0.000231028

*CONN
*I *451:Y O *C 33.9 23.465 *L 0 *D INVXL
*I *357:A1 I *C 32.26 23.235 *L 0.000212 *D AOI211XL

*CAP
1 *451:Y 2.4497e-05
2 *357:A1 9.10168e-05
3 *167:2 0.000115513799

*RES
1 *357:A1 *167:2 8.27109814
2 *167:2 *451:Y 6.80508
*END

*D_NET *168 0.000118971

*CONN
*I *450:Y O *C 16.54 18.395 *L 0 *D AOI211XL
*I *431:D I *C 16.37 16.175 *L 0.00021 *D DFFQXL

*CAP
1 *450:Y 8.58311e-06
2 *431:D 5.09023e-05
3 *168:2 5.94854346e-05

*RES
1 *431:D *168:2 4.29487228
2 *168:2 *450:Y 3.3572
*END

*D_NET *169 0.000372648

*CONN
*I *449:Y O *C 36.14 15.805 *L 0 *D AOI211XL
*I *430:D I *C 39.37 16.175 *L 0.00021 *D DFFQXL

*CAP
1 *449:Y 0.000145971777
2 *430:D 0.000145971777
3 *430:D *141:5 8.07046875e-05

*RES
1 *430:D *449:Y 16.745
*END

*D_NET *170 0.000180125

*CONN
*I *448:Y O *C 23.93 26.07 *L 0 *D INVX1
*I *377:B0 I *C 23.1 24.605 *L 0.00039 *D OAI211X1

*CAP
1 *377:B0 6.24059e-05
2 *448:Y 2.06236e-05
3 *170:2 6.94394092e-05
4 *170:3 2.7656e-05

*RES
1 *170:3 *448:Y 0.731103
2 *170:2 *170:3 3.3572
3 *377:B0 *170:2 4.29487228
*END

*D_NET *171 0.000206113

*CONN
*I *447:Y O *C 20.54 26.065 *L 0 *D AOI211XL
*I *417:D I *C 19.77 28.285 *L 0.00021 *D DFFQXL

*CAP
1 *447:Y 7.39692e-05
2 *417:D 2.90873e-05
3 *171:2 0.000103056436

*RES
1 *417:D *171:2 4.01055
2 *171:2 *447:Y 4.77457047
*END

*D_NET *172 0.000206709

*CONN
*I *446:Y O *C 31.73 25.23 *L 0 *D INVX1
*I *376:B0 I *C 30.9 24.605 *L 0.00039 *D OAI211X1

*CAP
1 *446:Y 1.8955e-05
2 *376:B0 8.43994e-05
3 *172:2 0.000103354453

*RES
1 *376:B0 *172:2 11.0833645
2 *172:2 *446:Y 3.57246
*END

*D_NET *173 0.000190258

*CONN
*I *445:Y O *C 27.5 24.415 *L 0 *D INVXL
*I *358:A1 I *C 26.46 24.645 *L 0.000212 *D AOI211XL

*CAP
1 *445:Y 9.51290137e-05
2 *358:A1 9.51290137e-05

*RES
1 *358:A1 *445:Y 14.6492
*END

*D_NET *174 7.06911e-05

*CONN
*I *444:Y O *C 23.1 13.205 *L 0 *D INVXL
*I *356:A1 I *C 23.7 13.015 *L 0.000392 *D AOI211X1

*CAP
1 *444:Y 3.53455542e-05
2 *356:A1 3.53455542e-05

*RES
1 *356:A1 *444:Y 7.04646
*END

*D_NET *175 9.93013e-05

*CONN
*I *443:Y O *C 19.54 15.805 *L 0 *D AOI211XL
*I *416:D I *C 19.77 14.605 *L 0.00021 *D DFFQXL

*CAP
1 *443:Y 4.96506689e-05
2 *416:D 4.96506689e-05

*RES
1 *416:D *443:Y 7.7641
*END

*D_NET *176 0.000525117

*CONN
*I *469:Y O *C 36.38 25.05 *L 0 *D AOI21X1
*I *451:A I *C 33.7 23.275 *L 0.000212 *D INVXL
*I *442:A I *C 33.1 23.085 *L 0.00039 *D NAND2X1
*I *341:C I *C 34.7 23.275 *L 0.000212 *D NOR3BXL

*CAP
1 *469:Y 6.63404e-05
2 *341:C 2.24113e-05
3 *442:A 4.13053e-05
4 *176:4 0.000151873
5 *176:5 0.000154912471
6 *176:6 8.82742e-05

*RES
1 *442:A *176:6 4.02952
2 *176:6 *176:5 1.10359
3 *451:A *176:6 3.29991
4 *341:C *176:5 3.58932
5 *176:5 *176:4 7.90607929
6 *176:4 *469:Y 3.93494
*END

*D_NET *177 0.000555873

*CONN
*I *467:Y O *C 27.78 28.47 *L 0 *D AOI21X1
*I *445:A I *C 27.3 24.605 *L 0.000212 *D INVXL
*I *441:A I *C 28.1 24.795 *L 0.00039 *D NAND2X1
*I *339:C0 I *C 29.5 26.695 *L 0.000212 *D AOI211XL

*CAP
1 *339:C0 8.9169e-05
2 *441:A 1.98476e-05
3 *467:Y 6.36567e-05
4 *445:A 2.12797e-05
5 *177:4 0.000173151484
6 *177:5 9.21493e-05
7 *177:6 9.66198e-05

*RES
1 *445:A *177:6 3.64395
2 *177:5 *467:Y 4.63087
3 *177:6 *177:4 0.922194
4 *177:4 *177:5 0.559449
5 *441:A *177:6 4.09258
6 *339:C0 *177:4 11.7512941
*END

*D_NET *178 0.000790596

*CONN
*I *470:Y O *C 16.98 11.37 *L 0 *D AOI21X1
*I *444:A I *C 22.9 13.015 *L 0.000212 *D INVXL
*I *440:A I *C 22.5 14.535 *L 0.00039 *D NAND2X1
*I *338:C0 I *C 21.1 13.015 *L 0.000212 *D AOI211XL

*CAP
1 *444:A 6.18102e-05
2 *440:A 7.34938e-05
3 *470:Y 0.000190913
4 *338:C0 2.4617e-05
5 *178:4 0.000179769
6 *178:5 0.000259995469

*RES
1 *338:C0 *178:5 6.75913
2 *178:5 *470:Y 11.4606619
3 *178:4 *178:5 0.816495
4 *440:A *178:4 8.00459
5 *444:A *178:4 7.51511
*END

*D_NET *179 0.000454783

*CONN
*I *475:Y O *C 25.14 13.125 *L 0 *D XNOR2X1
*I *454:A I *C 28.3 10.925 *L 0.000395 *D INVX1
*I *436:AN I *C 27.9 11.115 *L 0.00021 *D NAND3BXL
*I *422:C I *C 26.96 11.265 *L 0.000392 *D NOR3X1

*CAP
1 *454:A 3.76693e-05
2 *422:C 2.14575e-05
3 *179:4 9.1313e-05
4 *179:5 0.000189721582
5 *179:6 0.00011462

*RES
1 *179:6 *475:Y 0.49995
2 *179:5 *179:6 8.76295567
3 *422:C *179:5 6.92963
4 *179:4 *179:5 4.44606
5 *436:AN *179:4 3.30001
6 *454:A *179:4 4.04078
*END

*D_NET *180 0.0001719

*CONN
*I *436:Y O *C 27.76 11.44 *L 0 *D NAND3BXL
*I *411:S0 I *C 28.34 12.57 *L 0.000421 *D MXI2XL

*CAP
1 *436:Y 8.59499023e-05
2 *411:S0 8.59499023e-05

*RES
1 *411:S0 *436:Y 8.28195
*END

*D_NET *181 0.000596047

*CONN
*I *472:Y O *C 35.18 19.41 *L 0 *D AOI21X1
*I *439:A I *C 31.1 19.665 *L 0.00039 *D NAND2X1
*I *435:B I *C 30.805 19.63 *L 0.000212 *D NOR2XL
*I *342:C0 I *C 34.1 19.855 *L 0.000212 *D AOI211XL

*CAP
1 *342:C0 2.43796e-05
2 *472:Y 8.23732e-05
3 *439:A 2.55706e-05
4 *435:B 3.52247e-05
5 *181:4 0.000237226484
6 *181:5 0.000191273

*RES
1 *435:B *181:5 7.06542
2 *181:5 *181:4 2.24894
3 *439:A *181:5 6.84045
4 *181:4 *472:Y 7.69078732
5 *342:C0 *181:4 6.84984
*END

*D_NET *182 0.000249863

*CONN
*I *435:Y O *C 30.925 19.375 *L 0 *D NOR2XL
*I *367:B I *C 31.9 17.955 *L 0.000393 *D NOR3X1

*CAP
1 *435:Y 0.000124931338
2 *367:B 0.000124931338

*RES
1 *367:B *435:Y 15.1006
*END

*D_NET *183 0.000293255

*CONN
*I *452:Y O *C 23.93 21.81 *L 0 *D INVX1
*I *434:B I *C 27.365 21.255 *L 0.000392 *D NOR2BX1
*I *379:B0 I *C 24.7 21.185 *L 0.00039 *D OAI211X1

*CAP
1 *434:B 9.48909e-05
2 *452:Y 4.44062e-05
3 *183:3 0.000102221963
4 *183:4 5.17372e-05

*RES
1 *183:4 *452:Y 4.03
2 *183:3 *183:4 3.34675
3 *379:B0 *183:4 3.29999
4 *434:B *183:3 8.70645046
*END

*D_NET *184 0.000445843

*CONN
*I *453:Y O *C 22.93 18.39 *L 0 *D INVX1
*I *433:B I *C 24.965 17.835 *L 0.000392 *D NOR2BX1
*I *372:B0 I *C 24.1 17.765 *L 0.00039 *D OAI211X1

*CAP
1 *433:B 0.000127375
2 *453:Y 0.000222921367
3 *372:B0 9.55465e-05

*RES
1 *372:B0 *453:Y 8.22335
2 *433:B *453:Y 15.4495239
*END

*D_NET *185 0.000218511

*CONN
*I *454:Y O *C 28.53 11.55 *L 0 *D INVX1
*I *432:B I *C 29.5 10.735 *L 0.000392 *D NAND2X1
*I *410:A1 I *C 30.19 11.37 *L 0.000212 *D OA21X1

*CAP
1 *410:A1 6.91408e-05
2 *432:B 0.000109255313
3 *454:Y 4.01145e-05

*RES
1 *432:B *454:Y 1.22865
2 *410:A1 *432:B 7.74908066
*END

*D_NET *186 5.90086e-05

*CONN
*I *429:Y O *C 25.13 22.65 *L 0 *D INVX1
*I *381:A1 I *C 25.5 23.085 *L 0.000391 *D OAI211X1

*CAP
1 *429:Y 2.95042993e-05
2 *381:A1 2.95042993e-05

*RES
1 *381:A1 *429:Y 7.01249
*END

*D_NET *187 0.000130415

*CONN
*I *425:Y O *C 31.3 20.995 *L 0 *D INVXL
*I *384:B0 I *C 30.56 21.21 *L 0.000212 *D AOI211XL

*CAP
1 *425:Y 6.52074805e-05
2 *384:B0 6.52074805e-05

*RES
1 *384:B0 *425:Y 7.81703
*END

*D_NET *188 0.000128746

*CONN
*I *422:Y O *C 27.14 10.975 *L 0 *D NOR3X1
*I *404:S0 I *C 27.14 9.15 *L 0.000421 *D MXI2XL

*CAP
1 *404:S0 6.43730176e-05
2 *188:2 6.43730176e-05

*RES
1 *404:S0 *188:2 4.36592102
2 *188:2 *422:Y 3.29996
*END

*D_NET *189 0.000857353

*CONN
*I *438:Y O *C 22.155 24.84 *L 0 *D NAND2X1
*I *429:A I *C 24.9 23.275 *L 0.000395 *D INVX1
*I *412:A I *C 28.22 23.15 *L 0.000392 *D NOR4X1
*I *403:A0 I *C 29.225 23.22 *L 0.000391 *D OAI21X1

*CAP
1 *403:A0 7.03938e-05
2 *412:A 3.65985e-05
3 *429:A 2.64065e-05
4 *438:Y 0.000142516
5 *189:4 0.000139952
6 *189:5 5.34657e-05
7 *189:6 0.000221610078
8 *403:A0 *403:A1 0.000166416172

*RES
1 *189:6 *438:Y 9.67872
2 *429:A *189:6 6.9297
3 *189:5 *189:4 6.78859
4 *189:4 *189:6 1.80682
5 *412:A *189:5 1.39456
6 *403:A0 *189:4 12.2808218
*END

*D_NET *190 0.000132799

*CONN
*I *411:Y O *C 27.805 12.355 *L 0 *D MXI2XL
*I *355:A0 I *C 28.7 13.015 *L 0.000212 *D OAI22XL

*CAP
1 *355:A0 5.35249e-05
2 *411:Y 1.28746e-05
3 *190:2 6.63995752e-05

*RES
1 *190:2 *411:Y 3.40199
2 *355:A0 *190:2 4.24873829
*END

*D_NET *191 0.000228643

*CONN
*I *432:Y O *C 29.755 11.16 *L 0 *D NAND2X1
*I *410:B0 I *C 30.3 10.925 *L 0.00021 *D OA21X1
*I *406:S0 I *C 30.54 9.15 *L 0.000421 *D MXI2XL

*CAP
1 *432:Y 5.15586e-05
2 *406:S0 6.27631e-05
3 *191:3 0.000114321709

*RES
1 *406:S0 *191:3 4.55105305
2 *191:3 *432:Y 4.36592
3 *410:B0 *191:3 3.29996
*END

*D_NET *192 0.000143647

*CONN
*I *410:Y O *C 30.94 10.81 *L 0 *D OA21X1
*I *351:A0 I *C 30.9 13.015 *L 0.000212 *D OAI22XL

*CAP
1 *351:A0 7.18235986e-05
2 *192:2 7.18235986e-05

*RES
1 *192:2 *410:Y 3.29993
2 *351:A0 *192:2 4.63092327
*END

*D_NET *193 0.000384688

*CONN
*I *433:Y O *C 24.92 17.625 *L 0 *D NOR2BX1
*I *409:AN I *C 25.1 16.245 *L 0.00021 *D NOR2BX1
*I *382:A1 I *C 23.5 14.535 *L 0.000391 *D OAI211X1

*CAP
1 *433:Y 1.59153e-05
2 *409:AN 4.35148e-06
3 *382:A1 5.17364e-05
4 *193:3 6.07965e-05
5 *193:4 0.000124693
6 *193:5 0.000127196309

*RES
1 *382:A1 *193:5 4.2879
2 *193:5 *193:4 8.17322731
3 *409:AN *193:4 3.33634
4 *193:4 *193:3 0.986484
5 *193:3 *433:Y 3.51168
*END

*D_NET *194 0.000265479

*CONN
*I *434:Y O *C 27.32 21.045 *L 0 *D NOR2BX1
*I *408:AN I *C 27.3 19.665 *L 0.00021 *D NOR2BX1
*I *385:A1 I *C 28.3 19.665 *L 0.000391 *D OAI211X1

*CAP
1 *385:A1 8.54143e-05
2 *434:Y 2.37224e-05
3 *408:AN 2.36029e-05
4 *194:3 0.000132739541

*RES
1 *408:AN *194:3 3.68983
2 *194:3 *434:Y 3.85561
3 *385:A1 *194:3 11.3167763
*END

*D_NET *195 0.000617862

*CONN
*I *437:Y O *C 30.355 24.84 *L 0 *D NAND2X1
*I *412:C I *C 28.585 22.64 *L 0.000392 *D NOR4X1
*I *407:A1 I *C 28.24 21.4 *L 0.000391 *D OAI21X1
*I *384:A1 I *C 30.26 21.225 *L 0.000212 *D AOI211XL

*CAP
1 *437:Y 5.70405e-05
2 *384:A1 4.53005e-05
3 *412:C 1.53177e-05
4 *407:A1 6.19901e-05
5 *195:4 0.000113428
6 *195:5 0.000174582012
7 *195:6 0.000150204

*RES
1 *407:A1 *195:6 7.68097
2 *195:6 *195:5 7.95316696
3 *412:C *195:6 3.57247
4 *195:5 *195:4 1.13771
5 *384:A1 *195:5 4.0102
6 *195:4 *437:Y 4.22233
*END

*D_NET *196 0.000878334

*CONN
*I *442:Y O *C 33.555 23.04 *L 0 *D NAND2X1
*I *425:A I *C 31.1 21.185 *L 0.000212 *D INVXL
*I *412:B I *C 28.425 22.83 *L 0.000392 *D NOR4X1
*I *407:A0 I *C 28.025 21.24 *L 0.000391 *D OAI21X1
*I *389:A1 I *C 30.72 23.23 *L 0.000392 *D AOI21X1

*CAP
1 *425:A 3.83842e-05
2 *389:A1 6.10365e-05
3 *442:Y 0.000105201
4 *412:B 9.56067e-05
5 *196:5 0.000109613
6 *196:6 0.0001055
7 *196:7 0.000172912
8 *196:8 0.000190079219

*RES
1 *196:8 *196:7 5.45923
2 *407:A0 *196:8 3.29989
3 *412:B *196:8 5.07649
4 *196:7 *196:6 4.39756
5 *196:5 *442:Y 8.83096
6 *196:6 *196:5 3.33638
7 *389:A1 *196:6 10.7240677
8 *425:A *196:7 7.21276
*END

*D_NET *197 0.000185609

*CONN
*I *406:Y O *C 30.005 8.935 *L 0 *D MXI2XL
*I *350:A0 I *C 31.1 9.595 *L 0.000212 *D OAI22XL

*CAP
1 *406:Y 9.28044336e-05
2 *350:A0 9.28044336e-05

*RES
1 *350:A0 *406:Y 14.7505
*END

*D_NET *198 0.000101209

*CONN
*I *405:Y O *C 27.13 18.39 *L 0 *D INVX1
*I *396:B0 I *C 27.7 17.765 *L 0.00039 *D OAI211X1

*CAP
1 *405:Y 5.06043457e-05
2 *396:B0 5.06043457e-05

*RES
1 *396:B0 *405:Y 7.35974
*END

*D_NET *199 0.000609636

*CONN
*I *564:Y O *C 25.53 8.97 *L 0 *D INVX1
*I *526:A0 I *C 24.9 10.925 *L 0.000391 *D AOI22X1
*I *404:B I *C 26.9 9.215 *L 0.00021 *D MXI2XL
*I *349:B0 I *C 28.5 9.595 *L 0.000212 *D OAI22XL

*CAP
1 *349:B0 5.98434e-05
2 *404:B 1.76422e-05
3 *526:A0 4.47037e-05
4 *564:Y 2.75384e-05
5 *199:4 6.65787e-05
6 *199:5 0.000116646
7 *199:6 0.000138282773
8 *199:7 2.88487e-05
9 *349:B0 *144:4 0.00010955334

*RES
1 *199:7 *564:Y 0.715695
2 *199:6 *199:7 3.34924
3 *526:A0 *199:6 3.98269
4 *404:B *199:5 3.50418
5 *199:5 *199:6 8.69393349
6 *199:4 *199:5 3.34685
7 *349:B0 *199:4 8.00278
*END

*D_NET *200 0.000176191

*CONN
*I *404:Y O *C 26.605 8.935 *L 0 *D MXI2XL
*I *349:A0 I *C 27.7 9.595 *L 0.000212 *D OAI22XL

*CAP
1 *404:Y 8.80956641e-05
2 *349:A0 8.80956641e-05

*RES
1 *349:A0 *404:Y 14.7703
*END

*D_NET *201 0.000235081

*CONN
*I *407:Y O *C 28.565 21.67 *L 0 *D OAI21X1
*I *403:B0 I *C 29.595 22.91 *L 0.000393 *D OAI21X1
*I *397:A I *C 28.9 21.375 *L 0.00039 *D NAND2X1

*CAP
1 *403:B0 0.000111163
2 *407:Y 6.37787e-06
3 *201:3 0.000117540361

*RES
1 *201:3 *407:Y 0.23965
2 *397:A *201:3 0.500038
3 *403:B0 *201:3 11.8176937
*END

*D_NET *202 0.000283957

*CONN
*I *403:Y O *C 29.765 22.79 *L 0 *D OAI21X1
*I *398:A I *C 29.7 19.665 *L 0.00039 *D NAND2X1

*CAP
1 *398:A 3.9816e-05
2 *403:Y 4.1008e-05
3 *202:2 4.82799e-05
4 *202:3 4.94718555e-05
5 *398:A *389:A0 0.000105381016

*RES
1 *202:3 *403:Y 7.95316696
2 *202:2 *202:3 0.181427
3 *398:A *202:2 4.22233
*END

*D_NET *203 0.000377655

*CONN
*I *409:Y O *C 24.72 16.575 *L 0 *D NOR2BX1
*I *405:A I *C 26.9 17.765 *L 0.000395 *D INVX1
*I *402:B I *C 26.3 16.625 *L 0.000392 *D NAND2X1
*I *399:A1 I *C 26.24 17.98 *L 0.000391 *D OAI21X1

*CAP
1 *405:A 4.72665e-05
2 *402:B 6.61622e-06
3 *409:Y 7.6353e-05
4 *399:A1 4.52991e-05
5 *203:4 9.62614e-05
6 *203:5 0.000105857852

*RES
1 *399:A1 *203:5 7.50703
2 *203:4 *409:Y 11.3881826
3 *203:5 *203:4 0.268301
4 *402:B *203:4 3.43143
5 *405:A *203:5 4.22226
*END

*D_NET *204 0.000528097

*CONN
*I *408:Y O *C 26.92 19.995 *L 0 *D NOR2BX1
*I *402:A I *C 26.1 16.245 *L 0.00039 *D NAND2X1
*I *396:A1 I *C 27.5 17.955 *L 0.000391 *D OAI211X1

*CAP
1 *396:A1 6.85462e-05
2 *408:Y 1.26952e-05
3 *402:A 9.09565e-05
4 *204:3 0.000104545
5 *204:4 0.000251352793

*RES
1 *402:A *204:4 11.9050741
2 *204:3 *408:Y 3.57247
3 *204:4 *204:3 7.96421
4 *396:A1 *204:4 10.7259
*END

*D_NET *205 0.000412464

*CONN
*I *402:Y O *C 26.555 16.2 *L 0 *D NAND2X1
*I *401:B0 I *C 27.9 16.435 *L 0.00021 *D OA21X1
*I *400:A1 I *C 28.92 16.39 *L 0.000392 *D AOI21X1

*CAP
1 *400:A1 0.000129224
2 *401:B0 2.34853e-05
3 *402:Y 5.35256e-05
4 *205:3 0.00020623207

*RES
1 *205:3 *402:Y 4.75817
2 *401:B0 *205:3 3.83725
3 *400:A1 *205:3 11.7601156
*END

*D_NET *206 0.000708103

*CONN
*I *412:Y O *C 28.94 22.445 *L 0 *D NOR4X1
*I *401:A1 I *C 27.79 15.99 *L 0.000212 *D OA21X1
*I *400:B0 I *C 29.2 16.44 *L 0.000392 *D AOI21X1

*CAP
1 *400:B0 4.24988e-05
2 *412:Y 4.3808e-05
3 *401:A1 4.82801e-05
4 *206:3 0.000215413
5 *206:4 0.000262379648
6 *206:4 *221:8 9.57250586e-05

*RES
1 *401:A1 *206:4 7.5152
2 *206:4 *206:3 11.6326809
3 *206:3 *412:Y 7.16783
4 *400:B0 *206:4 7.32882
*END

*D_NET *207 0.000921607

*CONN
*I *561:Y O *C 25.93 15.81 *L 0 *D INVX1
*I *527:A0 I *C 24.9 14.345 *L 0.000391 *D AOI22X1
*I *411:A I *C 27.38 12.48 *L 0.00021 *D MXI2XL
*I *399:A0 I *C 26.025 17.82 *L 0.000391 *D OAI21X1
*I *355:B0 I *C 29.5 13.015 *L 0.000212 *D OAI22XL

*CAP
1 *355:B0 6.86647e-05
2 *411:A 3.67756e-05
3 *399:A0 7.09302e-05
4 *561:Y 1.94895e-05
5 *207:5 0.000184893613
6 *207:6 7.09302e-05
7 *207:7 9.80485e-05
8 *207:8 0.000158012
9 *355:B0 *7:24 0.000113248828
10 *355:B0 *309:A0 0.000100612637

*RES
1 *207:8 *207:7 4.90266
2 *527:A0 *207:8 3.29992
3 *207:7 *561:Y 0.657365
4 *207:6 *561:Y 3.29992
5 *399:A0 *207:6 4.22227
6 *207:5 *207:8 5.9311
7 *411:A *207:5 7.07213
8 *355:B0 *207:5 8.66997242
*END

*D_NET *208 0.000750542

*CONN
*I *400:Y O *C 29.38 15.99 *L 0 *D AOI21X1
*I *398:B I *C 29.9 20.045 *L 0.000392 *D NAND2X1
*I *397:B I *C 29.1 20.995 *L 0.000392 *D NAND2X1
*I *392:A0 I *C 30.7 16.435 *L 0.000211 *D OA21X1

*CAP
1 *392:A0 6.21083e-05
2 *398:B 2.35431e-05
3 *400:Y 5.00072e-05
4 *397:B 7.30741e-05
5 *208:4 0.000278651719
6 *208:5 0.000263153

*RES
1 *397:B *208:5 7.77419
2 *208:4 *400:Y 7.31903
3 *208:5 *208:4 10.5440617
4 *398:B *208:5 6.86114
5 *392:A0 *208:4 7.73445
*END

*D_NET *209 0.00027132

*CONN
*I *399:Y O *C 26.565 18.25 *L 0 *D OAI21X1
*I *395:A I *C 27.7 19.855 *L 0.000395 *D INVX1
*I *391:B0 I *C 26.2 19.86 *L 0.000392 *D AOI21X1

*CAP
1 *395:A 8.41617e-05
2 *399:Y 1.63326e-05
3 *391:B0 3.51659e-05
4 *209:3 0.000135660176

*RES
1 *391:B0 *209:3 7.41732121
2 *209:3 *399:Y 3.56504
3 *395:A *209:3 5.19742
*END

*D_NET *210 0.00010848

*CONN
*I *395:Y O *C 27.93 19.23 *L 0 *D INVX1
*I *385:C0 I *C 28.785 19.665 *L 0.000392 *D OAI211X1

*CAP
1 *395:Y 5.42402246e-05
2 *385:C0 5.42402246e-05

*RES
1 *385:C0 *395:Y 7.67338
*END

*D_NET *211 0.000567198

*CONN
*I *397:Y O *C 29.355 21.42 *L 0 *D NAND2X1
*I *394:A I *C 26.3 23.275 *L 0.000395 *D INVX1
*I *390:B0 I *C 24.2 23.28 *L 0.000392 *D AOI21X1

*CAP
1 *394:A 1.93701e-05
2 *397:Y 0.000117361
3 *390:B0 7.21231e-05
4 *211:3 0.000208854668
5 *394:A *381:B0 0.000149488447

*RES
1 *390:B0 *211:3 8.53826
2 *211:3 *397:Y 9.76788998
3 *394:A *211:3 6.9296
*END

*D_NET *212 7.43866e-05

*CONN
*I *394:Y O *C 26.53 22.65 *L 0 *D INVX1
*I *381:C0 I *C 25.985 23.085 *L 0.000392 *D OAI211X1

*CAP
1 *394:Y 3.71932983e-05
2 *381:C0 3.71932983e-05

*RES
1 *381:C0 *394:Y 7.52223
*END

*D_NET *213 0.000162363

*CONN
*I *393:Y O *C 24.13 15.81 *L 0 *D INVX1
*I *382:C0 I *C 23.985 14.535 *L 0.000392 *D OAI211X1

*CAP
1 *393:Y 4.54188e-05
2 *382:C0 3.57627e-05
3 *213:2 8.11815283e-05

*RES
1 *382:C0 *213:2 3.82911
2 *213:2 *393:Y 4.36592102
*END

*D_NET *214 0.00158024

*CONN
*I *401:Y O *C 28.54 16.55 *L 0 *D OA21X1
*I *399:B0 I *C 26.395 18.13 *L 0.000393 *D OAI21X1
*I *396:C0 I *C 27.985 17.955 *L 0.000392 *D OAI211X1
*I *392:A1 I *C 30.99 15.99 *L 0.000212 *D OA21X1
*I *378:B I *C 35.5 7.505 *L 0.000209 *D MX2XL

*CAP
1 *378:B 4.15405e-05
2 *392:A1 4.92318e-05
3 *401:Y 3.33181e-05
4 *396:C0 1.82369e-05
5 *399:B0 8.9345e-05
6 *214:5 0.000465993
7 *214:6 0.000519633281
8 *214:7 5.78745e-05
9 *214:8 4.02322e-05
10 *214:9 0.000125351
11 *214:10 0.000139473

*RES
1 *399:B0 *214:10 11.7146
2 *214:10 *214:9 0.514156
3 *396:C0 *214:10 6.75908
4 *214:8 *401:Y 4.00099
5 *214:9 *214:8 3.35725
6 *214:7 *214:6 3.35725
7 *214:6 *214:9 1.87476
8 *392:A1 *214:7 4.28773
9 *378:B *214:5 4.19247
10 *214:5 *214:6 21.0204124
*END

*D_NET *215 0.000656962

*CONN
*I *439:Y O *C 31.555 19.62 *L 0 *D NAND2X1
*I *408:B I *C 26.965 19.785 *L 0.000392 *D NOR2BX1
*I *391:A1 I *C 25.92 19.81 *L 0.000392 *D AOI21X1
*I *385:B0 I *C 28.5 19.855 *L 0.00039 *D OAI211X1

*CAP
1 *385:B0 2.61056e-05
2 *439:Y 0.000171364
3 *408:B 6.67603e-06
4 *391:A1 4.55984e-05
5 *215:4 0.00027620793
6 *215:5 0.000131013

*RES
1 *391:A1 *215:5 4.08241
2 *408:B *215:5 3.36249
3 *215:5 *215:4 4.89173
4 *215:4 *439:Y 9.34457779
5 *385:B0 *215:4 6.84988
*END

*D_NET *216 0.000793695

*CONN
*I *441:Y O *C 28.555 24.84 *L 0 *D NAND2X1
*I *412:D I *C 28.805 23.09 *L 0.000392 *D NOR4X1
*I *403:A1 I *C 29.44 23.06 *L 0.000391 *D OAI21X1
*I *390:A1 I *C 23.92 23.23 *L 0.000392 *D AOI21X1
*I *381:B0 I *C 25.7 23.275 *L 0.00039 *D OAI211X1

*CAP
1 *403:A1 4.06514e-05
2 *381:B0 2.90278e-05
3 *390:A1 5.13189e-05
4 *216:5 6.03199e-05
5 *216:6 6.634e-05
6 *216:7 9.82279e-05
7 *216:8 0.000131905078
8 *381:B0 *394:A 0.000149488447
9 *403:A1 *403:A0 0.000166416172

*RES
1 *390:A1 *216:8 8.11326504
2 *216:8 *216:7 2.49454
3 *381:B0 *216:8 6.84049
4 *216:6 *216:5 4.54972
5 *216:7 *216:6 3.33637
6 *216:5 *441:Y 0.500023
7 *412:D *216:6 3.29998
8 *403:A1 *216:7 7.26574
*END

*D_NET *217 0.000116467

*CONN
*I *302:A I *C 29.7 17.955 *L 0.00021 *D BUFX2
*I *396:Y O *C 28.145 18.55 *L 0 *D OAI211X1

*CAP
1 *396:Y 5.82337402e-05
2 *302:A 5.82337402e-05

*RES
1 *302:A *396:Y 11.3573
*END

*D_NET *218 0.00046885

*CONN
*I *440:Y O *C 22.955 14.58 *L 0 *D NAND2X1
*I *409:B I *C 24.765 16.365 *L 0.000392 *D NOR2BX1
*I *387:A1 I *C 23.12 16.39 *L 0.000392 *D AOI21X1
*I *382:B0 I *C 23.7 14.345 *L 0.00039 *D OAI211X1

*CAP
1 *409:B 7.14068e-05
2 *382:B0 5.44188e-05
3 *440:Y 2.26507e-06
4 *218:4 7.84399e-05
5 *218:5 5.42998e-05
6 *218:6 0.000103950498
7 *218:6 *67:24 0.000104069707

*RES
1 *218:6 *440:Y 3.46583
2 *218:5 *218:6 1.49676
3 *218:4 *218:5 3.34682
4 *387:A1 *218:5 3.29998
5 *382:B0 *218:6 4.36593
6 *409:B *218:4 7.95102119
*END

*D_NET *219 0.000701189

*CONN
*I *398:Y O *C 30.155 19.62 *L 0 *D NAND2X1
*I *389:B0 I *C 31 23.28 *L 0.000392 *D AOI21X1
*I *386:A I *C 30.1 16.435 *L 0.000211 *D NAND2XL
*I *384:C0 I *C 30.7 21.185 *L 0.000212 *D AOI211XL

*CAP
1 *389:B0 5.87099e-05
2 *384:C0 1.19803e-05
3 *386:A 0.000143828
4 *219:4 0.00020677
5 *219:5 0.000279903418

*RES
1 *219:5 *398:Y 3.29999
2 *386:A *219:5 5.74219227
3 *384:C0 *219:4 3.64766
4 *219:4 *219:5 2.79697
5 *389:B0 *219:4 4.46418
*END

*D_NET *220 0.00086689

*CONN
*I *386:Y O *C 30.54 16.535 *L 0 *D NAND2XL
*I *368:B I *C 35.3 9.595 *L 0.000209 *D MX2XL

*CAP
1 *386:Y 0.000192582
2 *368:B 0.000129938
3 *220:2 0.000322520742
4 *220:2 *7:19 0.00013399124
5 *220:2 *322:B 8.78572461e-05

*RES
1 *368:B *220:2 6.69572
2 *220:2 *386:Y 15.4364109
*END

*D_NET *221 0.00168157

*CONN
*I *562:Y O *C 29.53 19.23 *L 0 *D INVX1
*I *527:B1 I *C 25.54 14.61 *L 0.000392 *D AOI22X1
*I *406:A I *C 29.58 9.06 *L 0.00021 *D MXI2XL
*I *384:A0 I *C 29.96 21.51 *L 0.000212 *D AOI211XL
*I *350:B0 I *C 31.9 9.595 *L 0.000212 *D OAI22XL

*CAP
1 *350:B0 8.00465e-05
2 *384:A0 9.89445e-05
3 *406:A 2.22333e-05
4 *562:Y 3.92189e-05
5 *527:B1 6.09179e-05
6 *221:5 0.00030482
7 *221:6 0.000194728
8 *221:7 0.000368595117
9 *221:8 0.000170408
10 *221:8 *206:4 9.57250586e-05
11 *221:6 *376:A0 0.000131249424
12 *350:B0 *144:4 0.000114679336

*RES
1 *527:B1 *221:8 7.52227
2 *221:8 *221:7 9.38611
3 *221:7 *221:6 2.48704
4 *221:6 *562:Y 10.4774
5 *221:5 *221:7 9.07683
6 *406:A *221:5 6.80512
7 *384:A0 *221:6 12.1444464
8 *350:B0 *221:5 8.67971
*END

*D_NET *222 0.000374079

*CONN
*I *391:Y O *C 26.38 19.41 *L 0 *D AOI21X1
*I *383:B0 I *C 22.9 21.185 *L 0.00021 *D OA21X1
*I *379:C0 I *C 24.985 21.375 *L 0.000392 *D OAI211X1

*CAP
1 *391:Y 2.65235e-05
2 *379:C0 1.70472e-05
3 *383:B0 8.77391e-05
4 *222:3 8.22551e-05
5 *222:4 0.000160515313

*RES
1 *383:B0 *222:4 8.46529007
2 *222:4 *222:3 4.57042
3 *379:C0 *222:4 6.78866
4 *222:3 *391:Y 3.68974
*END

*D_NET *223 0.000742912

*CONN
*I *476:Y O *C 17.18 22.83 *L 0 *D AOI21X1
*I *452:A I *C 23.7 21.185 *L 0.000395 *D INVX1
*I *383:A1 I *C 22.79 21.63 *L 0.000212 *D OA21X1
*I *346:C0 I *C 22.3 23.275 *L 0.000212 *D AOI211XL

*CAP
1 *452:A 4.89936e-05
2 *383:A1 4.70283e-05
3 *346:C0 1.3113e-05
4 *476:Y 0.000196935
5 *223:4 0.000108779
6 *223:5 0.000262320039
7 *223:6 6.57451e-05

*RES
1 *223:6 *223:5 3.33638
2 *223:5 *476:Y 11.2348795
3 *346:C0 *223:6 3.57244
4 *383:A1 *223:6 4.4128
5 *223:4 *223:5 4.47588
6 *452:A *223:4 4.28645
*END

*D_NET *224 0.000257134

*CONN
*I *383:Y O *C 23.54 21.07 *L 0 *D OA21X1
*I *359:A1 I *C 21.26 21.225 *L 0.000212 *D AOI211XL

*CAP
1 *383:Y 2.10993e-05
2 *359:A1 0.000107468
3 *224:2 0.000128567217

*RES
1 *359:A1 *224:2 8.72468948
2 *224:2 *383:Y 6.80511
*END

*D_NET *225 0.000227571

*CONN
*I *384:Y O *C 30.94 21.815 *L 0 *D AOI211XL
*I *380:A I *C 31.9 21.185 *L 0.000212 *D INVXL
*I *366:C0 I *C 33.185 21.375 *L 0.000392 *D OAI211X1

*CAP
1 *366:C0 6.84865e-05
2 *384:Y 4.52988e-05
3 *225:3 0.000113785264

*RES
1 *225:3 *384:Y 4.35493
2 *380:A *225:3 3.29995
3 *366:C0 *225:3 4.81939316
*END

*D_NET *226 0.000260115

*CONN
*I *575:B I *C 32.7 9.595 *L 0.000392 *D NAND2BX1
*I *388:Y O *C 33.73 8.97 *L 0 *D INVX1
*I *308:A1N I *C 33.7 7.505 *L 0.00021 *D OAI2BB1X1

*CAP
1 *308:A1N 4.97101e-05
2 *575:B 1.72255e-05
3 *388:Y 6.31215e-05
4 *226:3 4.97101e-05
5 *226:4 8.03470605e-05

*RES
1 *226:4 *388:Y 7.62140751
2 *575:B *226:4 6.74932
3 *308:A1N *226:3 4.36589
4 *226:3 *388:Y 3.29994
*END

*D_NET *227 0.000679851

*CONN
*I *473:Y O *C 21.18 22.83 *L 0 *D AOI21X1
*I *434:AN I *C 27.7 21.375 *L 0.00021 *D NOR2BX1
*I *379:A1 I *C 24.5 21.375 *L 0.000391 *D OAI211X1
*I *359:C0 I *C 21.7 21.185 *L 0.000212 *D AOI211XL

*CAP
1 *434:AN 0.000133993
2 *379:A1 3.71319e-05
3 *473:Y 4.70874e-05
4 *359:C0 1.21017e-05
5 *227:4 0.000280737871
6 *227:5 0.000168798

*RES
1 *359:C0 *227:5 3.57249
2 *227:5 *473:Y 4.2228
3 *379:A1 *227:4 7.12771
4 *227:4 *227:5 5.45571
5 *434:AN *227:4 12.8641129
*END

*D_NET *228 0.000277758

*CONN
*I *378:Y O *C 35.74 7.385 *L 0 *D MX2XL
*I *362:D I *C 37.77 5.915 *L 0.00021 *D DFFQXL

*CAP
1 *362:D 7.69486e-05
2 *378:Y 6.19302e-05
3 *228:2 0.000138878818

*RES
1 *228:2 *378:Y 7.77815
2 *362:D *228:2 8.42225552
*END

*D_NET *229 0.000497699

*CONN
*I *390:Y O *C 24.38 22.83 *L 0 *D AOI21X1
*I *377:C0 I *C 23.385 24.795 *L 0.000392 *D OAI211X1
*I *375:C0 I *C 22.585 26.505 *L 0.000392 *D OAI211X1

*CAP
1 *390:Y 2.75369e-05
2 *377:C0 3.05767e-05
3 *375:C0 7.15254e-05
4 *229:3 7.26591e-05
5 *229:4 0.000149786475
6 *229:5 0.000145615

*RES
1 *375:C0 *229:5 7.66634941
2 *377:C0 *229:4 3.82908
3 *229:4 *229:3 1.14909
4 *229:5 *229:4 4.85768
5 *229:3 *390:Y 3.76919
*END

*D_NET *230 0.000755072

*CONN
*I *468:Y O *C 20.18 29.67 *L 0 *D AOI21X1
*I *438:A I *C 21.7 24.795 *L 0.00039 *D NAND2X1
*I *377:A1 I *C 22.9 24.795 *L 0.000391 *D OAI211X1
*I *345:C I *C 22.1 28.025 *L 0.000212 *D NOR3BXL

*CAP
1 *377:A1 9.59634e-05
2 *345:C 3.71319e-05
3 *438:A 2.32449e-05
4 *468:Y 0.000111999
5 *230:4 0.000258326523
6 *230:5 0.000228404

*RES
1 *230:5 *230:4 9.36166
2 *230:4 *468:Y 8.82812
3 *438:A *230:5 10.0970268
4 *345:C *230:4 7.12197
5 *377:A1 *230:5 7.74533
*END

*D_NET *231 0.000324726

*CONN
*I *389:Y O *C 31.18 22.83 *L 0 *D AOI21X1
*I *376:C0 I *C 31.185 24.795 *L 0.000392 *D OAI211X1
*I *374:C0 I *C 30.985 26.505 *L 0.000392 *D OAI211X1

*CAP
1 *389:Y 4.51797e-05
2 *374:C0 0.000117183
3 *231:3 0.000162363057

*RES
1 *374:C0 *231:3 5.46956062
2 *231:3 *389:Y 4.04784
3 *376:C0 *231:3 3.29996
*END

*D_NET *232 0.000880361

*CONN
*I *474:Y O *C 31.18 31.89 *L 0 *D AOI21X1
*I *437:A I *C 29.9 24.795 *L 0.00039 *D NAND2X1
*I *376:A1 I *C 30.7 24.795 *L 0.000391 *D OAI211X1
*I *348:C I *C 29.9 28.025 *L 0.000212 *D NOR3BXL

*CAP
1 *376:A1 6.30601e-05
2 *437:A 3.02771e-05
3 *348:C 1.22776e-05
4 *474:Y 0.000209929
5 *232:4 0.000300228594
6 *232:5 0.000171364
7 *348:C *280:2 9.32216602e-05

*RES
1 *232:5 *232:4 1.92759
2 *232:4 *474:Y 8.02461
3 *348:C *232:4 3.50417
4 *437:A *232:5 3.75878
5 *376:A1 *232:5 11.0069513
*END

*D_NET *233 0.000520229

*CONN
*I *482:Y O *C 21.38 26.25 *L 0 *D AOI21X1
*I *448:A I *C 23.7 26.695 *L 0.000395 *D INVX1
*I *438:B I *C 21.9 24.415 *L 0.000392 *D NAND2X1
*I *375:A1 I *C 22.1 26.505 *L 0.000391 *D OAI211X1
*I *336:C0 I *C 21.3 24.605 *L 0.000212 *D AOI211XL

*CAP
1 *448:A 8.93485e-05
2 *375:A1 3.88036e-05
3 *438:B 4.66104e-05
4 *482:Y 1.87146e-05
5 *233:5 0.000169634824
6 *233:6 8.53545e-05
7 *233:7 7.17651e-05

*RES
1 *336:C0 *233:7 3.29999
2 *233:7 *233:6 0.49135
3 *233:6 *482:Y 3.62552
4 *438:B *233:7 4.01053
5 *233:5 *233:6 0.80885
6 *375:A1 *233:5 3.93499
7 *448:A *233:5 5.48291206
*END

*D_NET *234 9.66787e-05

*CONN
*I *375:Y O *C 22.745 25.91 *L 0 *D OAI211X1
*I *345:AN I *C 22.765 28.255 *L 0.00021 *D NOR3BXL

*CAP
1 *375:Y 8.3446e-06
2 *345:AN 3.99948e-05
3 *234:2 4.83393652e-05

*RES
1 *345:AN *234:2 4.14443016
2 *234:2 *375:Y 3.35717
*END

*D_NET *235 0.000795722

*CONN
*I *483:Y O *C 34.58 26.25 *L 0 *D AOI21X1
*I *446:A I *C 31.5 24.605 *L 0.000395 *D INVX1
*I *437:B I *C 30.1 24.415 *L 0.000392 *D NAND2X1
*I *374:A1 I *C 30.5 26.505 *L 0.000391 *D OAI211X1
*I *340:C0 I *C 32.7 26.695 *L 0.000212 *D AOI211XL

*CAP
1 *340:C0 1.18618e-05
2 *483:Y 6.84275e-05
3 *446:A 1.56175e-05
4 *374:A1 0.000118672
5 *235:5 7.33729e-05
6 *235:6 0.000139175
7 *235:7 0.000193953516
8 *235:8 0.000174643

*RES
1 *235:8 *235:7 4.38621
2 *437:B *235:8 3.29995
3 *374:A1 *235:8 5.36365
4 *235:7 *235:6 5.50699
5 *446:A *235:7 6.78091
6 *235:6 *235:5 3.33635
7 *235:5 *483:Y 8.22615623
8 *340:C0 *235:6 3.57246
*END

*D_NET *236 0.000146508

*CONN
*I *374:Y O *C 31.145 25.91 *L 0 *D OAI211X1
*I *348:AN I *C 30.565 28.255 *L 0.00021 *D NOR3BXL

*CAP
1 *374:Y 7.32541064e-05
2 *348:AN 7.32541064e-05

*RES
1 *348:AN *374:Y 8.07452
*END

*D_NET *237 0.000302672

*CONN
*I *387:Y O *C 23.58 15.99 *L 0 *D AOI21X1
*I *373:C0 I *C 22.185 16.245 *L 0.000392 *D OAI211X1
*I *372:C0 I *C 24.385 17.955 *L 0.000392 *D OAI211X1

*CAP
1 *372:C0 7.43876e-05
2 *387:Y 1.45436e-05
3 *373:C0 6.2405e-05
4 *237:3 0.000151336191

*RES
1 *373:C0 *237:3 11.0925436
2 *237:3 *387:Y 3.40244
3 *372:C0 *237:3 4.67205
*END

*D_NET *238 0.000305176

*CONN
*I *477:Y O *C 20.78 15.99 *L 0 *D AOI21X1
*I *453:A I *C 22.7 17.765 *L 0.000395 *D INVX1
*I *373:A1 I *C 21.7 16.245 *L 0.000391 *D OAI211X1
*I *337:C0 I *C 22.3 17.765 *L 0.000212 *D AOI211XL

*CAP
1 *453:A 3.14719e-05
2 *337:C0 1.72853e-05
3 *477:Y 3.34389e-05
4 *373:A1 1.30534e-05
5 *238:4 0.00010609627
6 *238:5 0.000103831

*RES
1 *373:A1 *238:5 3.50412
2 *238:5 *477:Y 7.65919685
3 *238:4 *238:5 1.26991
4 *337:C0 *238:4 3.60486
5 *453:A *238:4 3.95757
*END

*D_NET *239 0.000548482

*CONN
*I *373:Y O *C 22.345 15.65 *L 0 *D OAI211X1
*I *343:AN I *C 17.565 17.995 *L 0.00021 *D NOR3BXL

*CAP
1 *373:Y 0.000274240977
2 *343:AN 0.000274240977

*RES
1 *343:AN *373:Y 19.287
*END

*D_NET *240 0.00114906

*CONN
*I *471:Y O *C 14.78 18.21 *L 0 *D AOI21X1
*I *433:AN I *C 25.3 17.955 *L 0.00021 *D NOR2BX1
*I *372:A1 I *C 23.9 17.955 *L 0.000391 *D OAI211X1
*I *343:C I *C 16.9 17.765 *L 0.000212 *D NOR3BXL

*CAP
1 *433:AN 3.46309e-05
2 *372:A1 5.65056e-05
3 *343:C 1.72246e-05
4 *471:Y 5.44207e-05
5 *240:4 0.000283479688
6 *240:5 0.000263988
7 *343:C *150:7 0.000114440918
8 *372:A1 *360:A 0.000123023984
9 *240:4 *97:6 0.000201344492

*RES
1 *240:5 *471:Y 8.47017765
2 *343:C *240:5 6.81197
3 *372:A1 *240:4 7.68902
4 *240:4 *240:5 6.39528
5 *433:AN *240:4 7.16778
*END

*D_NET *241 0.000326872

*CONN
*I *371:Y O *C 34.34 12.42 *L 0 *D OAI21XL
*I *352:D I *C 38.97 12.755 *L 0.00021 *D DFFQXL

*CAP
1 *352:D 0.000140966
2 *371:Y 2.24698e-05
3 *241:2 0.000163435938

*RES
1 *241:2 *371:Y 6.80509
2 *352:D *241:2 10.3877783
*END

*D_NET *242 0.000176668

*CONN
*I *370:Y O *C 32.45 20.175 *L 0 *D AOI2BB1XL
*I *342:A1 I *C 33.66 19.815 *L 0.000212 *D AOI211XL

*CAP
1 *370:Y 8.8334082e-05
2 *342:A1 8.8334082e-05

*RES
1 *342:A1 *370:Y 8.18038
*END

*D_NET *243 0.000544548

*CONN
*I *574:D I *C 24.7 24.605 *L 0.000392 *D NAND4BX1
*I *379:Y O *C 25.145 21.97 *L 0 *D OAI211X1
*I *369:A I *C 23.3 23.275 *L 0.000212 *D INVXL

*CAP
1 *574:D 0.000113785264
2 *369:A 5.89492e-05
3 *379:Y 9.10161e-05
4 *243:3 0.000113785264
5 *243:4 9.95393e-05
6 *243:5 6.74725e-05

*RES
1 *243:5 *243:4 3.34928
2 *243:4 *379:Y 8.22615623
3 *369:A *243:5 4.57487
4 *243:3 *379:Y 3.29995
5 *574:D *243:3 5.3713
*END

*D_NET *244 0.000223279

*CONN
*I *369:Y O *C 23.5 23.465 *L 0 *D INVXL
*I *346:A1 I *C 21.86 23.235 *L 0.000212 *D AOI211XL

*CAP
1 *369:Y 2.74776e-05
2 *346:A1 8.41619e-05
3 *244:2 0.000111639502

*RES
1 *346:A1 *244:2 8.61990452
2 *244:2 *369:Y 1.01988
*END

*D_NET *245 0.000324249

*CONN
*I *368:Y O *C 35.54 9.715 *L 0 *D MX2XL
*I *353:D I *C 38.97 7.765 *L 0.00021 *D DFFQXL

*CAP
1 *368:Y 0.000130533
2 *353:D 3.15912e-05
3 *245:2 0.000162124629

*RES
1 *353:D *245:2 4.14446
2 *245:2 *368:Y 8.00788403
*END

*D_NET *246 0.000604033

*CONN
*I *385:Y O *C 28.945 19.07 *L 0 *D OAI211X1
*I *370:B0 I *C 32.55 19.46 *L 0.000212 *D AOI2BB1XL
*I *367:C I *C 32.16 18.105 *L 0.000392 *D NOR3X1
*I *354:D I *C 30.74 17.8775 *L 0.000212 *D NAND4XL

*CAP
1 *370:B0 7.43879e-05
2 *367:C 2.73599e-05
3 *354:D 3.20661e-05
4 *385:Y 0.000111759
5 *246:4 0.000158191
6 *246:5 0.000200271602

*RES
1 *246:5 *385:Y 8.64696503
2 *354:D *246:5 6.94874
3 *246:4 *246:5 4.39658
4 *367:C *246:4 3.64767
5 *370:B0 *246:4 4.62669
*END

*D_NET *247 0.000871181

*CONN
*I *481:Y O *C 34.58 15.99 *L 0 *D AOI21X1
*I *439:B I *C 31.3 20.045 *L 0.000392 *D NAND2X1
*I *370:A1N I *C 33.14 19.68 *L 0.00021 *D AOI2BB1XL
*I *367:A I *C 31.74 18.01 *L 0.000392 *D NOR3X1
*I *331:C0 I *C 33.3 16.435 *L 0.000212 *D AOI211XL

*CAP
1 *481:Y 2.90868e-05
2 *331:C0 4.73256e-05
3 *370:A1N 7.4089e-05
4 *367:A 2.36628e-05
5 *439:B 2.42005e-05
6 *247:5 7.3075e-05
7 *247:6 0.000114322
8 *247:7 0.000126184
9 *247:8 0.000182569023
10 *247:9 0.000176669

*RES
1 *247:9 *247:8 5.47727
2 *247:7 *247:9 1.20953
3 *439:B *247:7 3.53808
4 *367:A *247:9 3.80025
5 *247:6 *247:7 7.16704
6 *370:A1N *247:6 7.8779459
7 *331:C0 *247:8 7.36875
8 *247:8 *247:5 4.32484
9 *247:5 *481:Y 3.83343
*END

*D_NET *248 0.000241399

*CONN
*I *366:Y O *C 33.345 21.97 *L 0 *D OAI211X1
*I *341:AN I *C 35.365 23.045 *L 0.00021 *D NOR3BXL

*CAP
1 *366:Y 0.000120699404
2 *341:AN 0.000120699404

*RES
1 *341:AN *366:Y 15.6907
*END

*D_NET *249 0.000341892

*CONN
*I *574:B I *C 25.14 24.86 *L 0.000392 *D NAND4BX1
*I *377:Y O *C 23.545 25.39 *L 0 *D OAI211X1
*I *365:A I *C 22.3 24.605 *L 0.000212 *D INVXL

*CAP
1 *574:B 9.86469e-05
2 *377:Y 5.18515e-06
3 *365:A 6.71136e-05
4 *249:3 5.18515e-06
5 *249:4 0.000165760508

*RES
1 *365:A *249:4 4.65316
2 *249:3 *377:Y 0.165898
3 *249:4 *249:3 3.29996
4 *574:B *249:4 11.9214058
*END

*D_NET *250 0.00028944

*CONN
*I *365:Y O *C 22.5 24.415 *L 0 *D INVXL
*I *336:A1 I *C 20.86 24.645 *L 0.000212 *D AOI211XL

*CAP
1 *365:Y 4.60737e-05
2 *336:A1 9.86464e-05
3 *250:2 0.000144720078

*RES
1 *336:A1 *250:2 8.19277763
2 *250:2 *365:Y 6.86115
*END

*D_NET *251 0.000146985

*CONN
*I *364:Y O *C 27.85 27.015 *L 0 *D AOI2BB1XL
*I *339:A1 I *C 29.06 26.655 *L 0.000212 *D AOI211XL

*CAP
1 *364:Y 7.34925293e-05
2 *339:A1 7.34925293e-05

*RES
1 *339:A1 *364:Y 8.09717
*END

*D_NET *252 0.000114799

*CONN
*I *363:Y O *C 21.85 13.335 *L 0 *D AOI2BB1XL
*I *338:A1 I *C 20.66 12.975 *L 0.000212 *D AOI211XL

*CAP
1 *338:A1 9.2981e-06
2 *363:Y 4.81012e-05
3 *252:2 5.73992725e-05

*RES
1 *252:2 *363:Y 4.15802002
2 *338:A1 *252:2 3.47635
*END

*D_NET *253 0.000681639

*CONN
*I *574:C I *C 24.95 25.04 *L 0.000389 *D NAND4BX1
*I *376:Y O *C 31.345 25.39 *L 0 *D OAI211X1
*I *361:A I *C 32.3 24.605 *L 0.000212 *D INVXL

*CAP
1 *361:A 6.30036e-05
2 *376:Y 2.3604e-05
3 *574:C 9.04208e-05
4 *253:3 0.000250401
5 *253:4 0.000254213809

*RES
1 *574:C *253:4 8.25309753
2 *253:4 *253:3 3.71173
3 *253:3 *376:Y 6.805
4 *361:A *253:3 7.74194
*END

*D_NET *254 0.000150681

*CONN
*I *361:Y O *C 32.5 24.415 *L 0 *D INVXL
*I *340:A1 I *C 32.26 26.655 *L 0.000212 *D AOI211XL

*CAP
1 *340:A1 6.2227251e-05
2 *361:Y 1.3113e-05
3 *254:2 6.2227251e-05
4 *254:3 1.3113e-05

*RES
1 *254:3 *361:Y 0.411616
2 *254:2 *254:3 3.29999
3 *340:A1 *254:2 4.48846817
*END

*D_NET *255 0.000428796

*CONN
*I *372:Y O *C 24.545 18.55 *L 0 *D OAI211X1
*I *360:A I *C 23.1 17.765 *L 0.000212 *D INVXL
*I *310:C I *C 24.3 19.855 *L 0.000392 *D NAND3BX1

*CAP
1 *372:Y 9.67383398e-05
2 *310:C 7.27172e-05
3 *360:A 5.61477e-05
4 *255:3 8.01688e-05
5 *360:A *372:A1 0.000123023984

*RES
1 *360:A *255:3 11.2607479
2 *310:C *372:Y 7.7641
3 *255:3 *372:Y 6.84982
*END

*D_NET *256 0.000232816

*CONN
*I *360:Y O *C 23.3 17.575 *L 0 *D INVXL
*I *337:A1 I *C 21.86 17.805 *L 0.000212 *D AOI211XL

*CAP
1 *360:Y 2.25906e-05
2 *337:A1 9.38173e-05
3 *256:2 0.000116407871

*RES
1 *337:A1 *256:2 8.07499886
2 *256:2 *360:Y 6.80503
*END

*D_NET *257 0.000125289

*CONN
*I *359:Y O *C 21.94 21.815 *L 0 *D AOI211XL
*I *344:D I *C 22.37 19.595 *L 0.00021 *D DFFQXL

*CAP
1 *359:Y 6.26444824e-05
2 *344:D 6.26444824e-05

*RES
1 *344:D *359:Y 7.92336
*END

*D_NET *258 0.000162005

*CONN
*I *301:A I *C 26.7 21.375 *L 0.00021 *D BUFX2
*I *381:Y O *C 26.145 22.49 *L 0 *D OAI211X1

*CAP
1 *381:Y 8.100271e-05
2 *301:A 8.100271e-05

*RES
1 *301:A *381:Y 8.06034
*END

*D_NET *259 0.000650525

*CONN
*I *479:Y O *C 25.98 28.47 *L 0 *D AOI21X1
*I *441:B I *C 28.3 24.415 *L 0.000392 *D NAND2X1
*I *364:A1N I *C 28.54 26.52 *L 0.00021 *D AOI2BB1XL
*I *358:B0 I *C 26.76 24.63 *L 0.000212 *D AOI211XL
*I *326:C0 I *C 26.1 26.695 *L 0.000212 *D AOI211XL

*CAP
1 *364:A1N 6.79608e-06
2 *441:B 4.35111e-05
3 *358:B0 5.75793e-05
4 *479:Y 7.02751e-05
5 *259:5 0.000123142
6 *259:6 8.22544e-05
7 *259:7 0.000165939336
8 *259:8 0.00010103

*RES
1 *326:C0 *259:8 3.29994
2 *259:8 *479:Y 4.44193
3 *358:B0 *259:7 4.57492
4 *259:7 *259:8 0.635075
5 *259:6 *259:5 0.888288
6 *441:B *259:6 4.22228
7 *364:A1N *259:5 3.42475
8 *259:5 *259:7 8.11469555
*END

*D_NET *260 0.000672579

*CONN
*I *380:Y O *C 32.1 20.995 *L 0 *D INVXL
*I *357:C0 I *C 32.7 23.275 *L 0.000212 *D AOI211XL
*I *354:A I *C 30.1 17.575 *L 0.000212 *D NAND4XL

*CAP
1 *357:C0 8.91686e-05
2 *380:Y 0.000106156
3 *354:A 0.000230133
4 *260:3 0.000247120859

*RES
1 *354:A *260:3 23.6406326
2 *260:3 *380:Y 0.485178
3 *357:C0 *380:Y 11.8806
*END

*D_NET *261 0.000611544

*CONN
*I *480:Y O *C 33.38 25.05 *L 0 *D AOI21X1
*I *442:B I *C 33.3 23.465 *L 0.000392 *D NAND2X1
*I *366:A1 I *C 32.7 21.375 *L 0.000391 *D OAI211X1
*I *357:B0 I *C 32.56 23.25 *L 0.000212 *D AOI211XL
*I *328:C0 I *C 35.1 21.185 *L 0.000212 *D AOI211XL

*CAP
1 *328:C0 0.000103175
2 *442:B 2.69413e-05
3 *480:Y 1.60338e-05
4 *261:5 0.000110091
5 *261:6 0.000105083
6 *261:7 9.75126e-05
7 *261:8 0.0001527071

*RES
1 *357:B0 *261:8 3.29995
2 *261:8 *261:7 1.1491
3 *366:A1 *261:6 3.29995
4 *261:6 *261:8 1.76901
5 *261:5 *261:6 3.34677
6 *261:7 *480:Y 3.56513
7 *442:B *261:7 4.00305
8 *328:C0 *261:5 8.66794586
*END

*D_NET *262 0.000266433

*CONN
*I *304:A I *C 21.7 14.535 *L 0.00021 *D BUFX2
*I *382:Y O *C 24.145 15.13 *L 0 *D OAI211X1

*CAP
1 *382:Y 0.000110864
2 *304:A 2.23521e-05
3 *262:2 0.000133216377

*RES
1 *304:A *262:2 6.9297
2 *262:2 *382:Y 8.42225552
*END

*D_NET *263 0.000551939

*CONN
*I *478:Y O *C 24.18 9.15 *L 0 *D AOI21X1
*I *440:B I *C 22.7 14.155 *L 0.000392 *D NAND2X1
*I *363:A1N I *C 22.54 12.84 *L 0.00021 *D AOI2BB1XL
*I *356:B0 I *C 24.04 12.96 *L 0.000393 *D AOI211X1
*I *327:C0 I *C 23.9 10.925 *L 0.000212 *D AOI211XL

*CAP
1 *478:Y 7.67715e-05
2 *440:B 1.32328e-05
3 *363:A1N 4.64324e-05
4 *263:5 0.000141263008
5 *263:6 0.000139534
6 *263:7 0.000134706

*RES
1 *363:A1N *263:7 4.16938
2 *263:7 *263:6 1.59881
3 *440:B *263:7 3.59033
4 *327:C0 *263:5 3.29995
5 *263:5 *478:Y 4.49466705
6 *263:6 *263:5 1.35315
7 *356:B0 *263:6 3.29995
*END

*D_NET *264 0.00447166

*CONN
*I *563:Y O *C 24.33 25.23 *L 0 *D INVX1
*I *436:C I *C 27.565 10.99 *L 0.000212 *D NAND3BXL
*I *526:B1 I *C 25.54 11.19 *L 0.000392 *D AOI22X1
*I *356:A0 I *C 23.5 13.015 *L 0.000392 *D AOI211X1
*I *363:A0N I *C 22.14 12.42 *L 0.000211 *D AOI2BB1XL
*I *351:B0 I *C 31.7 13.015 *L 0.000212 *D OAI22XL
*I *373:A0 I *C 21.5 16.055 *L 0.000391 *D OAI211X1
*I *357:A0 I *C 31.96 22.95 *L 0.000212 *D AOI211XL
*I *358:A0 I *C 26.16 24.93 *L 0.000212 *D AOI211XL
*I *370:A0N I *C 32.74 19.26 *L 0.000211 *D AOI2BB1XL
*I *366:A0 I *C 32.5 21.565 *L 0.000391 *D OAI211X1
*I *375:A0 I *C 21.9 26.315 *L 0.000391 *D OAI211X1
*I *374:A0 I *C 30.3 26.315 *L 0.000391 *D OAI211X1
*I *364:A0N I *C 28.14 26.1 *L 0.000211 *D AOI2BB1XL
*I *383:A0 I *C 22.5 21.185 *L 0.000211 *D OA21X1

*CAP
1 *370:A0N 8.85704e-05
2 *366:A0 6.01996e-05
3 *351:B0 0.000206711
4 *374:A0 2.44391e-05
5 *364:A0N 2.754e-05
6 *436:C 0.000151754
7 *358:A0 5.1318e-05
8 *526:B1 4.27347e-05
9 *563:Y 1.84185e-05
10 *356:A0 4.25592e-05
11 *383:A0 2.52699e-05
12 *363:A0N 2.67619e-05
13 *375:A0 6.97365e-05
14 *373:A0 1.60957e-05
15 *264:15 0.000206056
16 *264:16 0.000200866
17 *264:17 0.000305714
18 *264:18 9.31049e-05
19 *264:19 0.00025511
20 *264:20 0.000183226
21 *264:21 0.000186982
22 *264:22 0.000304403
23 *264:23 2.59252e-05
24 *264:24 0.000193418
25 *264:25 0.000116947
26 *264:26 0.000230788
27 *264:27 0.000258328
28 *264:28 0.000359477
29 *264:29 0.00038343668
30 *436:C *65:6 9.50098047e-05
31 *351:B0 *7:26 0.000220775605

*RES
1 *264:29 *264:28 8.95091
2 *373:A0 *264:29 3.77352
3 *375:A0 *264:27 7.59913
4 *363:A0N *264:26 6.84995
5 *264:26 *264:29 13.5658
6 *264:28 *264:27 9.76553
7 *264:27 *264:25 1.42115
8 *383:A0 *264:28 6.86124
9 *264:24 *264:26 0.967635
10 *356:A0 *264:24 7.30393
11 *264:23 *563:Y 3.71499
12 *264:25 *264:23 3.35711
13 *526:B1 *264:22 7.52216
14 *264:22 *264:24 5.81779
15 *264:21 *264:25 1.50434
16 *358:A0 *264:21 7.46731
17 *436:C *264:22 13.3983
18 *364:A0N *264:20 6.84995
19 *264:20 *264:21 1.95785
20 *264:19 *264:20 1.72349
21 *374:A0 *264:19 6.81193
22 *264:18 *264:17 3.33637
23 *264:17 *264:16 5.77608
24 *351:B0 *264:17 15.1023865
25 *264:16 *264:15 4.20007
26 *264:15 *264:19 6.8836
27 *357:A0 *264:15 3.29996
28 *366:A0 *264:16 7.56387
29 *370:A0N *264:18 7.72679
*END

*D_NET *265 0.000167251

*CONN
*I *355:Y O *C 29.395 13.17 *L 0 *D OAI22XL
*I *332:D I *C 28.7 14.535 *L 0.000307 *D DFFHQX1

*CAP
1 *355:Y 2.11593e-05
2 *332:D 4.73265e-05
3 *265:2 3.62994e-05
4 *265:3 6.24656689e-05

*RES
1 *332:D *265:3 4.23359871
2 *265:3 *265:2 0.362856
3 *265:2 *355:Y 3.61512
*END

*D_NET *266 0.000217199

*CONN
*I *300:A I *C 33.1 17.955 *L 0.00021 *D BUFX2
*I *354:Y O *C 30.94 18.17 *L 0 *D NAND4XL

*CAP
1 *354:Y 0.000108599658
2 *300:A 0.000108599658

*RES
1 *300:A *354:Y 15.2167
*END

*D_NET *267 0.0001899

*CONN
*I *351:Y O *C 31.595 13.17 *L 0 *D OAI22XL
*I *334:D I *C 32.1 14.535 *L 0.000307 *D DFFHQX1

*CAP
1 *351:Y 4.42261e-05
2 *334:D 5.07241e-05
3 *267:2 9.49501953e-05

*RES
1 *334:D *267:2 4.26387787
2 *267:2 *351:Y 3.9767
*END

*D_NET *268 0.000118852

*CONN
*I *350:Y O *C 31.795 9.75 *L 0 *D OAI22XL
*I *335:D I *C 31.7 7.695 *L 0.000307 *D DFFHQX1

*CAP
1 *335:D 4.52991e-05
2 *350:Y 1.41267e-05
3 *268:2 5.94258301e-05

*RES
1 *268:2 *350:Y 3.6191
2 *335:D *268:2 4.29403782
*END

*D_NET *269 0.00011766

*CONN
*I *349:Y O *C 28.395 9.75 *L 0 *D OAI22XL
*I *333:D I *C 28.3 7.695 *L 0.000307 *D DFFHQX1

*CAP
1 *333:D 4.51203e-05
2 *349:Y 1.37094e-05
3 *269:2 5.88297852e-05

*RES
1 *269:2 *349:Y 3.61905
2 *333:D *269:2 4.28652763
*END

*D_NET *270 0.000395775

*CONN
*I *348:Y O *C 30.24 27.725 *L 0 *D NOR3BXL
*I *329:D I *C 33.37 29.855 *L 0.00021 *D DFFQXL

*CAP
1 *348:Y 0.000115812
2 *329:D 3.42126e-05
3 *270:2 0.000150024893
4 *270:2 *95:4 9.57250586e-05

*RES
1 *329:D *270:2 4.14438
2 *270:2 *348:Y 12.9336119
*END

*D_NET *271 0.000569701

*CONN
*I *357:Y O *C 32.94 22.645 *L 0 *D AOI211XL
*I *347:A I *C 31.7 19.855 *L 0.000212 *D INVXL
*I *328:A1 I *C 34.66 21.225 *L 0.000212 *D AOI211XL

*CAP
1 *328:A1 5.41806e-05
2 *357:Y 4.52409e-05
3 *347:A 9.26841e-05
4 *271:3 9.26248e-05
5 *271:4 0.000194251543
6 *328:A1 *328:A0 9.07182715e-05

*RES
1 *347:A *271:4 8.63623619
2 *271:3 *357:Y 4.07868
3 *271:4 *271:3 4.83495
4 *328:A1 *271:4 7.88853
*END

*D_NET *272 0.000697017

*CONN
*I *347:Y O *C 31.9 20.045 *L 0 *D INVXL
*I *310:B I *C 24.5 19.855 *L 0.00039 *D NAND3BX1

*CAP
1 *347:Y 0.000193119
2 *310:B 8.57716e-05
3 *272:2 0.00021088123
4 *272:3 0.000103534
5 *272:2 *309:A2 0.00010371208

*RES
1 *310:B *272:3 8.42235
2 *272:3 *272:2 6.80502
3 *272:2 *347:Y 18.0016747
*END

*D_NET *273 0.000405788

*CONN
*I *346:Y O *C 22.54 22.645 *L 0 *D AOI211XL
*I *323:D I *C 19.37 24.865 *L 0.00021 *D DFFQXL

*CAP
1 *346:Y 0.000155448916
2 *323:D 0.000155448916
3 *323:D *8:96 9.48905957e-05

*RES
1 *323:D *346:Y 16.5753
*END

*D_NET *274 0.000178814

*CONN
*I *345:Y O *C 22.44 27.725 *L 0 *D NOR3BXL
*I *330:D I *C 23.37 29.855 *L 0.00021 *D DFFQXL

*CAP
1 *345:Y 8.94069629e-05
2 *330:D 8.94069629e-05

*RES
1 *330:D *345:Y 8.67128
*END

*D_NET *275 0.000270128

*CONN
*I *343:Y O *C 17.24 17.465 *L 0 *D NOR3BXL
*I *325:D I *C 18.57 19.595 *L 0.00021 *D DFFQXL

*CAP
1 *325:D 7.72484e-05
2 *343:Y 5.78157e-05
3 *275:2 0.000135064121

*RES
1 *275:2 *343:Y 7.71263
2 *325:D *275:2 8.10205936
*END

*D_NET *276 0.000369549

*CONN
*I *342:Y O *C 34.34 19.225 *L 0 *D AOI211XL
*I *324:D I *C 39.37 19.595 *L 0.00021 *D DFFQXL

*CAP
1 *342:Y 0.000184774395
2 *324:D 0.000184774395

*RES
1 *324:D *342:Y 17.4114
*END

*D_NET *277 0.000280976

*CONN
*I *574:AN I *C 25.5 24.795 *L 0.00021 *D NAND4BX1
*I *358:Y O *C 27.14 25.235 *L 0 *D AOI211XL
*I *326:A1 I *C 25.66 26.655 *L 0.000212 *D AOI211XL

*CAP
1 *358:Y 1.43646e-05
2 *326:A1 3.75512e-05
3 *574:AN 1.8179e-05
4 *277:3 8.47578e-05
5 *277:4 0.000126123428

*RES
1 *574:AN *277:4 3.58928
2 *277:4 *277:3 7.96353817
3 *326:A1 *277:4 3.97703
4 *277:3 *358:Y 3.57251
*END

*D_NET *278 0.000396669

*CONN
*I *341:Y O *C 35.04 23.575 *L 0 *D NOR3BXL
*I *321:D I *C 38.97 23.015 *L 0.00021 *D DFFQXL

*CAP
1 *341:Y 0.00015616417
2 *321:D 0.00015616417
3 *321:D *488:B 8.43405762e-05

*RES
1 *321:D *341:Y 17.4497
*END

*D_NET *279 0.000174046

*CONN
*I *340:Y O *C 32.94 26.065 *L 0 *D AOI211XL
*I *315:D I *C 33.77 28.285 *L 0.00021 *D DFFQXL

*CAP
1 *340:Y 2.9147e-05
2 *315:D 5.78758e-05
3 *279:2 8.70227832e-05

*RES
1 *315:D *279:2 4.22227383
2 *279:2 *340:Y 4.10805
*END

*D_NET *280 0.000265598

*CONN
*I *339:Y O *C 29.74 26.065 *L 0 *D AOI211XL
*I *319:D I *C 29.97 29.855 *L 0.00021 *D DFFQXL

*CAP
1 *339:Y 4.73257e-05
2 *319:D 3.88627e-05
3 *280:2 8.61883203e-05
4 *280:2 *348:C 9.32216602e-05

*RES
1 *319:D *280:2 4.36595
2 *280:2 *339:Y 4.57751751
*END

*D_NET *281 0.000196099

*CONN
*I *338:Y O *C 21.34 12.385 *L 0 *D AOI211XL
*I *320:D I *C 19.77 12.755 *L 0.00021 *D DFFQXL

*CAP
1 *338:Y 2.25304e-05
2 *320:D 7.55192e-05
3 *281:2 9.80496387e-05

*RES
1 *320:D *281:2 8.09538364
2 *281:2 *338:Y 6.80503
*END

*D_NET *282 0.000193834

*CONN
*I *337:Y O *C 22.54 18.395 *L 0 *D AOI211XL
*I *316:D I *C 20.97 18.025 *L 0.00021 *D DFFQXL

*CAP
1 *337:Y 8.01676e-05
2 *316:D 1.67496e-05
3 *282:2 9.69171484e-05

*RES
1 *316:D *282:2 6.78864
2 *282:2 *337:Y 8.07499886
*END

*D_NET *283 0.000297308

*CONN
*I *336:Y O *C 21.54 25.235 *L 0 *D AOI211XL
*I *318:D I *C 18.77 26.435 *L 0.00021 *D DFFQXL

*CAP
1 *336:Y 0.000148653984
2 *318:D 0.000148653984

*RES
1 *318:D *336:Y 16.3678
*END

*D_NET *284 0.000402451

*CONN
*I *367:Y O *C 32.34 17.815 *L 0 *D NOR3X1
*I *331:A1 I *C 32.86 16.395 *L 0.000212 *D AOI211XL
*I *309:A1 I *C 32.7 13.015 *L 0.000392 *D OAI31X1

*CAP
1 *367:Y 6.47292e-05
2 *309:A1 0.000136496
3 *284:3 0.000201225273

*RES
1 *309:A1 *284:3 5.94580173
2 *284:3 *367:Y 4.65405
3 *331:A1 *284:3 3.29997
*END

*D_NET *285 0.000476718

*CONN
*I *331:Y O *C 33.54 15.805 *L 0 *D AOI211XL
*I *317:D I *C 36.97 14.605 *L 0.00021 *D DFFQXL

*CAP
1 *331:Y 8.57122e-05
2 *317:D 5.60276e-05
3 *285:2 0.000141739844
4 *317:D *8:65 9.67979395e-05
5 *285:2 *141:6 9.64403125e-05

*RES
1 *317:D *285:2 4.50955
2 *285:2 *331:Y 12.7140284
*END

*D_NET *286 0.000274777

*CONN
*I *328:Y O *C 35.34 21.815 *L 0 *D AOI211XL
*I *314:D I *C 38.97 21.445 *L 0.00021 *D DFFQXL

*CAP
1 *314:D 0.000116049
2 *328:Y 2.13394e-05
3 *286:2 0.000137388711

*RES
1 *286:2 *328:Y 6.8051
2 *314:D *286:2 9.63175297
*END

*D_NET *287 0.000837803

*CONN
*I *356:Y O *C 24.5 12.5 *L 0 *D AOI211X1
*I *327:A1 I *C 23.46 10.965 *L 0.000212 *D AOI211XL
*I *309:A0 I *C 32.45 12.81 *L 0.000392 *D OAI31X1

*CAP
1 *309:A0 0.0001356
2 *327:A1 0.000103833
3 *287:3 0.000264763828
4 *287:4 0.000232993
5 *309:A0 *355:B0 0.000100612637

*RES
1 *327:A1 *287:4 12.0624304
2 *287:4 *356:Y 3.29998
3 *287:3 *287:4 6.88359
4 *309:A0 *287:3 9.70796
*END

*D_NET *288 0.000240087

*CONN
*I *327:Y O *C 24.14 11.555 *L 0 *D AOI211XL
*I *311:D I *C 25.17 7.765 *L 0.00021 *D DFFQXL

*CAP
1 *327:Y 7.82615e-05
2 *311:D 4.17822e-05
3 *288:2 0.00012004375

*RES
1 *311:D *288:2 4.36595
2 *288:2 *327:Y 5.19371033
*END

*D_NET *289 0.000229478

*CONN
*I *326:Y O *C 26.34 26.065 *L 0 *D AOI211XL
*I *312:D I *C 26.77 29.855 *L 0.00021 *D DFFQXL

*CAP
1 *326:Y 0.000114738945
2 *312:D 0.000114738945

*RES
1 *312:D *326:Y 9.04214
*END

*D_NET *290 0.00119543

*CONN
*I *576:B I *C 32.5 10.925 *L 0.000392 *D NAND2BX1
*I *392:Y O *C 31.74 16.55 *L 0 *D OA21X1
*I *388:A I *C 33.5 9.595 *L 0.000395 *D INVX1
*I *378:S0 I *C 34.97 7.955 *L 0.000419 *D MX2XL
*I *368:S0 I *C 34.77 9.145 *L 0.000419 *D MX2XL
*I *322:S0 I *C 34.37 11.375 *L 0.000419 *D MX2XL
*I *309:B0 I *C 33.1 13.015 *L 0.000394 *D OAI31X1

*CAP
1 *378:S0 5.9842e-05
2 *368:S0 1.26346e-05
3 *322:S0 4.49435e-05
4 *388:A 1.77625e-05
5 *392:Y 0.00020647
6 *576:B 3.52843e-05
7 *290:7 0.000132441
8 *290:8 0.000118613
9 *290:9 0.000109734
10 *290:10 0.000235497949
11 *290:11 8.64876e-05
12 *290:12 5.10812e-05
13 *290:9 *575:AN 8.46385938e-05

*RES
1 *290:12 *290:11 0.453553
2 *576:B *290:12 4.33603
3 *290:11 *290:10 0.634932
4 *309:B0 *290:10 3.3
5 *290:10 *392:Y 13.8058662
6 *290:9 *290:8 4.34362
7 *290:8 *290:11 4.28547
8 *388:A *290:9 3.79126
9 *322:S0 *290:8 7.2737
10 *290:7 *290:9 1.41353
11 *368:S0 *290:7 6.81172
12 *378:S0 *290:7 4.64296
*END

*D_NET *291 0.000275254

*CONN
*I *322:Y O *C 35.14 10.805 *L 0 *D MX2XL
*I *313:D I *C 38.97 11.185 *L 0.00021 *D DFFQXL

*CAP
1 *313:D 0.000115753
2 *322:Y 2.18742e-05
3 *291:2 0.000137627129

*RES
1 *291:2 *322:Y 6.85089
2 *313:D *291:2 9.70411301
*END

*D_NET *292 0.00105751

*CONN
*I *310:Y O *C 24.615 19.04 *L 0 *D NAND3BX1
*I *309:A2 I *C 32.9 13.015 *L 0.000391 *D OAI31X1

*CAP
1 *309:A2 0.000413179
2 *310:Y 1.85374e-05
3 *292:2 0.000431716445
4 *309:A2 *342:B0 9.03606445e-05
5 *309:A2 *272:2 0.00010371208

*RES
1 *292:2 *310:Y 3.57573
2 *309:A2 *292:2 34.8978043
*END

*D_NET *293 0.000461817

*CONN
*I *309:Y O *C 33.27 12.52 *L 0 *D OAI31X1
*I *308:B0 I *C 33.265 7.735 *L 0.00039 *D OAI2BB1X1

*CAP
1 *309:Y 2.39594e-07
2 *308:B0 0.000230669
3 *293:2 0.000230908398

*RES
1 *308:B0 *293:2 28.2605896
2 *293:2 *309:Y 0.506255
*END

*D_NET *294 0.000195622

*CONN
*I *308:Y O *C 33.135 8.18 *L 0 *D OAI2BB1X1
*I *307:D I *C 34.17 5.915 *L 0.00021 *D DFFQXL

*CAP
1 *307:D 8.17773e-05
2 *308:Y 1.6034e-05
3 *294:2 9.78112207e-05

*RES
1 *294:2 *308:Y 3.5952
2 *307:D *294:2 5.01596928
*END

*D_NET *295 0.000410557

*CONN
*I *574:Y O *C 25.24 25.42 *L 0 *D NAND4BX1
*I *310:AN I *C 24.9 19.665 *L 0.00021 *D NAND3BX1

*CAP
1 *574:Y 0.000205278398
2 *310:AN 0.000205278398

*RES
1 *310:AN *574:Y 24.0897
*END

*D_NET *296 0.000876069

*CONN
*I *575:Y O *C 32.92 8.945 *L 0 *D NAND2BX1
*I *355:B1 I *C 29.3 12.825 *L 0.000212 *D OAI22XL
*I *351:B1 I *C 31.5 12.825 *L 0.000212 *D OAI22XL
*I *350:B1 I *C 31.7 9.405 *L 0.000212 *D OAI22XL
*I *349:B1 I *C 28.3 9.405 *L 0.000212 *D OAI22XL

*CAP
1 *575:Y 1.37085e-05
2 *350:B1 2.09219e-05
3 *349:B1 4.56583e-05
4 *296:5 6.25846e-05
5 *296:6 0.000135363
6 *296:7 0.000158609
7 *296:8 0.00018531084
8 *296:9 0.000137925
9 *296:8 *350:A1 0.000115990635

*RES
1 *349:B1 *296:9 4.22228
2 *296:9 *296:8 2.27903
3 *296:8 *296:7 8.43787193
4 *355:B1 *296:8 3.29991
5 *296:7 *296:6 2.21607
6 *351:B1 *296:7 3.29991
7 *350:B1 *296:6 3.64766
8 *296:6 *296:5 4.35593
9 *296:5 *575:Y 0.485265
*END

*D_NET *297 0.0012033

*CONN
*I *576:Y O *C 32.72 11.575 *L 0 *D NAND2BX1
*I *371:B0 I *C 34.1 13.015 *L 0.000212 *D OAI21XL
*I *355:A1 I *C 28.97 12.76 *L 0.000212 *D OAI22XL
*I *351:A1 I *C 31.17 12.76 *L 0.000212 *D OAI22XL
*I *350:A1 I *C 31.37 9.34 *L 0.000212 *D OAI22XL
*I *349:A1 I *C 27.97 9.34 *L 0.000212 *D OAI22XL

*CAP
1 *371:B0 0.000136496
2 *350:A1 1.44828e-05
3 *576:Y 4.72653e-05
4 *351:A1 3.8148e-05
5 *355:A1 9.43547e-05
6 *349:A1 4.23791e-05
7 *297:6 4.72653e-05
8 *297:7 4.44653e-05
9 *297:8 0.000184299
10 *297:9 0.000126182
11 *297:10 0.000213623047
12 *297:10 *144:4 9.8347666e-05
13 *350:A1 *296:8 0.000115990635

*RES
1 *349:A1 *297:10 7.61179
2 *297:10 *297:9 5.83095
3 *355:A1 *297:10 15.4705048
4 *351:A1 *297:8 3.95757
5 *297:9 *297:7 1.13758
6 *297:6 *576:Y 1.64039
7 *297:7 *297:6 3.2999
8 *297:8 *297:7 0.268402
9 *350:A1 *297:9 3.58931
10 *371:B0 *297:8 12.7575
*END

*D_NET *298 0.002671

*CONN
*I *544:B I *C 21.3 10.925 *L 0.000392 *D NAND2BX1
*I *500:AN I *C 39.9 31.635 *L 0.00021 *D NOR2BX1
*I *352:Q O *C 36.1 13.015 *L 0 *D DFFQXL

*CAP
1 *500:AN 1.77668e-05
2 *352:Q 4.24329e-05
3 *544:B 0.00012368
4 *298:3 0.000675026
5 *298:4 5.06625e-05
6 *298:5 0.000738799609
7 *298:6 0.000294866
8 *298:7 0.00026923
9 *298:8 0.000171366
10 *298:3 *494:A 0.000287175176

*RES
1 *544:B *298:8 9.43579
2 *298:8 *298:7 7.75462
3 *298:7 *298:6 8.78393
4 *298:6 *298:5 8.40464
5 *298:4 *352:Q 4.28769
6 *298:5 *298:4 3.35716
7 *500:AN *298:3 7.52229
8 *298:3 *298:5 19.9813843
*END

