*SPEF "IEEE 1481-1998"
*DESIGN "aer_improved_cutthrough"
*DATE "Thu Aug 20 02:20:06 2026"
*VENDOR "Cadence Design Systems, Inc."
*PROGRAM "Innovus"
*VERSION "23.14-s088_1"
*DESIGN_FLOW "COUPLING C" "PIN_CAP NONE" "NAME_SCOPE LOCAL"
*DIVIDER /
*DELIMITER :
*BUS_DELIMITER []
*T_UNIT 1 NS
*C_UNIT 1 PF
*R_UNIT 1 OHM
*L_UNIT 1 HENRY

// MMMC spef file for corner 'rc_180nm'

*NAME_MAP

*1 FE_PHN52_out_addr_3
*2 FE_PHN51_n_33
*3 FE_PHN50_out_addr_2
*4 FE_PHN49_n_23
*5 FE_PHN48_n_43
*6 FE_PHN47_n_48
*7 FE_PHN46_n_35
*8 FE_PHN45_out_addr_0
*9 FE_PHN44_n_51
*10 FE_PHN43_n_50
*11 FE_PHN42_out_addr_1
*12 FE_PHN41_n_41
*13 FE_PHN40_n_37
*14 FE_PHN39_n_45
*15 FE_PHN38_n_31
*16 FE_PHN37_n_46
*17 FE_PHN36_n_29
*18 FE_PHN35_n_27
*19 FE_PHN34_n_25
*20 FE_PHN33_n_39
*21 FE_PHN32_req_meta_q_11
*22 FE_PHN31_req_meta_q_5
*23 FE_PHN30_req_meta_q_13
*24 FE_PHN29_req_meta_q_15
*25 FE_PHN28_req_meta_q_10
*26 FE_PHN27_req_meta_q_1
*27 FE_PHN26_req_meta_q_8
*28 FE_PHN25_req_meta_q_2
*29 FE_PHN24_req_meta_q_6
*30 FE_PHN23_req_meta_q_3
*31 FE_PHN22_req_meta_q_0
*32 FE_PHN21_req_meta_q_14
*33 FE_PHN20_req_meta_q_12
*34 FE_PHN19_req_meta_q_7
*35 FE_PHN18_req_meta_q_4
*36 FE_PHN17_req_meta_q_9
*37 FE_PHN16_req_meta_q_11
*38 FE_PHN15_req_meta_q_5
*39 FE_PHN14_req_meta_q_13
*40 FE_PHN13_req_meta_q_2
*41 FE_PHN12_req_meta_q_10
*42 FE_PHN11_req_meta_q_3
*43 FE_PHN10_req_meta_q_1
*44 FE_PHN9_req_meta_q_6
*45 FE_PHN8_req_meta_q_12
*46 FE_PHN7_req_meta_q_0
*47 FE_PHN6_req_meta_q_14
*48 FE_PHN5_req_meta_q_15
*49 FE_PHN4_req_meta_q_4
*50 FE_PHN3_req_meta_q_9
*51 FE_PHN2_req_meta_q_7
*52 FE_PHN1_req_meta_q_8
*53 CTS_1
*54 FE_OFN0_rst_n
*55 clk
*56 rst_n
*57 src_req_async[15]
*58 src_req_async[14]
*59 src_req_async[13]
*60 src_req_async[12]
*61 src_req_async[11]
*62 src_req_async[10]
*63 src_req_async[9]
*64 src_req_async[8]
*65 src_req_async[7]
*66 src_req_async[6]
*67 src_req_async[5]
*68 src_req_async[4]
*69 src_req_async[3]
*70 src_req_async[2]
*71 src_req_async[1]
*72 src_req_async[0]
*73 src_ack_async[15]
*74 src_ack_async[14]
*75 src_ack_async[13]
*76 src_ack_async[12]
*77 src_ack_async[11]
*78 src_ack_async[10]
*79 src_ack_async[9]
*80 src_ack_async[8]
*81 src_ack_async[7]
*82 src_ack_async[6]
*83 src_ack_async[5]
*84 src_ack_async[4]
*85 src_ack_async[3]
*86 src_ack_async[2]
*87 src_ack_async[1]
*88 src_ack_async[0]
*89 out_addr[3]
*90 out_addr[2]
*91 out_addr[1]
*92 out_addr[0]
*93 out_valid
*94 out_ready
*95 local_rr_q\[0\][1]
*96 local_rr_q\[0\][0]
*97 local_rr_q\[1\][1]
*98 local_rr_q\[1\][0]
*99 local_rr_q\[3\][1]
*100 local_rr_q\[3\][0]
*101 local_rr_q\[2\][1]
*102 local_rr_q\[2\][0]
*103 pending_q[15]
*104 pending_q[14]
*105 pending_q[13]
*106 pending_q[12]
*107 pending_q[11]
*108 pending_q[10]
*109 pending_q[9]
*110 pending_q[8]
*111 pending_q[7]
*112 pending_q[6]
*113 pending_q[5]
*114 pending_q[4]
*115 pending_q[3]
*116 pending_q[2]
*117 pending_q[1]
*118 pending_q[0]
*119 group_rr_q[1]
*120 group_rr_q[0]
*121 req_sync_q[15]
*122 req_sync_q[14]
*123 req_sync_q[13]
*124 req_sync_q[12]
*125 req_sync_q[11]
*126 req_sync_q[10]
*127 req_sync_q[9]
*128 req_sync_q[8]
*129 req_sync_q[7]
*130 req_sync_q[6]
*131 req_sync_q[5]
*132 req_sync_q[4]
*133 req_sync_q[3]
*134 req_sync_q[2]
*135 req_sync_q[1]
*136 req_sync_q[0]
*137 req_meta_q[15]
*138 req_meta_q[14]
*139 req_meta_q[13]
*140 req_meta_q[12]
*141 req_meta_q[11]
*142 req_meta_q[10]
*143 req_meta_q[9]
*144 req_meta_q[8]
*145 req_meta_q[7]
*146 req_meta_q[6]
*147 req_meta_q[5]
*148 req_meta_q[4]
*149 req_meta_q[3]
*150 req_meta_q[2]
*151 req_meta_q[1]
*152 req_meta_q[0]
*153 n_2
*154 n_3
*155 n_4
*156 n_5
*157 n_6
*158 n_7
*159 n_8
*160 n_9
*161 n_10
*162 n_11
*163 n_12
*164 n_13
*165 n_14
*166 n_15
*167 n_16
*168 n_17
*169 n_18
*170 n_19
*171 n_20
*172 n_21
*173 n_22
*174 n_23
*175 n_24
*176 n_25
*177 n_26
*178 n_27
*179 n_28
*180 n_29
*181 n_30
*182 n_31
*183 n_32
*184 n_33
*185 n_34
*186 n_35
*187 n_36
*188 n_37
*189 n_38
*190 n_39
*191 n_40
*192 n_41
*193 n_42
*194 n_43
*195 n_44
*196 n_45
*197 n_46
*198 n_47
*199 n_48
*200 n_49
*201 n_50
*202 n_51
*203 n_52
*204 n_53
*205 n_54
*206 n_55
*207 n_56
*208 n_57
*209 n_58
*210 n_59
*211 n_60
*212 n_61
*213 n_62
*214 n_63
*215 n_64
*216 n_65
*217 n_66
*218 n_67
*219 n_68
*220 n_69
*221 n_70
*222 n_71
*223 n_72
*224 n_73
*225 n_74
*226 n_75
*227 n_76
*228 n_77
*229 n_78
*230 n_79
*231 n_80
*232 n_81
*233 n_82
*234 n_83
*235 n_84
*236 n_85
*237 n_86
*238 n_87
*239 n_88
*240 n_89
*241 n_90
*242 n_91
*243 n_92
*244 n_93
*245 n_94
*246 n_95
*247 n_96
*248 n_97
*249 n_98
*250 n_99
*251 n_100
*252 n_101
*253 n_102
*254 n_103
*255 n_104
*256 n_105
*257 n_106
*258 n_107
*259 n_108
*260 n_109
*261 n_110
*262 n_111
*263 n_112
*264 n_113
*265 n_114
*266 n_115
*267 n_116
*268 n_117
*269 n_118
*270 n_119
*271 n_120
*272 n_121
*273 n_122
*274 n_123
*275 n_124
*276 n_125
*277 n_126
*278 n_127
*279 n_128
*280 n_129
*281 n_130
*282 n_131
*283 n_132
*284 n_133
*285 n_134
*286 n_135
*287 n_136
*288 n_137
*289 n_138
*290 n_139
*291 n_140
*292 n_141
*293 n_142
*294 n_143
*295 n_144
*296 n_145
*297 n_146
*298 n_147
*299 n_148
*300 n_149
*301 n_150
*302 n_151
*303 n_152
*304 n_153
*305 n_154
*306 n_155
*307 n_156
*308 n_157
*309 n_158
*310 n_159
*311 n_160
*312 n_161
*313 n_162
*314 n_163
*315 n_164
*316 n_165
*317 n_166
*318 n_167
*319 n_168
*320 n_169
*321 n_170
*322 n_171
*323 n_172
*324 n_173
*325 n_174
*326 n_175
*327 n_176
*328 n_177
*329 n_178
*330 n_179
*331 n_180
*332 n_181
*333 n_182
*334 n_183
*335 n_184
*336 n_185
*337 n_186
*338 n_187
*339 n_188
*340 n_189
*341 n_190
*342 n_191
*343 n_192
*344 n_193
*345 n_194
*346 n_195
*347 n_196
*348 n_197
*349 n_198
*350 n_199
*351 n_200
*352 n_201
*353 n_202
*354 n_203
*355 n_204
*356 n_205
*357 n_206
*358 n_207
*359 n_208
*360 n_209
*361 n_210
*362 n_211
*363 n_212
*364 n_213
*365 n_214
*366 n_215
*367 n_216
*368 n_217
*369 n_218
*370 n_219
*371 n_220
*372 n_221
*373 n_222
*374 n_223
*375 n_224
*376 n_225
*377 n_226
*378 n_227
*379 n_228
*380 n_229
*381 n_230
*382 n_231
*383 n_232
*384 n_233
*385 n_234
*386 n_235
*387 n_236
*388 n_237
*389 n_257
*390 FE_PHC52_out_addr_3
*391 FE_PHC51_n_33
*392 FE_PHC50_out_addr_2
*393 FE_PHC49_n_23
*394 FE_PHC48_n_43
*395 FE_PHC47_n_48
*396 FE_PHC46_n_35
*397 FE_PHC45_out_addr_0
*398 FE_PHC44_n_51
*399 FE_PHC43_n_50
*400 FE_PHC42_out_addr_1
*401 FE_PHC41_n_41
*402 FE_PHC40_n_37
*403 FE_PHC39_n_45
*404 FE_PHC38_n_31
*405 FE_PHC37_n_46
*406 FE_PHC36_n_29
*407 FE_PHC35_n_27
*408 FE_PHC34_n_25
*409 FE_PHC33_n_39
*410 FE_PHC32_req_meta_q_11
*411 FE_PHC31_req_meta_q_5
*412 FE_PHC30_req_meta_q_13
*413 FE_PHC29_req_meta_q_15
*414 FE_PHC28_req_meta_q_10
*415 FE_PHC27_req_meta_q_1
*416 FE_PHC26_req_meta_q_8
*417 FE_PHC25_req_meta_q_2
*418 FE_PHC24_req_meta_q_6
*419 FE_PHC23_req_meta_q_3
*420 FE_PHC22_req_meta_q_0
*421 FE_PHC21_req_meta_q_14
*422 FE_PHC20_req_meta_q_12
*423 FE_PHC19_req_meta_q_7
*424 FE_PHC18_req_meta_q_4
*425 FE_PHC17_req_meta_q_9
*426 FE_PHC16_req_meta_q_11
*427 FE_PHC15_req_meta_q_5
*428 FE_PHC14_req_meta_q_13
*429 FE_PHC13_req_meta_q_2
*430 FE_PHC12_req_meta_q_10
*431 FE_PHC11_req_meta_q_3
*432 FE_PHC10_req_meta_q_1
*433 FE_PHC9_req_meta_q_6
*434 FE_PHC8_req_meta_q_12
*435 FE_PHC7_req_meta_q_0
*436 FE_PHC6_req_meta_q_14
*437 FE_PHC5_req_meta_q_15
*438 FE_PHC4_req_meta_q_4
*439 FE_PHC3_req_meta_q_9
*440 FE_PHC2_req_meta_q_7
*441 FE_PHC1_req_meta_q_8
*442 CTS_ccl_a_buf_00001
*443 FE_OFC0_rst_n
*444 local_rr_q_reg\[0\]\[1\]
*445 local_rr_q_reg\[1\]\[1\]
*446 local_rr_q_reg\[3\]\[1\]
*447 local_rr_q_reg\[2\]\[1\]
*448 pending_q_reg\[4\]
*449 pending_q_reg\[2\]
*450 pending_q_reg\[0\]
*451 pending_q_reg\[6\]
*452 pending_q_reg\[10\]
*453 pending_q_reg\[14\]
*454 pending_q_reg\[8\]
*455 pending_q_reg\[12\]
*456 g10005__2398
*457 g10007__5107
*458 g10006__6260
*459 g10008__4319
*460 pending_q_reg\[3\]
*461 pending_q_reg\[1\]
*462 pending_q_reg\[5\]
*463 pending_q_reg\[7\]
*464 pending_q_reg\[9\]
*465 pending_q_reg\[15\]
*466 pending_q_reg\[11\]
*467 pending_q_reg\[13\]
*468 g10019__8428
*469 g10023__5526
*470 g10024__6783
*471 g10025__3680
*472 local_rr_q_reg\[2\]\[0\]
*473 local_rr_q_reg\[3\]\[0\]
*474 g10029__1617
*475 g10028__2802
*476 g10015__1705
*477 g10030__5122
*478 local_rr_q_reg\[1\]\[0\]
*479 local_rr_q_reg\[0\]\[0\]
*480 g10026__8246
*481 g10021__7098
*482 g10020__6131
*483 out_addr_q_reg\[0\]
*484 g10016__1881
*485 g10031__5115
*486 g10027__7482
*487 g10017__4733
*488 g10018__6161
*489 g10045__9315
*490 g10046__9945
*491 g10048__2883
*492 g10049__2346
*493 g10032__1666
*494 g10047__7410
*495 g10050__6417
*496 out_addr_q_reg\[1\]
*497 g10053__5477
*498 g10051__2398
*499 g10054__5107
*500 g10033__6260
*501 g10055
*502 g10034__4319
*503 g10036__8428
*504 g10056__5526
*505 g10035__6783
*506 g10037__3680
*507 g10041
*508 g10042__1617
*509 g10058__2802
*510 g10052__1705
*511 g10059__5122
*512 g10057__8246
*513 g10060__7098
*514 group_rr_q_reg\[1\]
*515 g10063
*516 g10071__6131
*517 g10062__1881
*518 g10066__5115
*519 g10067__7482
*520 g10070__4733
*521 g10064__6161
*522 g10065__9315
*523 g10068__9945
*524 g10072__2883
*525 g10091
*526 g10069__2346
*527 g10076__1666
*528 g10073__7410
*529 g10098__6417
*530 out_addr_q_reg\[3\]
*531 g10080
*532 g10079__5477
*533 g10077__2398
*534 g10082__5107
*535 g10087__6260
*536 g10074__4319
*537 g10096__8428
*538 g10094__5526
*539 g10099__6783
*540 g10081
*541 g10078__3680
*542 g10092__1617
*543 g10083__2802
*544 g10097__1705
*545 g10095__5122
*546 out_addr_q_reg\[2\]
*547 g10107
*548 g10090
*549 g10085__8246
*550 g10088__7098
*551 g10086__6131
*552 g10100
*553 g10102
*554 g10101
*555 g10093__1881
*556 g10103__5115
*557 g10111__7482
*558 group_rr_q_reg\[0\]
*559 g10104__4733
*560 g10105__6161
*561 g10108__9315
*562 g10110__9945
*563 g10106__2883
*564 g10109__2346
*565 g10112
*566 g10113__1666
*567 g10114
*568 g10115__7410
*569 g10116__6417
*570 out_valid_q_reg
*571 g10120
*572 g10118__5477
*573 g10119__2398
*574 g10122__5107
*575 g10121__6260
*576 g10125__4319
*577 g10123__8428
*578 g10124__5526
*579 g10129__6783
*580 g10126__3680
*581 g10127__1617
*582 g10131__2802
*583 g10128__1705
*584 g10130__5122
*585 g10132__8246
*586 g10133__7098
*587 g10138
*588 g10134
*589 g10139__6131
*590 g10137__1881
*591 g10135__5115
*592 g10136__7482
*593 g10140__4733
*594 g10143
*595 g10145__6161
*596 g10144__9315
*597 g10141__9945
*598 g10142__2883
*599 g10147__2346
*600 g10149__1666
*601 g10148__7410
*602 g10146__6417
*603 g10150__5477
*604 g10151__2398
*605 g10154
*606 g10158
*607 g10157
*608 g10152__5107
*609 g10153__6260
*610 g10155__4319
*611 g10156__8428
*612 g10159__5526
*613 g10160__6783
*614 g10161__3680
*615 g10168__1617
*616 g10163__2802
*617 g10164__1705
*618 g10165__5122
*619 g10166__8246
*620 g10167__7098
*621 g10162__6131
*622 g10175__1881
*623 g10170__5115
*624 g10171__7482
*625 g10172__4733
*626 g10173__6161
*627 g10174__9315
*628 g10169__9945
*629 ack_q_reg\[8\]
*630 ack_q_reg\[2\]
*631 ack_q_reg\[15\]
*632 ack_q_reg\[13\]
*633 ack_q_reg\[6\]
*634 ack_q_reg\[7\]
*635 ack_q_reg\[5\]
*636 ack_q_reg\[1\]
*637 ack_q_reg\[4\]
*638 g10177__2883
*639 ack_q_reg\[9\]
*640 ack_q_reg\[0\]
*641 ack_q_reg\[3\]
*642 ack_q_reg\[10\]
*643 ack_q_reg\[12\]
*644 ack_q_reg\[11\]
*645 g10176__2346
*646 ack_q_reg\[14\]
*647 g10223__1666
*648 g10225__7410
*649 g10194__6417
*650 g10195__5477
*651 g10196__2398
*652 g10197__5107
*653 g10198__6260
*654 g10199__4319
*655 g10200__8428
*656 g10201__5526
*657 g10202__6783
*658 g10203__3680
*659 g10204__1617
*660 g10205__2802
*661 g10206__1705
*662 g10207__5122
*663 g10224__8246
*664 g10222__7098
*665 g10210__6131
*666 g10211__1881
*667 g10212__5115
*668 g10213__7482
*669 g10214__4733
*670 g10215__6161
*671 g10216__9315
*672 g10217__9945
*673 g10218__2883
*674 g10219__2346
*675 g10220__1666
*676 g10221__7410
*677 g10208__6417
*678 g10209__5477
*679 g10246
*680 g10226
*681 g10228
*682 g10229
*683 g10230
*684 g10232
*685 g10233
*686 g10234
*687 g10251
*688 g10235
*689 g10248
*690 g10249
*691 g10250
*692 g10252
*693 g10247
*694 g10231
*695 g10227
*696 g10253
*697 req_sync_q_reg\[14\]
*698 req_sync_q_reg\[0\]
*699 req_sync_q_reg\[5\]
*700 req_sync_q_reg\[6\]
*701 req_sync_q_reg\[13\]
*702 req_sync_q_reg\[12\]
*703 req_sync_q_reg\[4\]
*704 req_sync_q_reg\[9\]
*705 req_sync_q_reg\[3\]
*706 req_sync_q_reg\[15\]
*707 req_sync_q_reg\[1\]
*708 g10261__2398
*709 g10262__5107
*710 g10263__6260
*711 g10260__8428
*712 req_sync_q_reg\[11\]
*713 req_sync_q_reg\[8\]
*714 req_sync_q_reg\[2\]
*715 req_sync_q_reg\[10\]
*716 req_sync_q_reg\[7\]
*717 req_meta_q_reg\[0\]
*718 req_meta_q_reg\[10\]
*719 req_meta_q_reg\[6\]
*720 req_meta_q_reg\[15\]
*721 req_meta_q_reg\[3\]
*722 req_meta_q_reg\[9\]
*723 req_meta_q_reg\[12\]
*724 req_meta_q_reg\[14\]
*725 req_meta_q_reg\[8\]
*726 req_meta_q_reg\[7\]
*727 req_meta_q_reg\[5\]
*728 req_meta_q_reg\[4\]
*729 req_meta_q_reg\[11\]
*730 req_meta_q_reg\[1\]
*731 req_meta_q_reg\[13\]
*732 req_meta_q_reg\[2\]
*733 g10281__5526
*734 g10298
*735 g10285
*736 g10288
*737 g10293
*738 g10295
*739 g10297
*740 g10305
*741 g10301
*742 g10287
*743 g10282
*744 g10300
*745 g10299
*746 g10284
*747 g10286
*748 g10294
*749 g10283
*750 g10296
*751 g2


*PORTS

*55 I *C 0 0.28
*56 I *C 0 8.68
*57 I *C 0 155.96
*58 I *C 0 147
*59 I *C 0 138.6
*60 I *C 0 129.64
*61 I *C 0 121.24
*62 I *C 0 112.28
*63 I *C 0 103.88
*64 I *C 0 94.92
*65 I *C 0 86.52
*66 I *C 0 78.12
*67 I *C 0 69.16
*68 I *C 0 60.76
*69 I *C 0 51.8
*70 I *C 0 43.4
*71 I *C 0 34.44
*72 I *C 0 26.04
*73 O *C 164.34 31.64
*74 O *C 164.34 39.48
*75 O *C 164.34 47.32
*76 O *C 164.34 55.16
*77 O *C 164.34 63
*78 O *C 164.34 70.84
*79 O *C 164.34 78.12
*80 O *C 164.34 85.96
*81 O *C 164.34 93.8
*82 O *C 164.34 101.64
*83 O *C 164.34 109.48
*84 O *C 164.34 117.32
*85 O *C 164.34 125.16
*86 O *C 164.34 133
*87 O *C 164.34 140.84
*88 O *C 164.34 148.68
*89 O *C 164.34 0.28
*90 O *C 164.34 8.12
*91 O *C 164.34 15.96
*92 O *C 164.34 23.8
*93 O *C 164.34 155.96
*94 I *C 0 17.08


*D_NET *1 0.00242509

*CONN
*I *390:Y O *C 112.53 37.24 *L 0 *D BUFX3
*I *555:B1 I *C 108.57 33.32 *L 0.00434 *D AOI22X1

*CAP
1 *390:Y 6.33003e-05
2 *555:B1 8.21169e-05
3 *1:2 0.000157888
4 *1:3 0.000149193
5 *1:4 0.000203621
6 *1:5 0.00021232
7 *1:6 0.000189584
8 *1:7 0.000193994
9 *1:8 0.000119899
10 *1:9 0.00031482
11 *1:10 0.00031482
12 *1:4 *89:5 3.182e-05
13 *1:5 *89:6 3.182e-05
14 *1:10 *89:7 0.00017995
15 *1:9 *89:8 0.000179949998

*RES
1 *1:10 *390:Y 6.4000001
2 *1:9 *1:10 1.71602
3 *1:4 *1:9 6.4000001
4 *1:5 *1:4 0.919238
5 *1:7 *555:B1 0.447656
6 *1:5 *1:2 0.155957
7 *1:8 *1:7 3.2
8 *1:3 *1:2 0.551562
9 *1:6 *1:8 0.624023
10 *1:6 *1:3 3.2
*END

*D_NET *2 0.00258398

*CONN
*I *391:Y O *C 61.71 47.32 *L 0 *D BUFX3
*I *646:D I *C 53.79 36.68 *L 0.00184 *D DFFRHQX1

*CAP
1 *391:Y 6.3295e-05
2 *646:D 6.3295e-05
3 *2:2 0.000120601
4 *2:3 0.000381725
5 *2:4 0.000196356
6 *2:5 0.000381725
7 *2:6 0.000141468
8 *2:7 0.00054463
9 *2:8 0.00058489
10 *2:9 0.000105983

*RES
1 *2:9 *391:Y 6.4000001
2 *2:8 *2:9 0.367676
3 *2:7 *2:8 2.34004
4 *2:6 *2:7 0.183887
5 *2:4 *2:6 0.467969
6 *2:5 *2:4 3.2
7 *2:3 *2:5 1.65469
8 *2:2 *2:3 3.2
9 *646:D *2:2 6.4000001
*END

*D_NET *3 0.00015946

*CONN
*I *392:Y O *C 130.35 37.24 *L 0 *D BUFX3
*I *561:A0N I *C 131.67 37.24 *L 0.00186 *D OAI2BB2X1

*CAP
1 *392:Y 7.973e-05
2 *561:A0N 7.973e-05

*RES
1 *392:Y *561:A0N 0.447652
*END

*D_NET *4 0.00048693

*CONN
*I *393:Y O *C 64.35 113.96 *L 0 *D BUFX3
*I *637:D I *C 66.99 114.52 *L 0.00184 *D DFFRHQX1

*CAP
1 *393:Y 4.12111e-05
2 *637:D 6.32997e-05
3 *4:2 7.65388e-05
4 *4:3 0.00015294
5 *4:4 0.00015294

*RES
1 *4:4 *637:D 6.4000001
2 *4:3 *4:4 0.551562
3 *4:2 *4:3 6.4000001
4 *393:Y *4:2 0.223828
*END

*D_NET *5 0.000951483

*CONN
*I *394:Y O *C 99.33 124.04 *L 0 *D BUFX3
*I *640:D I *C 98.01 117.32 *L 0.00184 *D DFFRHQX1

*CAP
1 *394:Y 6.33009e-05
2 *640:D 6.33009e-05
3 *5:2 0.000105982
4 *5:3 0.00038698
5 *5:4 0.000331922

*RES
1 *5:4 *394:Y 6.4000001
2 *5:3 *5:4 1.55996
3 *5:2 *5:3 0.367676
4 *640:D *5:2 6.4000001
*END

*D_NET *6 0.000673438

*CONN
*I *395:Y O *C 70.29 23.24 *L 0 *D BUFX3
*I *631:D I *C 68.97 26.6 *L 0.00184 *D DFFRHQX1

*CAP
1 *395:Y 6.33004e-05
2 *631:D 6.33004e-05
3 *6:2 0.0002077
4 *6:3 0.0002077
5 *6:4 6.57186e-05
6 *6:5 6.57186e-05

*RES
1 *6:5 *395:Y 6.4000001
2 *6:3 *6:5 0.183887
3 *6:3 *6:2 0.77998
4 *6:4 *6:2 0.183887
5 *631:D *6:4 6.4000001
*END

*D_NET *7 0.000563849

*CONN
*I *396:Y O *C 128.37 63.56 *L 0 *D BUFX3
*I *644:D I *C 131.01 64.12 *L 0.00184 *D DFFRHQX1

*CAP
1 *396:Y 4.12105e-05
2 *644:D 6.33001e-05
3 *7:2 0.00014048
4 *7:3 0.00014048
5 *7:4 7.65411e-05
6 *7:5 5.09188e-05
7 *7:6 5.09188e-05

*RES
1 *7:6 *644:D 6.4000001
2 *7:2 *7:6 6.4000001
3 *7:3 *7:2 0.551562
4 *7:5 *7:3 6.4000001
5 *7:4 *7:5 6.4000001
6 *396:Y *7:4 0.223828
*END

*D_NET *8 0.000478399

*CONN
*I *397:Y O *C 134.97 43.4 *L 0 *D BUFX3
*I *494:A0N I *C 132.99 43.4 *L 0.0019 *D OAI2BB2XL

*CAP
1 *397:Y 6.33e-05
2 *494:A0N 6.33e-05
3 *8:2 5.51186e-05
4 *8:3 0.000150439307
5 *8:4 0.000146241

*RES
1 *8:4 *397:Y 6.4000001
2 *8:3 *8:4 0.551562
3 *8:2 *8:3 0.155957
4 *494:A0N *8:2 6.4000001
*END

*D_NET *9 0.00122724

*CONN
*I *398:Y O *C 113.85 124.04 *L 0 *D BUFX3
*I *636:D I *C 113.85 117.32 *L 0.00184 *D DFFRHQX1

*CAP
1 *398:Y 6.32993e-05
2 *636:D 6.32993e-05
3 *9:2 0.00031327
4 *9:3 0.000273006
5 *9:4 0.000171327
6 *9:5 0.000211591
7 *9:6 6.57229e-05
8 *9:7 6.57229e-05

*RES
1 *9:6 *636:D 6.4000001
2 *9:6 *9:3 0.183887
3 *9:7 *398:Y 6.4000001
4 *9:3 *9:2 1.09199
5 *9:4 *9:7 0.183887
6 *9:5 *9:2 0.367676
7 *9:5 *9:4 0.77998
*END

*D_NET *10 0.00068955

*CONN
*I *399:Y O *C 128.37 107.8 *L 0 *D BUFX3
*I *641:D I *C 131.01 107.24 *L 0.00184 *D DFFRHQX1

*CAP
1 *399:Y 4.1209e-05
2 *641:D 6.32996e-05
3 *10:2 0.00020333
4 *10:3 0.00020333
5 *10:4 7.65416e-05
6 *10:5 5.09202e-05
7 *10:6 5.09202e-05

*RES
1 *10:6 *641:D 6.4000001
2 *10:2 *10:6 6.4000001
3 *10:3 *10:2 0.551562
4 *10:5 *10:3 6.4000001
5 *10:4 *10:5 6.4000001
6 *399:Y *10:4 0.223828
*END

*D_NET *11 0.00169892

*CONN
*I *400:Y O *C 138.93 23.24 *L 0 *D BUFX3
*I *500:A0N I *C 131.67 23.24 *L 0.0019 *D OAI2BB2XL

*CAP
1 *400:Y 6.33004e-05
2 *500:A0N 0.000139842
3 *11:2 0.000238463
4 *11:3 0.000168777
5 *11:4 0.000270862
6 *11:5 0.000184381
7 *11:6 0.00027956
8 *11:7 8.90275e-05
9 *11:8 8.90275e-05
10 *11:9 0.000175679

*RES
1 *11:7 *400:Y 6.4000001
2 *11:7 *11:8 0.312012
3 *11:9 *11:8 6.4000001
4 *11:5 *11:9 0.735449
5 *11:5 *11:6 0.155957
6 *11:4 *11:6 1.28701
7 *11:2 *11:4 3.2
8 *11:3 *11:2 0.624023
9 *500:A0N *11:3 3.2
*END

*D_NET *12 0.00130045

*CONN
*I *401:Y O *C 128.37 97.72 *L 0 *D BUFX3
*I *639:D I *C 131.01 94.36 *L 0.00184 *D DFFRHQX1

*CAP
1 *401:Y 3.9858e-05
2 *639:D 6.32983e-05
3 *12:2 0.000225342
4 *12:3 0.000225342
5 *12:4 7.51879e-05
6 *12:5 5.09176e-05
7 *12:6 0.000105977
8 *12:7 0.00028479
9 *12:8 0.000229731

*RES
1 *12:6 *639:D 6.4000001
2 *12:6 *12:7 0.367676
3 *12:7 *12:8 0.936035
4 *12:2 *12:8 6.4000001
5 *12:3 *12:2 0.919238
6 *12:5 *12:3 6.4000001
7 *12:4 *12:5 6.4000001
8 *401:Y *12:4 0.223828
*END

*D_NET *13 0.000896192

*CONN
*I *402:Y O *C 127.71 87.64 *L 0 *D BUFX3
*I *629:D I *C 131.01 84.28 *L 0.00184 *D DFFRHQX1

*CAP
1 *402:Y 4.12092e-05
2 *629:D 6.33018e-05
3 *13:2 0.00018348
4 *13:3 0.00018348
5 *13:4 7.65389e-05
6 *13:5 5.09214e-05
7 *13:6 0.000148629
8 *13:7 0.000148629

*RES
1 *13:3 *629:D 6.4000001
2 *13:3 *13:2 0.77998
3 *13:7 *13:2 6.4000001
4 *13:6 *13:7 0.735449
5 *13:5 *13:6 6.4000001
6 *13:4 *13:5 6.4000001
7 *402:Y *13:4 0.223828
*END

*D_NET *14 0.00107303

*CONN
*I *403:A I *C 47.19 47.32 *L 0.00446 *D BUFX3
*I *665:Y O *C 42.57 46.76 *L 0 *D AOI21XL

*CAP
1 *403:A 6.33019e-05
2 *665:Y 3.98602e-05
3 *14:2 0.00025401
4 *14:3 0.00025401
5 *14:4 7.51894e-05
6 *14:5 5.09183e-05
7 *14:6 7.24181e-05
8 *14:7 7.24181e-05
9 *14:2 *195:4 9.545e-05
10 *14:3 *195:5 9.54500008e-05

*RES
1 *14:7 *403:A 6.4000001
2 *14:6 *14:7 0.183887
3 *14:2 *14:6 6.4000001
4 *14:3 *14:2 0.919238
5 *14:5 *14:3 6.4000001
6 *14:4 *14:5 6.4000001
7 *665:Y *14:4 0.223828
*END

*D_NET *15 0.001128

*CONN
*I *404:Y O *C 136.29 73.64 *L 0 *D BUFX3
*I *642:D I *C 131.01 77 *L 0.00184 *D DFFRHQX1

*CAP
1 *404:Y 6.32996e-05
2 *642:D 6.32996e-05
3 *15:2 5.09205e-05
4 *15:3 0.00029684
5 *15:4 0.000178398
6 *15:5 0.000178398
7 *15:6 0.00029684

*RES
1 *15:4 *404:Y 6.4000001
2 *15:4 *15:5 0.77998
3 *15:6 *15:5 6.4000001
4 *15:3 *15:6 1.4709
5 *15:2 *15:3 6.4000001
6 *642:D *15:2 6.4000001
*END

*D_NET *16 0.00138915

*CONN
*I *405:Y O *C 55.11 63.56 *L 0 *D BUFX3
*I *643:D I *C 53.79 74.2 *L 0.00184 *D DFFRHQX1

*CAP
1 *405:Y 6.33018e-05
2 *643:D 6.33018e-05
3 *16:2 6.58557e-05
4 *16:3 0.00056542
5 *16:4 0.00056542
6 *16:5 6.58557e-05

*RES
1 *16:5 *405:Y 6.4000001
2 *16:3 *16:5 0.183887
3 *16:3 *16:4 2.80801
4 *16:2 *16:4 0.183887
5 *643:D *16:2 6.4000001
*END

*D_NET *17 0.00068698

*CONN
*I *406:Y O *C 129.69 113.96 *L 0 *D BUFX3
*I *630:D I *C 128.37 117.32 *L 0.00184 *D DFFRHQX1

*CAP
1 *406:Y 6.32987e-05
2 *630:D 6.32987e-05
3 *17:2 6.57204e-05
4 *17:3 0.00021447
5 *17:4 0.00021447
6 *17:5 6.57204e-05

*RES
1 *17:5 *406:Y 6.4000001
2 *17:3 *17:5 0.183887
3 *17:3 *17:4 0.77998
4 *17:2 *17:4 0.183887
5 *630:D *17:2 6.4000001
*END

*D_NET *18 0.00213766

*CONN
*I *407:Y O *C 80.19 93.8 *L 0 *D BUFX3
*I *634:D I *C 83.49 104.44 *L 0.00184 *D DFFRHQX1

*CAP
1 *407:Y 4.12108e-05
2 *634:D 6.3303e-05
3 *18:2 0.00051689
4 *18:3 0.00051689
5 *18:4 0.000163329
6 *18:5 0.000163329
7 *18:6 7.65377e-05
8 *18:7 0.000298082
9 *18:8 0.000298082

*RES
1 *18:2 *634:D 6.4000001
2 *18:3 *18:2 2.34004
3 *18:8 *18:3 6.4000001
4 *18:7 *18:8 0.735449
5 *18:4 *18:7 6.4000001
6 *18:5 *18:4 0.467969
7 *18:6 *18:5 6.4000001
8 *407:Y *18:6 0.223828
*END

*D_NET *19 0.000694111

*CONN
*I *408:Y O *C 80.85 117.88 *L 0 *D BUFX3
*I *635:D I *C 83.49 117.32 *L 0.00184 *D DFFRHQX1

*CAP
1 *408:Y 4.12098e-05
2 *635:D 6.33003e-05
3 *19:2 7.65402e-05
4 *19:3 5.09201e-05
5 *19:4 0.00020561
6 *19:5 5.09201e-05
7 *19:6 0.00020561

*RES
1 *19:5 *635:D 6.4000001
2 *19:6 *19:5 6.4000001
3 *19:4 *19:6 0.551562
4 *19:3 *19:4 6.4000001
5 *19:2 *19:3 6.4000001
6 *408:Y *19:2 0.223828
*END

*D_NET *20 0.00220894

*CONN
*I *409:Y O *C 63.03 93.8 *L 0 *D BUFX3
*I *633:D I *C 55.11 87.08 *L 0.00184 *D DFFRHQX1

*CAP
1 *409:Y 3.98413e-05
2 *633:D 6.32952e-05
3 *20:2 0.00029965
4 *20:3 0.000369328
5 *20:4 0.00048749
6 *20:5 9.13239e-05
7 *20:6 5.09174e-05
8 *20:7 0.00048749
9 *20:8 0.000167882
10 *20:9 0.000151733

*RES
1 *409:Y *20:9 0.223828
2 *20:8 *20:9 0.569727
3 *20:5 *20:8 0.223828
4 *20:6 *20:5 6.4000001
5 *20:7 *20:6 6.4000001
6 *20:4 *20:7 2.20625
7 *20:3 *20:4 3.2
8 *20:2 *20:3 1.24805
9 *633:D *20:2 6.4000001
*END

*D_NET *21 0.00405897

*CONN
*I *410:Y O *C 51.15 77.56 *L 0 *D BUFX3
*I *426:A I *C 41.25 57.4 *L 0.00446 *D BUFX3

*CAP
1 *410:Y 4.12164e-05
2 *426:A 0.000139832
3 *21:2 0.00100104
4 *21:3 0.00101584
5 *21:4 0.000142095
6 *21:5 6.80792e-05
7 *21:6 0.000339977
8 *21:7 7.67906e-05
9 *21:8 0.000340086
10 *21:9 0.000107126
11 *21:10 7.65426e-05
12 *21:11 5.09199e-05
13 *21:12 9.83211e-05
14 *21:7 *141:4 3.182e-05
15 *21:5 *141:5 3.182e-05
16 *21:8 *141:4 0.00011997
17 *21:6 *141:5 0.000119970002
18 *21:2 *123:7 0.00012876
19 *21:3 *123:5 0.000128759997

*RES
1 *410:Y *21:10 0.223828
2 *21:11 *21:10 6.4000001
3 *21:12 *21:11 6.4000001
4 *21:9 *21:12 0.367676
5 *21:8 *21:9 0.155957
6 *21:6 *21:8 2.02246
7 *21:6 *21:7 0.155957
8 *21:5 *21:7 0.367676
9 *21:2 *21:5 6.4000001
10 *21:3 *21:2 5.45996
11 *21:4 *21:3 0.183887
12 *426:A *21:4 3.2
*END

*D_NET *22 0.00338725

*CONN
*I *411:Y O *C 36.63 124.04 *L 0 *D BUFX3
*I *699:D I *C 39.93 104.44 *L 0.00184 *D DFFRHQX1

*CAP
1 *411:Y 3.98465e-05
2 *699:D 6.33032e-05
3 *22:2 0.000502088
4 *22:3 0.000516892109
5 *22:4 0.000479538
6 *22:5 0.000479538
7 *22:6 8.58845e-05
8 *22:7 0.000165191
9 *22:8 7.51657e-05
10 *22:9 0.000157091
11 *22:10 0.000177219
12 *22:11 0.000124887
13 *22:4 *147:8 0.0001935
14 *22:5 *147:7 0.0001935
15 *22:6 *147:8 2.502e-05
16 *22:7 *147:7 2.502e-05
17 *22:2 *147:8 4.178e-05
18 *22:3 *147:7 4.17799942e-05

*RES
1 *22:11 *699:D 6.4000001
2 *22:7 *22:11 0.454102
3 *22:7 *22:6 0.44707
4 *22:5 *22:6 0.0918945
5 *22:5 *22:4 2.65195
6 *22:4 *22:9 0.0918945
7 *22:9 *22:10 0.467969
8 *22:3 *22:10 0.183887
9 *22:3 *22:2 1.87197
10 *22:8 *22:2 6.4000001
11 *411:Y *22:8 0.223828
*END

*D_NET *23 0.00240001

*CONN
*I *412:Y O *C 28.05 124.04 *L 0 *D BUFX3
*I *701:D I *C 24.09 107.24 *L 0.00184 *D DFFRHQX1

*CAP
1 *412:Y 6.33021e-05
2 *701:D 6.33021e-05
3 *23:2 0.00010599
4 *23:3 0.000357325
5 *23:4 0.000317055
6 *23:5 0.000633141
7 *23:6 0.00071366
8 *23:7 0.000146238

*RES
1 *23:7 *412:Y 6.4000001
2 *23:6 *23:7 0.551562
3 *23:5 *23:6 2.96396
4 *23:4 *23:5 0.183887
5 *23:3 *23:4 1.404
6 *23:2 *23:3 0.367676
7 *701:D *23:2 6.4000001
*END

*D_NET *24 0.00202348

*CONN
*I *413:Y O *C 61.71 97.72 *L 0 *D BUFX3
*I *706:D I *C 55.11 104.44 *L 0.00184 *D DFFRHQX1

*CAP
1 *413:Y 6.3298e-05
2 *706:D 6.3298e-05
3 *24:2 0.000127634
4 *24:3 0.000127634
5 *24:4 0.00044466
6 *24:5 0.00044466
7 *24:6 5.09152e-05
8 *24:7 0.000325229
9 *24:8 0.000325229
10 *24:9 5.09152e-05

*RES
1 *24:9 *413:Y 6.4000001
2 *24:2 *24:9 6.4000001
3 *24:3 *24:2 0.551562
4 *24:5 *24:3 6.4000001
5 *24:5 *24:4 1.71602
6 *24:8 *24:4 6.4000001
7 *24:7 *24:8 1.28701
8 *24:6 *24:7 6.4000001
9 *706:D *24:6 6.4000001
*END

*D_NET *25 0.00162398

*CONN
*I *414:Y O *C 32.67 66.92 *L 0 *D CLKBUFXL
*I *715:D I *C 39.27 74.2 *L 0.00184 *D DFFRHQX1

*CAP
1 *414:Y 6.32998e-05
2 *715:D 6.32998e-05
3 *25:2 0.000287855
4 *25:3 0.000294546
5 *25:4 0.00043203
6 *25:5 5.09194e-05
7 *25:6 0.00043203

*RES
1 *25:5 *715:D 6.4000001
2 *25:6 *25:5 6.4000001
3 *25:4 *25:6 2.02246
4 *25:2 *25:4 6.4000001
5 *25:3 *25:2 1.55996
6 *414:Y *25:3 6.4000001
*END

*D_NET *26 0.000963917

*CONN
*I *415:Y O *C 46.53 26.6 *L 0 *D CLKBUFXL
*I *707:D I *C 44.55 33.88 *L 0.00184 *D DFFRHQX1

*CAP
1 *415:Y 6.3296e-05
2 *707:D 6.3296e-05
3 *26:2 0.00035294
4 *26:3 0.00035294
5 *26:4 6.57195e-05
6 *26:5 6.57195e-05

*RES
1 *26:5 *415:Y 6.4000001
2 *26:3 *26:5 0.183887
3 *26:3 *26:2 1.55996
4 *26:4 *26:2 0.183887
5 *707:D *26:4 6.4000001
*END

*D_NET *27 0.0020614

*CONN
*I *416:Y O *C 49.17 77 *L 0 *D CLKBUFXL
*I *713:D I *C 39.27 84.28 *L 0.00184 *D DFFRHQX1

*CAP
1 *416:Y 6.33048e-05
2 *713:D 6.33048e-05
3 *27:2 0.000227655
4 *27:3 0.000227655
5 *27:4 0.00053921
6 *27:5 0.00053921
7 *27:6 0.000203877
8 *27:7 0.00019718

*RES
1 *27:6 *416:Y 6.4000001
2 *27:6 *27:7 0.624023
3 *27:4 *27:7 6.4000001
4 *27:2 *713:D 6.4000001
5 *27:5 *27:4 2.57402
6 *27:3 *27:2 0.936035
7 *27:3 *27:5 6.4000001
*END

*D_NET *28 0.00187389

*CONN
*I *417:A I *C 46.53 57.4 *L 0.002 *D CLKBUFXL
*I *429:Y O *C 37.29 53.48 *L 0 *D BUFX3

*CAP
1 *417:A 6.33066e-05
2 *429:Y 4.2289e-05
3 *28:2 7.76192e-05
4 *28:3 0.000203602
5 *28:4 0.000203602
6 *28:5 0.00061628
7 *28:6 5.09217e-05
8 *28:7 0.00061628

*RES
1 *28:6 *417:A 6.4000001
2 *28:7 *28:6 6.4000001
3 *28:5 *28:7 2.39014
4 *28:4 *28:5 6.4000001
5 *28:3 *28:4 0.936035
6 *28:2 *28:3 6.4000001
7 *429:Y *28:2 0.223828
*END

*D_NET *29 0.00214995

*CONN
*I *418:Y O *C 46.53 77 *L 0 *D CLKBUFXL
*I *700:D I *C 39.93 87.08 *L 0.00184 *D DFFRHQX1

*CAP
1 *418:Y 7.45883e-05
2 *700:D 6.33056e-05
3 *29:2 0.000418412
4 *29:3 0.000455691
5 *29:4 5.99333e-05
6 *29:5 6.69435e-05
7 *29:6 0.000483591523
8 *29:7 0.000468789
9 *29:8 5.87084e-05

*RES
1 *418:Y *29:2 0.379785
2 *29:3 *29:2 1.79062
3 *29:7 *29:3 3.2
4 *29:7 *29:6 2.02803
5 *29:5 *29:6 0.183887
6 *29:5 *29:4 0.135059
7 *29:8 *29:4 0.151855
8 *700:D *29:8 6.4000001
*END

*D_NET *30 0.00097819

*CONN
*I *419:Y O *C 35.31 66.92 *L 0 *D CLKBUFXL
*I *705:D I *C 39.93 66.92 *L 0.00184 *D DFFRHQX1

*CAP
1 *419:Y 3.72991e-05
2 *705:D 6.32979e-05
3 *30:2 7.99878e-05
4 *30:3 5.09217e-05
5 *30:4 6.63214e-05
6 *30:5 0.00031907
7 *30:6 5.09217e-05
8 *30:7 0.00031037

*RES
1 *30:6 *705:D 6.4000001
2 *30:7 *30:6 6.4000001
3 *30:5 *30:7 1.28701
4 *30:4 *30:5 0.155957
5 *30:3 *30:4 6.4000001
6 *30:2 *30:3 6.4000001
7 *30:2 *419:Y 0.189941
*END

*D_NET *31 0.000507069

*CONN
*I *420:Y O *C 39.93 33.88 *L 0 *D CLKBUFXL
*I *698:D I *C 39.93 36.68 *L 0.00184 *D DFFRHQX1

*CAP
1 *420:Y 3.72985e-05
2 *698:D 6.33008e-05
3 *31:2 7.99897e-05
4 *31:3 0.00016324
5 *31:4 0.00016324

*RES
1 *31:4 *698:D 6.4000001
2 *31:3 *31:4 0.624023
3 *31:2 *31:3 6.4000001
4 *420:Y *31:2 0.189941
*END

*D_NET *32 0.00168642

*CONN
*I *421:Y O *C 59.73 114.52 *L 0 *D CLKBUFXL
*I *697:D I *C 55.11 107.24 *L 0.00184 *D DFFRHQX1

*CAP
1 *421:Y 6.33001e-05
2 *697:D 6.33001e-05
3 *32:2 0.00034098
4 *32:3 0.00034098
5 *32:4 0.000381599766
6 *32:5 5.39835e-05
7 *32:6 0.000381599766
8 *32:7 6.06798e-05

*RES
1 *32:7 *421:Y 6.4000001
2 *32:5 *32:7 0.155957
3 *32:6 *32:5 6.4000001
4 *32:4 *32:6 1.10312
5 *32:2 *32:4 6.4000001
6 *32:3 *32:2 1.404
7 *697:D *32:3 6.4000001
*END

*D_NET *33 0.00193513

*CONN
*I *422:A I *C 37.95 124.04 *L 0.002 *D CLKBUFXL
*I *434:Y O *C 37.95 113.96 *L 0 *D BUFX3

*CAP
1 *422:A 6.3304e-05
2 *434:Y 4.28032e-05
3 *33:2 0.000241525
4 *33:3 0.000226716
5 *33:4 0.000633931
6 *33:5 0.00064873
7 *33:6 7.81327e-05

*RES
1 *33:4 *422:A 6.4000001
2 *33:5 *33:4 1.87197
3 *33:5 *33:2 0.183887
4 *33:3 *33:2 0.77998
5 *33:6 *33:3 6.4000001
6 *434:Y *33:6 0.223828
*END

*D_NET *34 0.00292829

*CONN
*I *423:Y O *C 59.73 97.16 *L 0 *D CLKBUFXL
*I *716:D I *C 40.59 97.16 *L 0.00184 *D DFFRHQX1

*CAP
1 *423:Y 6.32933e-05
2 *716:D 6.32933e-05
3 *34:2 0.000320935
4 *34:3 0.000320935
5 *34:4 0.00037139
6 *34:5 0.00037139
7 *34:6 0.0005535
8 *34:7 0.000544691
9 *34:8 6.57173e-05
10 *34:9 7.53034e-05
11 *34:10 6.04978e-05
12 *34:11 5.09201e-05
13 *34:12 6.64268e-05

*RES
1 *34:11 *423:Y 6.4000001
2 *34:12 *34:11 6.4000001
3 *34:12 *34:2 0.155957
4 *34:3 *34:2 1.10312
5 *34:3 *34:4 0.155957
6 *34:5 *34:4 1.4709
7 *34:6 *34:5 0.155957
8 *34:7 *34:6 2.57402
9 *34:10 *34:7 6.4000001
10 *34:9 *34:10 0.155957
11 *34:8 *34:9 0.183887
12 *716:D *34:8 6.4000001
*END

*D_NET *35 0.00162256

*CONN
*I *424:Y O *C 45.87 56.84 *L 0 *D CLKBUFXL
*I *703:D I *C 41.25 64.12 *L 0.00184 *D DFFRHQX1

*CAP
1 *424:Y 6.32998e-05
2 *703:D 6.32998e-05
3 *35:2 0.000461302
4 *35:3 0.000468
5 *35:4 0.00025787
6 *35:5 0.00025787
7 *35:6 5.09241e-05

*RES
1 *35:3 *424:Y 6.4000001
2 *35:3 *35:2 1.55996
3 *35:4 *35:2 6.4000001
4 *35:5 *35:4 1.10312
5 *35:6 *35:5 6.4000001
6 *703:D *35:6 6.4000001
*END

*D_NET *36 0.00220525

*CONN
*I *425:Y O *C 55.11 94.36 *L 0 *D CLKBUFXL
*I *704:D I *C 40.59 94.36 *L 0.00184 *D DFFRHQX1

*CAP
1 *425:Y 6.32949e-05
2 *704:D 6.32949e-05
3 *36:2 0.00094145
4 *36:3 0.00094145
5 *36:4 7.2417e-05
6 *36:5 7.2417e-05
7 *36:6 5.09261e-05

*RES
1 *36:6 *425:Y 6.4000001
2 *36:2 *36:6 6.4000001
3 *36:3 *36:2 3.67715
4 *36:5 *36:3 6.4000001
5 *36:4 *36:5 0.183887
6 *704:D *36:4 6.4000001
*END

*D_NET *37 0.000755519

*CONN
*I *426:Y O *C 42.57 57.4 *L 0 *D BUFX3
*I *712:D I *C 41.25 54.04 *L 0.00184 *D DFFRHQX1

*CAP
1 *426:Y 0.00013984
2 *712:D 6.32994e-05
3 *37:2 0.000105981
4 *37:3 0.00025073
5 *37:4 0.000195668

*RES
1 *37:4 *426:Y 3.2
2 *37:3 *37:4 0.77998
3 *37:2 *37:3 0.367676
4 *712:D *37:2 6.4000001
*END

*D_NET *38 0.00144355

*CONN
*I *411:A I *C 35.31 124.04 *L 0.00446 *D BUFX3
*I *427:Y O *C 37.95 117.88 *L 0 *D BUFX3

*CAP
1 *411:A 6.33022e-05
2 *427:Y 4.16994e-05
3 *38:2 0.000406238555
4 *38:3 0.000406238555
5 *38:4 5.0917e-05
6 *38:5 0.000199062
7 *38:6 7.70325e-05
8 *38:7 0.000199062

*RES
1 *427:Y *38:6 0.223828
2 *38:3 *38:6 6.4000001
3 *38:3 *38:2 1.55996
4 *38:7 *38:2 6.4000001
5 *38:5 *38:7 0.919238
6 *38:4 *38:5 6.4000001
7 *411:A *38:4 6.4000001
*END

*D_NET *39 0.00015842

*CONN
*I *412:A I *C 26.73 124.04 *L 0.00446 *D BUFX3
*I *428:Y O *C 25.41 124.04 *L 0 *D BUFX3

*CAP
1 *412:A 7.921e-05
2 *428:Y 7.921e-05

*RES
1 *428:Y *412:A 0.447652
*END

*D_NET *40 0.00348045

*CONN
*I *417:Y O *C 48.51 56.84 *L 0 *D CLKBUFXL
*I *714:D I *C 23.43 54.04 *L 0.00184 *D DFFRHQX1

*CAP
1 *417:Y 6.32952e-05
2 *714:D 6.32952e-05
3 *40:2 0.000120605
4 *40:3 0.00130319
5 *40:4 0.000213191
6 *40:5 0.00130319
7 *40:6 0.000219893
8 *40:5 *134:3 9.689e-05
9 *40:3 *134:4 9.68900015e-05

*RES
1 *40:6 *417:Y 6.39997
2 *40:4 *40:6 0.779962
3 *40:5 *40:4 6.39997
4 *40:3 *40:5 6.80271435
5 *40:2 *40:3 3.19998
6 *714:D *40:2 6.39997
*END

*D_NET *41 0.00251047

*CONN
*I *414:A I *C 30.69 67.48 *L 0.002 *D CLKBUFXL
*I *430:Y O *C 37.95 77.56 *L 0 *D BUFX3

*CAP
1 *414:A 6.33029e-05
2 *430:Y 4.12156e-05
3 *41:2 0.000258541
4 *41:3 0.00020366
5 *41:4 0.00051439
6 *41:5 0.00051439
7 *41:6 5.0917e-05
8 *41:7 0.000386364
9 *41:8 0.000401159
10 *41:9 7.65365e-05

*RES
1 *430:Y *41:9 0.223828
2 *41:2 *41:9 3.2
3 *41:3 *41:2 0.77998
4 *41:8 *41:3 0.183887
5 *41:7 *41:8 1.87197
6 *41:4 *41:7 6.4000001
7 *41:5 *41:4 2.02246
8 *41:6 *41:5 6.4000001
9 *414:A *41:6 6.4000001
*END

*D_NET *42 0.000938012

*CONN
*I *419:A I *C 33.33 67.48 *L 0.002 *D CLKBUFXL
*I *431:Y O *C 37.29 67.48 *L 0 *D BUFX3

*CAP
1 *419:A 6.33012e-05
2 *431:Y 3.72981e-05
3 *42:2 0.00012769
4 *42:3 0.000290031
5 *42:4 0.00012769
6 *42:5 0.000292

*RES
1 *431:Y *42:5 0.189941
2 *42:3 *42:5 1.34297
3 *42:4 *42:3 6.4000001
4 *42:2 *42:4 0.467969
5 *419:A *42:2 6.4000001
*END

*D_NET *43 0.001199

*CONN
*I *415:A I *C 44.55 27.16 *L 0.002 *D CLKBUFXL
*I *432:Y O *C 41.91 33.32 *L 0 *D BUFX3

*CAP
1 *415:A 0.000119591
2 *432:Y 4.12099e-05
3 *43:2 0.000154916
4 *43:3 0.000368528
5 *43:4 7.65421e-05
6 *43:5 0.00043821

*RES
1 *43:2 *415:A 0.671484
2 *43:3 *43:2 6.4000001
3 *43:3 *43:5 1.87197
4 *43:4 *43:5 3.2
5 *432:Y *43:4 0.223828
*END

*D_NET *44 0.00015946

*CONN
*I *418:A I *C 44.55 77.56 *L 0.002 *D CLKBUFXL
*I *433:Y O *C 43.23 77.56 *L 0 *D BUFX3

*CAP
1 *418:A 7.973e-05
2 *433:Y 7.973e-05

*RES
1 *433:Y *418:A 0.447652
*END

*D_NET *45 0.00266511

*CONN
*I *422:Y O *C 39.93 124.6 *L 0 *D CLKBUFXL
*I *702:D I *C 39.93 107.24 *L 0.00184 *D DFFRHQX1

*CAP
1 *422:Y 7.96966e-05
2 *702:D 6.32972e-05
3 *45:2 0.000129238
4 *45:3 0.00011444
5 *45:4 0.00031157
6 *45:5 0.000345282
7 *45:6 0.00036945
8 *45:7 0.00036945
9 *45:8 0.000118358
10 *45:9 8.46293e-05
11 *45:10 0.000118358
12 *45:11 0.000230549
13 *45:12 0.000115032
14 *45:13 0.000215751

*RES
1 *422:Y *45:12 0.447656
2 *45:13 *45:12 6.4000001
3 *45:11 *45:13 0.936035
4 *45:11 *45:6 0.183887
5 *45:7 *45:6 1.71602
6 *45:2 *45:7 0.183887
7 *45:3 *45:2 0.467969
8 *45:10 *45:3 6.4000001
9 *45:8 *45:10 0.735449
10 *45:9 *702:D 6.4000001
11 *45:4 *45:8 6.4000001
12 *45:5 *45:9 0.270215
13 *45:5 *45:4 1.24805
*END

*D_NET *46 0.00122314

*CONN
*I *420:A I *C 37.95 33.32 *L 0.002 *D CLKBUFXL
*I *435:Y O *C 37.29 37.24 *L 0 *D BUFX3

*CAP
1 *420:A 7.9729e-05
2 *435:Y 4.12124e-05
3 *46:2 0.000207120957
4 *46:3 0.000207120957
5 *46:4 0.000154319
6 *46:5 0.000117278
7 *46:6 0.000144449
8 *46:7 7.65401e-05
9 *46:8 5.09182e-05
10 *46:9 0.000144449

*RES
1 *435:Y *46:7 0.223828
2 *46:8 *46:7 6.4000001
3 *46:9 *46:8 6.4000001
4 *46:6 *46:9 0.367676
5 *46:2 *46:6 6.4000001
6 *46:3 *46:2 0.624023
7 *46:5 *46:3 6.4000001
8 *46:4 *420:A 0.447656
9 *46:4 *46:5 0.379785
*END

*D_NET *47 0.00015946

*CONN
*I *421:A I *C 57.75 113.96 *L 0.002 *D CLKBUFXL
*I *436:Y O *C 56.43 113.96 *L 0 *D BUFX3

*CAP
1 *421:A 7.973e-05
2 *436:Y 7.973e-05

*RES
1 *436:Y *421:A 0.447652
*END

*D_NET *48 0.00110605

*CONN
*I *413:A I *C 60.39 97.72 *L 0.00446 *D BUFX3
*I *437:Y O *C 56.43 97.72 *L 0 *D BUFX3

*CAP
1 *413:A 6.33004e-05
2 *437:Y 4.11703e-05
3 *48:2 0.00020496
4 *48:3 0.00019615
5 *48:4 7.64984e-05
6 *48:5 5.09218e-05
7 *48:6 0.00013633
8 *48:7 0.000104599
9 *48:8 0.000104599
10 *48:9 0.00012752

*RES
1 *48:7 *413:A 6.4000001
2 *48:7 *48:8 0.312012
3 *48:9 *48:8 6.4000001
4 *48:6 *48:9 0.367676
5 *48:2 *48:6 0.155957
6 *48:3 *48:2 0.551562
7 *48:5 *48:3 6.4000001
8 *48:4 *48:5 6.4000001
9 *437:Y *48:4 0.223828
*END

*D_NET *49 0.00189059

*CONN
*I *424:A I *C 43.89 57.4 *L 0.002 *D CLKBUFXL
*I *438:Y O *C 38.61 63.56 *L 0 *D BUFX3

*CAP
1 *424:A 6.33009e-05
2 *438:Y 4.1209e-05
3 *49:2 0.00022806
4 *49:3 0.000158379
5 *49:4 0.000274752
6 *49:5 7.65395e-05
7 *49:6 0.000386799414
8 *49:7 0.000386799414
9 *49:8 0.000274752

*RES
1 *49:6 *424:A 6.4000001
2 *49:6 *49:7 1.24805
3 *49:8 *49:7 6.4000001
4 *49:4 *49:8 1.28701
5 *49:3 *49:4 6.4000001
6 *49:3 *49:2 0.624023
7 *49:5 *49:2 3.2
8 *438:Y *49:5 0.223828
*END

*D_NET *50 0.00238827

*CONN
*I *425:A I *C 53.13 93.8 *L 0.002 *D CLKBUFXL
*I *439:Y O *C 37.95 93.8 *L 0 *D BUFX3

*CAP
1 *425:A 6.33e-05
2 *439:Y 4.12113e-05
3 *50:2 7.65395e-05
4 *50:3 5.09208e-05
5 *50:4 0.000139948
6 *50:5 0.000108595
7 *50:6 0.000148649
8 *50:7 0.000647871
9 *50:8 0.000108595
10 *50:9 0.00064798
11 *50:10 0.000156273
12 *50:11 5.09208e-05
13 *50:12 0.000147463

*RES
1 *50:11 *425:A 6.4000001
2 *50:12 *50:11 6.4000001
3 *50:10 *50:12 0.367676
4 *50:9 *50:10 0.155957
5 *50:7 *50:9 2.75781
6 *50:7 *50:8 0.155957
7 *50:5 *50:8 0.367676
8 *50:5 *50:6 0.155957
9 *50:4 *50:6 0.551562
10 *50:3 *50:4 6.4000001
11 *50:2 *50:3 6.4000001
12 *439:Y *50:2 0.223828
*END

*D_NET *51 0.00304521

*CONN
*I *423:A I *C 57.75 97.72 *L 0.002 *D CLKBUFXL
*I *440:Y O *C 37.95 97.72 *L 0 *D BUFX3

*CAP
1 *423:A 3.98613e-05
2 *440:Y 4.12096e-05
3 *51:2 0.000182807
4 *51:3 0.000139949
5 *51:4 0.00065455
6 *51:5 0.00065433
7 *51:6 0.0004421
8 *51:7 0.000485177
9 *51:8 7.65464e-05
10 *51:9 0.000120603
11 *51:10 7.99922e-05
12 *51:11 5.09178e-05
13 *51:12 7.71557e-05

*RES
1 *51:12 *423:A 0.223828
2 *51:10 *51:12 0.189941
3 *51:11 *51:10 6.4000001
4 *51:6 *51:11 6.4000001
5 *51:7 *51:6 1.65469
6 *51:4 *51:7 0.312012
7 *51:5 *51:4 2.9417
8 *51:5 *51:2 0.312012
9 *51:3 *51:2 0.551562
10 *51:9 *51:3 3.2
11 *51:8 *51:9 3.2
12 *440:Y *51:8 0.223828
*END

*D_NET *52 0.00122888

*CONN
*I *416:A I *C 47.19 77.56 *L 0.002 *D CLKBUFXL
*I *441:Y O *C 40.59 77.56 *L 0 *D BUFX3

*CAP
1 *416:A 6.32988e-05
2 *441:Y 6.32988e-05
3 *52:2 0.00039746
4 *52:3 0.00039746
5 *52:4 5.09205e-05
6 *52:5 0.000102763
7 *52:6 8.79585e-05
8 *52:7 6.57187e-05

*RES
1 *52:7 *416:A 6.4000001
2 *52:5 *52:7 0.183887
3 *52:5 *52:6 0.312012
4 *52:2 *52:6 6.4000001
5 *52:3 *52:2 1.65469
6 *52:4 *52:3 6.4000001
7 *441:Y *52:4 6.4000001
*END

*D_NET *53 0.11348

*CONN
*I *732:CK I *C 22.77 47.88 *L 0.003 *D DFFRHQX1
*I *442:Y O *C 25.41 33.88 *L 0 *D CLKBUFX20
*I *731:CK I *C 23.43 118.44 *L 0.003 *D DFFRHQX1
*I *730:CK I *C 22.77 37.8 *L 0.003 *D DFFRHQX1
*I *729:CK I *C 23.43 103.32 *L 0.003 *D DFFRHQX1
*I *728:CK I *C 23.43 63 *L 0.003 *D DFFRHQX1
*I *727:CK I *C 23.43 73.08 *L 0.003 *D DFFRHQX1
*I *726:CK I *C 23.43 98.28 *L 0.003 *D DFFRHQX1
*I *725:CK I *C 23.43 83.16 *L 0.003 *D DFFRHQX1
*I *724:CK I *C 39.93 118.44 *L 0.003 *D DFFRHQX1
*I *723:CK I *C 23.43 113.4 *L 0.003 *D DFFRHQX1
*I *722:CK I *C 23.43 93.24 *L 0.003 *D DFFRHQX1
*I *721:CK I *C 22.77 57.96 *L 0.003 *D DFFRHQX1
*I *720:CK I *C 39.93 113.4 *L 0.003 *D DFFRHQX1
*I *719:CK I *C 23.43 78.12 *L 0.003 *D DFFRHQX1
*I *718:CK I *C 23.43 88.2 *L 0.003 *D DFFRHQX1
*I *717:CK I *C 23.43 27.72 *L 0.003 *D DFFRHQX1
*I *716:CK I *C 39.93 98.28 *L 0.003 *D DFFRHQX1
*I *715:CK I *C 38.61 73.08 *L 0.003 *D DFFRHQX1
*I *714:CK I *C 22.77 52.92 *L 0.003 *D DFFRHQX1
*I *713:CK I *C 38.61 83.16 *L 0.003 *D DFFRHQX1
*I *712:CK I *C 40.59 52.92 *L 0.003 *D DFFRHQX1
*I *707:CK I *C 43.89 32.76 *L 0.003 *D DFFRHQX1
*I *706:CK I *C 54.45 103.32 *L 0.003 *D DFFRHQX1
*I *705:CK I *C 39.27 68.04 *L 0.003 *D DFFRHQX1
*I *704:CK I *C 39.93 93.24 *L 0.003 *D DFFRHQX1
*I *703:CK I *C 40.59 63 *L 0.003 *D DFFRHQX1
*I *702:CK I *C 39.27 108.36 *L 0.003 *D DFFRHQX1
*I *701:CK I *C 23.43 108.36 *L 0.003 *D DFFRHQX1
*I *700:CK I *C 39.27 88.2 *L 0.003 *D DFFRHQX1
*I *699:CK I *C 39.27 103.32 *L 0.003 *D DFFRHQX1
*I *698:CK I *C 39.27 37.8 *L 0.003 *D DFFRHQX1
*I *697:CK I *C 54.45 108.36 *L 0.003 *D DFFRHQX1
*I *646:CK I *C 53.13 37.8 *L 0.003 *D DFFRHQX1
*I *644:CK I *C 130.35 63 *L 0.003 *D DFFRHQX1
*I *643:CK I *C 53.13 73.08 *L 0.003 *D DFFRHQX1
*I *642:CK I *C 130.35 78.12 *L 0.003 *D DFFRHQX1
*I *641:CK I *C 130.35 108.36 *L 0.003 *D DFFRHQX1
*I *640:CK I *C 97.35 118.44 *L 0.003 *D DFFRHQX1
*I *639:CK I *C 130.35 93.24 *L 0.003 *D DFFRHQX1
*I *637:CK I *C 66.33 113.4 *L 0.003 *D DFFRHQX1
*I *636:CK I *C 113.19 118.44 *L 0.003 *D DFFRHQX1
*I *635:CK I *C 82.83 118.44 *L 0.003 *D DFFRHQX1
*I *634:CK I *C 82.83 103.32 *L 0.003 *D DFFRHQX1
*I *633:CK I *C 54.45 88.2 *L 0.003 *D DFFRHQX1
*I *632:CK I *C 39.27 42.84 *L 0.003 *D DFFRHQX1
*I *631:CK I *C 68.31 27.72 *L 0.003 *D DFFRHQX1
*I *630:CK I *C 127.71 118.44 *L 0.003 *D DFFRHQX1
*I *629:CK I *C 130.35 83.16 *L 0.003 *D DFFRHQX1
*I *570:CK I *C 115.17 27.72 *L 0.003 *D DFFRHQX1
*I *558:CK I *C 96.03 37.24 *L 0.00273 *D DFFRX1
*I *546:CK I *C 130.35 32.76 *L 0.003 *D DFFRHQX1
*I *530:CK I *C 115.17 32.76 *L 0.003 *D DFFRHQX1
*I *514:CK I *C 77.55 37.8 *L 0.003 *D DFFRHQX1
*I *496:CK I *C 130.35 27.72 *L 0.003 *D DFFRHQX1
*I *483:CK I *C 130.35 47.88 *L 0.003 *D DFFRHQX1
*I *479:CK I *C 107.91 83.16 *L 0.003 *D DFFRHQX1
*I *478:CK I *C 53.13 77.56 *L 0.00273 *D DFFRX1
*I *473:CK I *C 67.65 43.4 *L 0.00273 *D DFFRX1
*I *472:CK I *C 114.51 37.24 *L 0.00273 *D DFFRX1
*I *467:CK I *C 24.09 42.84 *L 0.003 *D DFFRHQX1
*I *466:CK I *C 130.35 52.92 *L 0.003 *D DFFRHQX1
*I *465:CK I *C 68.31 32.76 *L 0.003 *D DFFRHQX1
*I *464:CK I *C 129.69 88.2 *L 0.003 *D DFFRHQX1
*I *463:CK I *C 82.17 93.24 *L 0.003 *D DFFRHQX1
*I *462:CK I *C 84.15 108.36 *L 0.003 *D DFFRHQX1
*I *461:CK I *C 111.21 108.36 *L 0.003 *D DFFRHQX1
*I *460:CK I *C 130.35 98.28 *L 0.003 *D DFFRHQX1
*I *455:CK I *C 51.81 57.96 *L 0.003 *D DFFRHQX1
*I *454:CK I *C 115.17 78.12 *L 0.003 *D DFFRHQX1
*I *453:CK I *C 53.13 42.84 *L 0.003 *D DFFRHQX1
*I *452:CK I *C 130.35 68.04 *L 0.003 *D DFFRHQX1
*I *451:CK I *C 54.45 83.16 *L 0.003 *D DFFRHQX1
*I *450:CK I *C 97.35 103.32 *L 0.003 *D DFFRHQX1
*I *449:CK I *C 111.21 103.32 *L 0.003 *D DFFRHQX1
*I *448:CK I *C 68.31 103.32 *L 0.003 *D DFFRHQX1
*I *447:CK I *C 115.17 47.32 *L 0.00273 *D DFFRX1
*I *446:CK I *C 67.65 47.32 *L 0.00273 *D DFFRX1
*I *445:CK I *C 68.31 87.64 *L 0.00273 *D DFFRX1
*I *444:CK I *C 107.25 87.64 *L 0.00273 *D DFFRX1

*CAP
1 *732:CK 0.000139844
2 *442:Y 0.000139844
3 *731:CK 6.33152e-05
4 *730:CK 0.000139844
5 *729:CK 0.000139844
6 *728:CK 6.33152e-05
7 *727:CK 6.33152e-05
8 *726:CK 0.000139844
9 *725:CK 0.000139844
10 *724:CK 0.000139844
11 *723:CK 0.000139844
12 *722:CK 0.000139844
13 *721:CK 0.000139844
14 *720:CK 0.000139844
15 *719:CK 0.000139844
16 *718:CK 0.000139844
17 *717:CK 0.000139844
18 *716:CK 0.000139844
19 *715:CK 0.000139844
20 *714:CK 0.000139844
21 *713:CK 6.33152e-05
22 *712:CK 0.000139844
23 *707:CK 0.000139844
24 *706:CK 0.000139844
25 *705:CK 0.000139844
26 *704:CK 0.000139844
27 *703:CK 0.000139844
28 *702:CK 6.33152e-05
29 *701:CK 0.000139844
30 *700:CK 0.000139844
31 *699:CK 0.000139844
32 *698:CK 0.000139844
33 *697:CK 6.33152e-05
34 *646:CK 0.000139844
35 *644:CK 0.000139844
36 *643:CK 0.000139844
37 *642:CK 0.000139844
38 *641:CK 0.000139844
39 *640:CK 0.000139844
40 *639:CK 0.000139844
41 *637:CK 0.000139844
42 *636:CK 0.000139844
43 *635:CK 0.000139844
44 *634:CK 6.33152e-05
45 *633:CK 6.33152e-05
46 *632:CK 0.000139844
47 *631:CK 0.000139844
48 *630:CK 0.000139844
49 *629:CK 0.000139844
50 *570:CK 0.000139844
51 *558:CK 6.33152e-05
52 *546:CK 0.000139844
53 *530:CK 0.000139844
54 *514:CK 0.000139844
55 *496:CK 0.000139844
56 *483:CK 0.000139844
57 *479:CK 0.000139844
58 *478:CK 6.33152e-05
59 *473:CK 6.33152e-05
60 *472:CK 6.33152e-05
61 *467:CK 0.000139844
62 *466:CK 0.000139844
63 *465:CK 0.000139844
64 *464:CK 0.000139844
65 *463:CK 0.000139844
66 *462:CK 0.000139844
67 *461:CK 0.000139844
68 *460:CK 0.000139844
69 *455:CK 0.000139844
70 *454:CK 0.000139844
71 *453:CK 0.000139844
72 *452:CK 6.33152e-05
73 *451:CK 0.000139844
74 *450:CK 0.000139844
75 *449:CK 6.33152e-05
76 *448:CK 0.000139844
77 *447:CK 6.33152e-05
78 *446:CK 6.33152e-05
79 *445:CK 6.33152e-05
80 *444:CK 6.33152e-05
81 *53:80 0.000327631
82 *53:81 0.000619082
83 *53:82 0.000588634
84 *53:83 0.00056336
85 *53:84 0.000376094
86 *53:85 0.000306414
87 *53:86 0.000164597
88 *53:87 0.000164597
89 *53:88 0.000328897
90 *53:89 0.000398577
91 *53:90 0.0002597
92 *53:91 0.00032938
93 *53:92 0.000322792
94 *53:93 0.000392472
95 *53:94 0.000257281
96 *53:95 0.000326961
97 *53:96 0.000791607
98 *53:97 0.000370288
99 *53:98 0.000356032
100 *53:99 0.000301166
101 *53:100 0.000366975
102 *53:101 0.000366975
103 *53:102 0.000671379
104 *53:103 0.000671379
105 *53:104 0.000328078
106 *53:105 0.000328078
107 *53:106 0.000132809
108 *53:107 0.000132809
109 *53:108 0.000314417
110 *53:109 0.000384097
111 *53:110 0.000928883
112 *53:111 0.000998564
113 *53:112 0.00121628
114 *53:113 0.00243936563
115 *53:114 0.000392584
116 *53:115 0.000392584
117 *53:116 0.000454001
118 *53:117 0.000713589
119 *53:118 0.00134536
120 *53:119 0.00161013
121 *53:120 0.0016976
122 *53:121 0.000126333
123 *53:122 5.66524e-05
124 *53:123 5.60196e-05
125 *53:124 0.00051311
126 *53:125 0.000521783
127 *53:126 0.000264092
128 *53:127 0.000325063
129 *53:128 6.91963e-05
130 *53:129 6.91963e-05
131 *53:130 0.00096618
132 *53:131 0.00103586
133 *53:132 0.000368687
134 *53:133 0.000368687
135 *53:134 0.000115017
136 *53:135 0.000115017
137 *53:136 0.000124509
138 *53:137 5.48285e-05
139 *53:138 0.000100686
140 *53:139 0.000100686
141 *53:140 0.000133144
142 *53:141 0.000202824
143 *53:142 0.000103888
144 *53:143 0.000103888
145 *53:144 6.89358e-05
146 *53:145 0.000376504
147 *53:146 0.000358488
148 *53:147 0.000641899
149 *53:148 0.000330609
150 *53:149 6.48413e-05
151 *53:150 6.48413e-05
152 *53:151 0.000828197
153 *53:152 0.000828197
154 *53:153 0.000326142
155 *53:154 0.000326142
156 *53:155 0.000130799
157 *53:156 0.000107163
158 *53:157 0.00114649
159 *53:158 0.00113781
160 *53:159 0.000930186
161 *53:160 0.000944256
162 *53:161 9.71131e-05
163 *53:162 0.000182985
164 *53:163 0.000145688
165 *53:164 0.000279726
166 *53:165 0.000539352
167 *53:166 0.000533545
168 *53:167 0.000592505
169 *53:168 0.000582753
170 *53:169 6.9308e-05
171 *53:170 0.000348364
172 *53:171 0.000348364
173 *53:172 0.000115203
174 *53:173 0.000782786
175 *53:174 0.00141851
176 *53:175 0.00061804
177 *53:176 0.00125622
178 *53:177 0.000815392
179 *53:178 0.000478716
180 *53:179 0.000781743
181 *53:180 8.24475e-05
182 *53:181 0.000125439
183 *53:182 0.000134112
184 *53:183 0.000549476
185 *53:184 0.00014178
186 *53:185 0.00014178
187 *53:186 0.0007038
188 *53:187 0.0007038
189 *53:188 0.000182352
190 *53:189 0.000182352
191 *53:190 0.000323015
192 *53:191 0.000323015
193 *53:192 0.000501161
194 *53:193 0.00110089
195 *53:194 0.00109236
196 *53:195 0.00119774
197 *53:196 0.00146436
198 *53:197 0.0008713
199 *53:198 0.00029696
200 *53:199 0.000766333
201 *53:200 0.000357967
202 *53:201 0.000288287
203 *53:202 0.000704321
204 *53:203 0.000634641
205 *53:204 0.000563844
206 *53:205 0.000855295
207 *53:206 0.000272691
208 *53:207 0.00142718
209 *53:208 0.00090279
210 *53:209 0.000394259
211 *53:210 0.0001206
212 *53:211 0.000161396
213 *53:212 0.000161396
214 *53:213 0.0001206
215 *53:214 0.000161396
216 *53:215 0.0001206
217 *53:216 0.0001206
218 *53:217 0.000205802
219 *53:218 0.0001206
220 *53:219 0.00041354
221 *53:220 0.000589937
222 *53:221 0.000161396
223 *53:222 0.000531088
224 *53:223 0.000591128
225 *53:224 0.000161396
226 *53:225 0.000853024
227 *53:226 0.000161396
228 *53:227 0.000850642
229 *53:228 0.00084826
230 *53:229 0.000136122
231 *53:230 0.000614206
232 *53:231 0.0001206
233 *53:232 0.0001206
234 *53:233 0.0001206
235 *53:234 0.000129124
236 *53:235 0.000298188
237 *53:236 0.0001206
238 *53:237 0.000500082
239 *53:238 0.0001206
240 *53:239 0.0001206
241 *53:240 0.000844426
242 *53:241 0.00115974
243 *53:242 0.000874241
244 *53:243 0.0001206
245 *53:244 0.0001206
246 *53:245 0.000558968
247 *53:246 0.000867169
248 *53:247 0.000633077
249 *53:248 0.0001206
250 *53:249 0.000131693
251 *53:250 0.000951738
252 *53:251 0.0001206
253 *53:252 0.0001206
254 *53:253 0.00122569
255 *53:254 5.09202e-05
256 *53:255 0.0001206
257 *53:256 0.000576648
258 *53:257 0.000302692
259 *53:258 0.000286165
260 *53:259 0.000131693
261 *53:260 0.000680685
262 *53:261 0.0001206
263 *53:262 0.00040792
264 *53:263 0.0001206
265 *53:264 0.0001206
266 *53:265 0.0001206
267 *53:266 0.0001206
268 *53:267 0.0001206
269 *53:268 0.0001206
270 *53:269 0.0001206
271 *53:270 0.0001206
272 *53:271 0.0001206
273 *53:272 0.0001206
274 *53:273 0.0001206
275 *53:274 0.0001206
276 *53:275 0.0001206
277 *53:276 0.0001206
278 *53:277 0.0001206
279 *53:278 0.0001206
280 *53:279 0.000182352
281 *53:280 0.0001206
282 *53:281 0.000911389
283 *53:282 0.0001206
284 *53:283 0.0001206
285 *53:284 0.000841709
286 *53:285 0.000142078
287 *53:286 0.000902902
288 *53:287 0.0001206
289 *53:288 0.0001206
290 *53:289 0.000833222
291 *53:290 0.0001206
292 *53:291 0.0001206
293 *53:292 0.0001206
294 *53:293 0.0001206
295 *53:294 0.000123653
296 *53:295 0.000123653
297 *53:296 0.0001206
298 *53:297 0.0001206
299 *53:298 0.0001206
300 *53:299 0.00143109
301 *53:300 5.94441e-05
302 *53:301 0.000867169
303 *53:302 0.0001206
304 *53:303 0.00165926
305 *53:304 0.00145733
306 *53:192 *135:12 7.037e-05
307 *53:193 *135:11 7.037e-05
308 *53:193 *135:12 0.00013282
309 *53:194 *135:11 0.00013282
310 *53:194 *135:12 8.56e-05
311 *53:195 *135:11 8.56e-05
312 *53:195 *135:12 0.00016986
313 *53:196 *135:11 0.00016986
314 *53:196 *135:12 7.9e-05
315 *53:197 *135:11 7.9e-05
316 *53:197 *135:16 4.518e-05
317 *53:198 *135:15 4.518e-05
318 *53:186 *135:5 8.282e-05
319 *53:187 *135:6 8.28200191e-05
320 *53:192 *136:14 4.011e-05
321 *53:193 *136:13 4.011e-05
322 *53:193 *136:14 0.00013625
323 *53:194 *136:13 0.00013625
324 *53:194 *136:14 9.035e-05
325 *53:195 *136:13 9.035e-05
326 *53:195 *136:14 0.00017247
327 *53:196 *136:13 0.00017247
328 *53:196 *136:14 0.00011557
329 *53:197 *136:13 0.00011557
330 *53:197 *136:14 2.999e-05
331 *53:198 *136:13 2.999e-05
332 *53:119 *136:16 1.506e-05
333 *53:199 *136:12 1.50599987e-05
334 *53:175 *131:7 7.444e-05
335 *53:176 *131:8 7.444e-05
336 *53:176 *131:7 9.262e-05
337 *53:179 *131:8 9.262e-05
338 *53:179 *131:5 1.506e-05
339 *53:180 *131:6 1.506e-05
340 *53:88 *131:3 2.216e-05
341 *53:89 *131:4 2.21599936e-05
342 *53:172 *82:12 3.678e-05
343 *53:173 *82:13 3.678e-05
344 *53:173 *82:12 1.263e-05
345 *53:174 *82:13 1.263e-05
346 *53:175 *82:17 2.527e-05
347 *53:176 *82:16 2.527e-05
348 *53:173 *82:10 0.00013998
349 *53:174 *82:11 0.00013998
350 *53:174 *82:10 0.00016496
351 *53:177 *82:11 0.00016496
352 *53:177 *82:10 6.68e-06
353 *53:175 *82:11 6.68e-06
354 *53:175 *82:10 0.00011166
355 *53:176 *82:11 0.000111660008
356 *53:157 *385:12 0.00010711
357 *53:158 *385:9 0.000107110002
358 *53:151 *360:8 0.00011333
359 *53:152 *360:7 0.00011333
360 *53:153 *360:4 7.091e-05
361 *53:154 *360:5 7.09099955e-05
362 *53:124 *368:9 7.628e-05
363 *53:125 *368:7 7.628e-05
364 *53:126 *368:9 4.634e-05
365 *53:127 *368:7 4.634e-05
366 *53:128 *368:4 1.263e-05
367 *53:129 *368:3 1.26300068e-05
368 *53:123 *74:15 7.53e-06
369 *53:112 *74:14 7.53e-06
370 *53:112 *74:15 0.00012448
371 *53:113 *74:14 0.00012448
372 *53:113 *74:12 3.012e-05
373 *53:120 *74:10 3.012e-05
374 *53:113 *74:13 8.892e-05
375 *53:120 *74:11 8.892e-05
376 *53:120 *74:12 0.00010328
377 *53:118 *74:10 0.000103280011
378 *53:183 *113:3 8.193e-05
379 *53:96 *113:4 8.193e-05
380 *53:183 *113:4 8.061e-05
381 *53:96 *113:5 8.061e-05
382 *53:96 *113:4 2.089e-05
383 *53:97 *113:5 2.08900072e-05
384 *53:83 *63:11 2.461e-05
385 *53:178 *63:10 2.461e-05
386 *53:83 *63:8 3.545e-05
387 *53:178 *63:7 3.545e-05
388 *53:178 *63:2 3.005e-05
389 *53:166 *63:3 3.00499974e-05

*RES
1 *53:285 *479:CK 3.2
2 *53:99 *53:285 0.183812
3 *53:98 *444:CK 6.40001
4 *53:99 *53:98 1.24802
5 *53:264 *724:CK 3.2
6 *53:158 *53:98 3.2
7 *53:103 *641:CK 3.2
8 *53:292 *630:CK 3.2
9 *53:265 *53:264 3.2
10 *53:287 *636:CK 3.2
11 *53:158 *53:157 5.69957
12 *53:170 *460:CK 3.2
13 *53:103 *53:102 2.80796
14 *53:189 *53:292 3.2
15 *53:190 *53:265 3.2
16 *53:288 *53:287 3.2
17 *53:293 *464:CK 3.2
18 *53:157 *53:163 0.155962
19 *53:171 *639:CK 3.2
20 *53:171 *53:170 1.40398
21 *53:188 *53:102 3.2
22 *53:189 *53:188 0.735463
23 *53:263 *720:CK 3.2
24 *53:191 *53:190 1.40398
25 *53:282 *640:CK 3.2
26 *53:289 *53:288 3.2
27 *53:153 *629:CK 3.2
28 *53:291 *454:CK 3.2
29 *53:162 *53:293 3.2
30 *53:163 *53:162 0.551544
31 *53:302 *53:171 3.2
32 *53:304 *53:188 3.2
33 *53:184 *53:263 3.2
34 *53:184 *53:191 3.2
35 *53:277 *463:CK 3.2
36 *53:283 *53:282 3.2
37 *53:100 *461:CK 3.2
38 *53:286 *53:289 4.21204
39 *53:279 *462:CK 3.2
40 *53:183 *635:CK 3.2
41 *53:104 *452:CK 6.40001
42 *53:154 *642:CK 3.2
43 *53:154 *53:153 1.40398
44 *53:152 *53:291 3.2
45 *53:162 *53:300 0.183812
46 *53:303 *53:302 3.2
47 *53:303 *53:304 7.01999998
48 *53:254 *702:CK 6.40001
49 *53:185 *53:184 0.183812
50 *53:278 *53:277 3.2
51 *53:284 *53:283 3.2
52 *53:101 *449:CK 6.40001
53 *53:101 *53:100 1.40398
54 *53:172 *53:286 3.2
55 *53:169 *634:CK 6.40001
56 *53:96 *53:279 0.367732
57 *53:96 *53:183 2.80796
58 *53:105 *644:CK 3.2
59 *53:105 *53:104 1.40398
60 *53:151 *53:154 3.2
61 *53:152 *53:151 4.22875
62 *53:301 *53:300 3.2
63 *53:301 *53:303 1.40398
64 *53:251 *699:CK 3.2
65 *53:255 *53:254 6.40001
66 *53:257 *53:185 3.2
67 *53:203 *53:278 3.2
68 *53:280 *450:CK 3.2
69 *53:281 *53:284 4.21204
70 *53:173 *53:101 3.2
71 *53:173 *53:172 0.551544
72 *53:169 *53:97 0.155962
73 *53:97 *53:96 1.24802
74 *53:296 *466:CK 3.2
75 *53:298 *53:105 3.2
76 *53:299 *53:151 3.2
77 *53:299 *53:301 2.80796
78 *53:252 *53:251 3.2
79 *53:256 *53:255 3.2
80 *53:256 *53:257 1.40398
81 *53:203 *53:202 2.80796
82 *53:174 *53:280 3.2
83 *53:174 *53:281 3.2
84 *53:174 *53:173 3.86102
85 *53:181 *53:97 3.2
86 *53:297 *53:296 3.2
87 *53:207 *53:298 3.2
88 *53:207 *53:299 4.21204
89 *53:253 *53:252 3.2
90 *53:253 *53:256 1.40398
91 *53:84 *716:CK 3.2
92 *53:177 *53:202 3.2
93 *53:177 *53:174 4.22875
94 *53:182 *53:181 0.367732
95 *53:115 *496:CK 3.2
96 *53:295 *483:CK 3.2
97 *53:208 *53:297 3.2
98 *53:208 *53:207 2.80796
99 *53:248 *700:CK 3.2
100 *53:250 *53:253 4.21204
101 *53:85 *704:CK 3.2
102 *53:85 *53:84 1.40398
103 *53:88 *697:CK 6.40001
104 *53:275 *448:CK 3.2
105 *53:175 *53:177 0.183812
106 *53:175 *53:182 0.155962
107 *53:272 *637:CK 3.2
108 *53:109 *570:CK 3.2
109 *53:114 *546:CK 3.2
110 *53:115 *53:114 1.40398
111 *53:294 *53:295 0.155962
112 *53:209 *53:208 1.56005
113 *53:249 *53:248 3.2
114 *53:249 *53:250 3.2
115 *53:261 *53:85 3.2
116 *53:146 *451:CK 3.2
117 *53:144 *633:CK 6.40001
118 *53:274 *445:CK 6.40001
119 *53:89 *706:CK 3.2
120 *53:89 *53:88 1.40398
121 *53:176 *53:275 3.2
122 *53:176 *53:175 3.6771
123 *53:186 *53:272 3.2
124 *53:108 *530:CK 3.2
125 *53:109 *53:108 1.40398
126 *53:110 *53:114 3.2
127 *53:290 *447:CK 6.40001
128 *53:130 *53:294 3.2
129 *53:130 *53:209 3.2
130 *53:249 *53:259 0.183812
131 *53:262 *53:261 3.2
132 *53:80 *731:CK 6.40001
133 *53:94 *446:CK 6.40001
134 *53:146 *53:145 1.24802
135 *53:145 *53:144 0.155962
136 *53:159 *53:274 3.2
137 *53:179 *53:89 3.2
138 *53:179 *53:176 3.86102
139 *53:187 *53:186 3.6771
140 *53:111 *53:108 3.2
141 *53:111 *53:110 4.22875
142 *53:131 *53:290 3.2
143 *53:131 *53:130 4.22875
144 *53:260 *53:259 3.2
145 *53:260 *53:262 1.40398
146 *53:81 *723:CK 3.2
147 *53:81 *53:80 1.40398
148 *53:95 *473:CK 6.40001
149 *53:95 *53:94 1.09195
150 *53:91 *643:CK 3.2
151 *53:160 *53:145 3.2
152 *53:160 *53:159 3.86102
153 *53:180 *53:179 0.367732
154 *53:192 *53:187 3.2
155 *53:206 *53:111 3.2
156 *53:204 *53:131 3.2
157 *53:233 *713:CK 6.40001
158 *53:258 *53:260 1.40398
159 *53:82 *701:CK 3.2
160 *53:82 *53:81 1.40398
161 *53:124 *53:95 3.2
162 *53:268 *455:CK 3.2
163 *53:90 *478:CK 6.40001
164 *53:91 *53:90 1.24802
165 *53:161 *53:160 0.367732
166 *53:193 *53:180 3.2
167 *53:193 *53:192 2.80796
168 *53:93 *631:CK 3.2
169 *53:137 *472:CK 6.40001
170 *53:206 *53:205 1.40398
171 *53:205 *53:204 2.652
172 *53:232 *715:CK 3.2
173 *53:234 *53:233 3.2
174 *53:155 *53:258 3.2
175 *53:83 *729:CK 3.2
176 *53:83 *53:82 1.40398
177 *53:125 *53:124 2.75783
178 *53:139 *53:268 3.2
179 *53:271 *53:90 3.2
180 *53:194 *53:161 3.2
181 *53:194 *53:193 4.368
182 *53:92 *465:CK 3.2
183 *53:93 *53:92 1.40398
184 *53:122 *558:CK 6.40001
185 *53:137 *53:136 0.155962
186 *53:123 *53:205 3.2
187 *53:150 *53:232 3.2
188 *53:234 *53:156 0.183812
189 *53:156 *53:155 0.183812
190 *53:178 *726:CK 3.2
191 *53:178 *53:83 1.40398
192 *53:270 *453:CK 3.2
193 *53:126 *53:125 0.155962
194 *53:139 *53:138 0.367732
195 *53:195 *53:271 3.2
196 *53:195 *53:194 2.80796
197 *53:273 *53:92 3.2
198 *53:122 *53:121 0.155962
199 *53:112 *53:136 3.2
200 *53:112 *53:123 0.183812
201 *53:267 *703:CK 3.2
202 *53:243 *705:CK 3.2
203 *53:150 *53:149 0.183812
204 *53:247 *53:156 3.2
205 *53:166 *722:CK 3.2
206 *53:166 *53:178 1.40398
207 *53:127 *53:270 3.2
208 *53:127 *53:126 1.28701
209 *53:196 *53:138 3.2
210 *53:196 *53:195 5.45995
211 *53:201 *53:273 3.2
212 *53:276 *514:CK 3.2
213 *53:113 *53:121 3.2
214 *53:113 *53:112 5.14803
215 *53:266 *712:CK 3.2
216 *53:142 *53:267 3.2
217 *53:244 *53:243 3.2
218 *53:246 *53:149 3.2
219 *53:246 *53:247 2.80796
220 *53:167 *718:CK 3.2
221 *53:167 *53:166 1.40398
222 *53:197 *53:127 3.2
223 *53:197 *53:196 4.21204
224 *53:201 *53:200 1.40398
225 *53:120 *53:276 3.2
226 *53:120 *53:113 5.14803
227 *53:134 *53:266 3.2
228 *53:143 *53:142 0.367732
229 *53:245 *53:244 3.2
230 *53:245 *53:246 1.40398
231 *53:168 *725:CK 3.2
232 *53:168 *53:167 1.40398
233 *53:269 *646:CK 3.2
234 *53:198 *53:197 1.40398
235 *53:118 *53:200 3.2
236 *53:118 *53:120 2.57401
237 *53:238 *632:CK 3.2
238 *53:135 *53:134 0.367732
239 *53:242 *53:143 3.2
240 *53:242 *53:245 1.40398
241 *53:147 *719:CK 3.2
242 *53:147 *53:168 1.40398
243 *53:236 *698:CK 3.2
244 *53:119 *53:269 3.2
245 *53:119 *53:198 3.2
246 *53:119 *53:118 4.22875
247 *53:239 *53:238 3.2
248 *53:241 *53:135 3.2
249 *53:241 *53:242 2.80796
250 *53:148 *727:CK 6.40001
251 *53:148 *53:147 1.40398
252 *53:199 *53:236 3.2
253 *53:199 *53:119 3.86102
254 *53:240 *53:239 3.2
255 *53:240 *53:241 2.80796
256 *53:87 *707:CK 3.2
257 *53:216 *728:CK 6.40001
258 *53:217 *53:148 3.2
259 *53:237 *53:199 3.2
260 *53:237 *53:240 1.40398
261 *53:87 *53:86 0.312031
262 *53:132 *714:CK 3.2
263 *53:213 *721:CK 3.2
264 *53:141 *53:216 3.2
265 *53:217 *53:229 0.551544
266 *53:215 *717:CK 3.2
267 *53:235 *53:237 1.09195
268 *53:164 *53:86 3.2
269 *53:133 *732:CK 3.2
270 *53:133 *53:132 1.40398
271 *53:214 *53:213 3.2
272 *53:141 *53:140 0.551544
273 *53:230 *53:229 3.2
274 *53:107 *53:215 3.2
275 *53:116 *53:235 3.2
276 *53:116 *53:164 1.28701
277 *53:231 *442:Y 3.2
278 *53:218 *467:CK 3.2
279 *53:212 *53:133 3.2
280 *53:214 *53:226 0.735463
281 *53:228 *53:140 3.2
282 *53:228 *53:230 2.80796
283 *53:107 *53:106 0.551544
284 *53:117 *53:116 1.10319
285 *53:117 *53:231 3.2
286 *53:129 *53:218 3.2
287 *53:212 *53:224 0.735463
288 *53:227 *53:226 3.2
289 *53:227 *53:228 1.40398
290 *53:219 *53:106 3.2
291 *53:165 *53:117 2.75783
292 *53:129 *53:128 0.367732
293 *53:225 *53:224 3.2
294 *53:225 *53:227 2.80796
295 *53:219 *53:220 1.71601
296 *53:220 *53:165 3.2
297 *53:223 *53:128 3.2
298 *53:223 *53:225 1.40398
299 *53:220 *53:222 1.09195
300 *53:222 *53:223 1.40398
301 *53:221 *53:222 3.2
302 *53:211 *53:221 0.735463
303 *53:210 *53:211 3.2
304 *730:CK *53:210 3.2
*END

*D_NET *54 0.0793924

*CONN
*I *728:RN I *C 34.65 62.44 *L 0.004 *D DFFRHQX1
*I *727:RN I *C 34.65 72.52 *L 0.004 *D DFFRHQX1
*I *719:RN I *C 34.65 78.68 *L 0.004 *D DFFRHQX1
*I *725:RN I *C 34.65 82.6 *L 0.004 *D DFFRHQX1
*I *722:RN I *C 34.65 92.68 *L 0.004 *D DFFRHQX1
*I *718:RN I *C 34.65 88.76 *L 0.004 *D DFFRHQX1
*I *726:RN I *C 34.65 98.84 *L 0.004 *D DFFRHQX1
*I *729:RN I *C 34.65 102.76 *L 0.004 *D DFFRHQX1
*I *701:RN I *C 34.65 108.92 *L 0.004 *D DFFRHQX1
*I *699:RN I *C 50.49 102.76 *L 0.004 *D DFFRHQX1
*I *731:RN I *C 34.65 119 *L 0.004 *D DFFRHQX1
*I *723:RN I *C 34.65 112.84 *L 0.004 *D DFFRHQX1
*I *702:RN I *C 50.49 108.92 *L 0.004 *D DFFRHQX1
*I *724:RN I *C 51.15 119 *L 0.004 *D DFFRHQX1
*I *720:RN I *C 51.15 112.84 *L 0.004 *D DFFRHQX1
*I *697:RN I *C 65.67 108.92 *L 0.004 *D DFFRHQX1
*I *637:RN I *C 77.55 112.84 *L 0.004 *D DFFRHQX1
*I *706:RN I *C 65.67 102.76 *L 0.004 *D DFFRHQX1
*I *448:RN I *C 79.53 102.76 *L 0.004 *D DFFRHQX1
*I *463:RN I *C 93.39 92.68 *L 0.004 *D DFFRHQX1
*I *634:RN I *C 94.05 102.76 *L 0.004 *D DFFRHQX1
*I *450:RN I *C 108.57 102.76 *L 0.004 *D DFFRHQX1
*I *462:RN I *C 95.37 108.92 *L 0.004 *D DFFRHQX1
*I *635:RN I *C 94.05 119 *L 0.004 *D DFFRHQX1
*I *444:RN I *C 110.55 88.76 *L 0.00239 *D DFFRX1
*I *640:RN I *C 108.57 119 *L 0.004 *D DFFRHQX1
*I *449:RN I *C 122.43 102.76 *L 0.004 *D DFFRHQX1
*I *461:RN I *C 122.43 108.92 *L 0.004 *D DFFRHQX1
*I *464:RN I *C 140.91 88.76 *L 0.004 *D DFFRHQX1
*I *636:RN I *C 124.41 119 *L 0.004 *D DFFRHQX1
*I *639:RN I *C 141.57 92.68 *L 0.004 *D DFFRHQX1
*I *630:RN I *C 138.93 119 *L 0.004 *D DFFRHQX1
*I *629:RN I *C 141.57 82.6 *L 0.004 *D DFFRHQX1
*I *479:RN I *C 119.13 82.6 *L 0.004 *D DFFRHQX1
*I *642:RN I *C 141.57 78.68 *L 0.004 *D DFFRHQX1
*I *460:RN I *C 141.57 98.84 *L 0.004 *D DFFRHQX1
*I *641:RN I *C 141.57 108.92 *L 0.004 *D DFFRHQX1
*I *454:RN I *C 126.39 78.68 *L 0.004 *D DFFRHQX1
*I *452:RN I *C 141.57 68.6 *L 0.004 *D DFFRHQX1
*I *644:RN I *C 141.57 62.44 *L 0.004 *D DFFRHQX1
*I *466:RN I *C 141.57 52.36 *L 0.004 *D DFFRHQX1
*I *483:RN I *C 141.57 48.44 *L 0.004 *D DFFRHQX1
*I *546:RN I *C 141.57 32.2 *L 0.004 *D DFFRHQX1
*I *496:RN I *C 141.57 28.28 *L 0.004 *D DFFRHQX1
*I *570:RN I *C 126.39 28.28 *L 0.004 *D DFFRHQX1
*I *530:RN I *C 126.39 32.2 *L 0.004 *D DFFRHQX1
*I *447:RN I *C 118.47 48.44 *L 0.00239 *D DFFRX1
*I *472:RN I *C 117.81 38.36 *L 0.00239 *D DFFRX1
*I *514:RN I *C 88.77 38.36 *L 0.004 *D DFFRHQX1
*I *558:RN I *C 99.33 38.36 *L 0.00239 *D DFFRX1
*I *443:Y O *C 37.95 57.4 *L 0 *D CLKBUFX3

*CAP
1 *728:RN 0.000139853
2 *727:RN 0.000139853
3 *719:RN 6.32954e-05
4 *725:RN 0.000139853
5 *722:RN 0.000139853
6 *718:RN 0.000139853
7 *726:RN 0.000139853
8 *729:RN 0.000139853
9 *701:RN 0.000139853
10 *699:RN 0.000139853
11 *731:RN 0.000139853
12 *723:RN 0.000139853
13 *702:RN 0.000139853
14 *724:RN 0.000139853
15 *720:RN 0.000139853
16 *697:RN 0.000139853
17 *637:RN 0.000139853
18 *706:RN 0.000139853
19 *448:RN 0.000139853
20 *463:RN 0.000139853
21 *634:RN 0.000139853
22 *450:RN 0.000139853
23 *462:RN 6.32954e-05
24 *635:RN 0.000139853
25 *444:RN 6.32954e-05
26 *640:RN 0.000139853
27 *449:RN 0.000139853
28 *461:RN 0.000139853
29 *464:RN 0.000139853
30 *636:RN 0.000139853
31 *639:RN 6.32954e-05
32 *630:RN 0.000139853
33 *629:RN 0.000139853
34 *479:RN 0.000139853
35 *642:RN 0.000139853
36 *460:RN 0.000139853
37 *641:RN 0.000139853
38 *454:RN 0.000139853
39 *452:RN 0.000139853
40 *644:RN 0.000139853
41 *466:RN 0.000139853
42 *483:RN 0.000139853
43 *546:RN 0.000139853
44 *496:RN 0.000139853
45 *570:RN 0.000139853
46 *530:RN 0.000139853
47 *447:RN 6.32954e-05
48 *472:RN 6.32954e-05
49 *514:RN 0.000139853
50 *558:RN 6.32954e-05
51 *443:Y 3.72961e-05
52 *54:51 0.000234575
53 *54:52 0.000234575
54 *54:53 0.000129249
55 *54:54 0.000285687
56 *54:55 0.000207551
57 *54:56 0.000386196
58 *54:57 0.000545403
59 *54:58 0.000536958
60 *54:59 0.000536958
61 *54:60 0.000536958
62 *54:61 0.000536958
63 *54:62 0.000518407
64 *54:63 0.000506141
65 *54:64 0.000434706
66 *54:65 0.000521591
67 *54:66 0.000228124
68 *54:67 0.000564342
69 *54:68 0.000397133
70 *54:69 0.000418646
71 *54:70 0.000571486
72 *54:71 0.000405716
73 *54:72 0.000303713
74 *54:73 0.000373376
75 *54:74 0.000371881
76 *54:75 0.000551772
77 *54:76 0.000446944
78 *54:77 0.000224746
79 *54:78 0.000224746
80 *54:79 0.000329324
81 *54:80 0.000274446
82 *54:81 0.00030183
83 *54:82 0.000227154
84 *54:83 0.000765802
85 *54:84 0.000378914
86 *54:85 0.000256089
87 *54:86 0.00034339
88 *54:87 0.000352112
89 *54:88 0.00043058
90 *54:89 0.00043058
91 *54:90 0.000168981
92 *54:91 0.000160287
93 *54:92 0.000554457
94 *54:93 0.000265973
95 *54:94 0.00026985
96 *54:95 0.00026985
97 *54:96 0.000899508
98 *54:97 0.000899508
99 *54:98 0.00181455
100 *54:99 0.00181455
101 *54:100 0.000100564
102 *54:101 0.000362356
103 *54:102 0.000327497
104 *54:103 0.000519902
105 *54:104 0.000519902
106 *54:105 0.000328853
107 *54:106 0.000288595
108 *54:107 0.000483797
109 *54:108 0.000558804
110 *54:109 0.000285881
111 *54:110 0.000285798
112 *54:111 0.000456026
113 *54:112 0.000233883
114 *54:113 0.000302411
115 *54:114 0.000247533
116 *54:115 0.00045921
117 *54:116 0.000474023
118 *54:117 0.000346491
119 *54:118 0.000386777
120 *54:119 0.000267358
121 *54:120 0.000401923
122 *54:121 5.51273e-05
123 *54:122 0.000124791
124 *54:123 0.000551689
125 *54:124 0.00056041
126 *54:125 0.000255895
127 *54:126 0.000318886
128 *54:127 0.000358784
129 *54:128 0.000419782
130 *54:129 0.000625672
131 *54:130 0.000625672
132 *54:131 0.00101098
133 *54:132 0.00016001
134 *54:133 0.000702036
135 *54:134 0.000226075
136 *54:135 0.000651256
137 *54:136 0.000706134
138 *54:137 0.00043321
139 *54:138 0.000589732
140 *54:139 0.000533553
141 *54:140 0.000573839
142 *54:141 0.00030734
143 *54:142 0.000161838
144 *54:143 0.000976039
145 *54:144 0.000883643
146 *54:145 0.000661611
147 *54:146 0.00126571
148 *54:147 0.000617504
149 *54:148 0.000124459
150 *54:149 8.42e-05
151 *54:150 0.00071444
152 *54:151 0.00078056
153 *54:152 0.000192987
154 *54:153 0.000409177
155 *54:154 0.000409177
156 *54:155 0.000669253
157 *54:156 0.000333588
158 *54:157 0.000523474
159 *54:158 0.000397769
160 *54:159 0.000397769
161 *54:160 0.000668616
162 *54:161 0.00011809
163 *54:162 0.000322181
164 *54:163 0.000429389
165 *54:164 0.000429389
166 *54:165 0.000184127
167 *54:166 0.000129249
168 *54:167 0.000221423
169 *54:168 0.000151759
170 *54:169 0.00027583
171 *54:170 0.000619386
172 *54:171 0.000383815
173 *54:172 0.000593332
174 *54:173 0.000687444
175 *54:174 0.000114491
176 *54:175 0.00017762
177 *54:176 0.00017762
178 *54:177 0.00026099
179 *54:178 0.00026099
180 *54:179 0.000111888
181 *54:180 0.000120582
182 *54:181 9.17866e-05
183 *54:182 0.000557558
184 *54:183 0.000479505
185 *54:184 0.00034386
186 *54:185 0.00034386
187 *54:186 8.99315e-05
188 *54:187 0.000168012
189 *54:188 7.07158e-05
190 *54:189 0.000105991
191 *54:190 0.000960866
192 *54:191 0.000344193
193 *54:192 0.000142096
194 *54:193 0.000308669
195 *54:194 0.000406796
196 *54:195 0.000105991
197 *54:196 0.000222614
198 *54:197 0.000354216
199 *54:198 0.000147828
200 *54:199 0.000256587
201 *54:200 0.000102308
202 *54:201 0.000102308
203 *54:202 0.00030734
204 *54:203 0.000166102
205 *54:204 0.000365263
206 *54:205 0.000365263
207 *54:206 0.000166102
208 *54:207 0.00012947
209 *54:208 0.000483022
210 *54:209 0.000349592
211 *54:210 0.00012061
212 *54:211 0.00055922
213 *54:212 0.000305125
214 *54:213 0.000628883
215 *54:214 0.000336745
216 *54:215 9.73242e-05
217 *54:216 6.57319e-05
218 *54:217 0.000142096
219 *54:218 0.000182355
220 *54:150 *122:16 6.364e-05
221 *54:151 *122:14 6.364e-05
222 *54:151 *122:16 0.00022272
223 *54:152 *122:14 0.000222719998
224 *54:150 *132:9 0.00028393
225 *54:151 *132:10 0.00028393
226 *54:150 *132:17 2.527e-05
227 *54:151 *132:16 2.527e-05
228 *54:151 *132:16 3.753e-05
229 *54:152 *132:14 3.753e-05
230 *54:153 *132:7 3.769e-05
231 *54:154 *132:8 3.76899733e-05
232 *54:158 *136:8 6.517e-05
233 *54:159 *136:9 6.517e-05
234 *54:174 *136:8 3.712e-05
235 *54:143 *136:9 3.712e-05
236 *54:157 *136:5 0.00010413
237 *54:155 *136:6 0.00010413
238 *54:155 *136:5 4.14e-05
239 *54:156 *136:6 4.14e-05
240 *54:156 *136:5 1.779e-05
241 *54:150 *136:6 1.779e-05
242 *54:150 *136:5 1.506e-05
243 *54:151 *136:6 1.506e-05
244 *54:151 *136:18 7.53e-06
245 *54:152 *136:17 7.53e-06
246 *54:151 *136:10 3.765e-05
247 *54:152 *136:11 3.765e-05
248 *54:146 *136:5 8.726e-05
249 *54:147 *136:6 8.72600013e-05
250 *54:146 *133:13 0.00015567
251 *54:147 *133:14 0.00015567
252 *54:145 *133:20 0.00010739
253 *54:146 *133:19 0.00010739
254 *54:146 *133:20 9.994e-05
255 *54:147 *133:19 9.994e-05
256 *54:146 *133:15 6.277e-05
257 *54:147 *133:16 6.277e-05
258 *54:145 *133:8 9.035e-05
259 *54:146 *133:9 9.03500064e-05
260 *54:177 *341:11 5.271e-05
261 *54:178 *341:9 5.271e-05
262 *54:179 *341:11 3.753e-05
263 *54:180 *341:9 3.753e-05
264 *54:181 *341:11 2.489e-05
265 *54:182 *341:9 2.489e-05
266 *54:182 *341:11 0.00017704
267 *54:183 *341:9 0.00017704
268 *54:184 *341:9 0.00018505
269 *54:185 *341:10 0.00018505
270 *54:186 *341:9 2.216e-05
271 *54:187 *341:10 2.21600124e-05
272 *54:98 *74:12 0.00025833
273 *54:99 *74:10 0.00025833
274 *54:98 *74:13 8.892e-05
275 *54:99 *74:11 8.892e-05
276 *54:96 *74:13 0.00015641
277 *54:97 *74:11 0.000156410014
278 *54:107 *383:5 8.706e-05
279 *54:108 *383:4 8.70600021e-05
280 *54:56 *147:8 4.241e-05
281 *54:57 *147:7 4.241e-05
282 *54:57 *147:8 3.283e-05
283 *54:58 *147:7 3.283e-05
284 *54:58 *147:8 5.351e-05
285 *54:59 *147:7 5.351e-05
286 *54:59 *147:8 3.283e-05
287 *54:60 *147:7 3.283e-05
288 *54:60 *147:8 5.351e-05
289 *54:61 *147:7 5.351e-05
290 *54:61 *147:8 3.283e-05
291 *54:62 *147:7 3.283e-05
292 *54:62 *147:6 9.405e-05
293 *54:63 *147:5 9.405e-05
294 *54:63 *147:6 5.86e-05
295 *54:64 *147:5 5.86e-05
296 *54:64 *147:3 0.00016465
297 *54:65 *147:2 0.000164649985

*RES
1 *54:172 *630:RN 3.20007
2 *54:173 *54:172 2.49598
3 *54:199 *54:173 1.09197
4 *54:218 *641:RN 3.20007
5 *54:198 *54:199 0.312052
6 *54:169 *54:218 0.367709
7 *54:198 *54:170 0.367709
8 *54:170 *54:169 1.09197
9 *54:171 *54:170 1.71607
10 *54:217 *460:RN 3.20007
11 *54:216 *639:RN 6.39999
12 *54:171 *54:137 0.183854
13 *54:137 *54:217 0.183854
14 *54:138 *54:216 0.183854
15 *54:138 *54:137 1.71607
16 *54:139 *464:RN 3.20007
17 *54:139 *54:138 1.09197
18 *54:122 *454:RN 3.20007
19 *54:202 *54:139 1.40402
20 *54:122 *54:121 0.155954
21 *54:202 *54:215 0.183854
22 *54:128 *54:121 3.20007
23 *54:214 *629:RN 3.20007
24 *54:214 *54:215 0.312052
25 *54:128 *54:127 1.47083
26 *54:212 *642:RN 3.20007
27 *54:212 *54:214 1.09197
28 *54:124 *54:127 0.155954
29 *54:123 *54:212 3.20007
30 *54:124 *54:123 2.75782
31 *54:213 *54:123 3.20007
32 *54:211 *54:213 2.80804
33 *54:210 *54:211 3.20007
34 *54:209 *452:RN 3.20007
35 *54:209 *54:210 3.20007
36 *54:208 *644:RN 3.20007
37 *54:208 *54:209 1.71607
38 *54:207 *54:208 0.468006
39 *54:201 *54:207 0.183854
40 *54:200 *54:201 0.312052
41 *54:117 *54:200 0.183854
42 *54:118 *54:117 1.55997
43 *54:118 *54:206 0.367709
44 *54:205 *466:RN 3.20007
45 *54:205 *54:206 0.468006
46 *54:204 *483:RN 3.20007
47 *54:204 *54:205 1.09197
48 *54:203 *54:204 0.468006
49 *54:105 *54:203 0.367709
50 *54:106 *54:105 1.24806
51 *54:106 *54:103 0.183854
52 *54:104 *54:103 2.34003
53 *54:104 *54:100 0.183854
54 *54:101 *546:RN 3.20007
55 *54:101 *54:100 0.468006
56 *54:102 *496:RN 3.20007
57 *54:102 *54:101 1.09197
58 *54:86 *54:102 3.20007
59 *54:87 *54:86 1.65469
60 *54:87 *54:88 0.155954
61 *54:89 *54:88 1.83854
62 *54:90 *54:89 0.155954
63 *54:91 *54:90 0.735417
64 *54:93 *570:RN 3.20007
65 *54:93 *54:91 3.20007
66 *54:126 *479:RN 3.20007
67 *54:92 *530:RN 3.20007
68 *54:93 *54:92 1.09197
69 *54:126 *54:125 1.09197
70 *54:92 *54:197 1.55997
71 *54:129 *54:125 6.39999
72 *54:114 *54:197 0.183854
73 *54:130 *54:129 2.39011
74 *54:114 *54:113 1.09197
75 *54:134 *54:130 3.20007
76 *54:179 *54:113 3.20007
77 *54:133 *444:RN 6.39999
78 *54:134 *54:133 0.62396
79 *54:115 *447:RN 6.39999
80 *54:180 *54:179 0.551563
81 *54:133 *54:140 2.34003
82 *54:79 *640:RN 3.20007
83 *54:116 *54:115 1.71607
84 *54:180 *54:177 0.155954
85 *54:149 *54:140 0.183854
86 *54:80 *54:79 1.09197
87 *54:196 *636:RN 3.20007
88 *54:82 *472:RN 6.39999
89 *54:188 *54:116 0.183854
90 *54:178 *54:177 1.28698
91 *54:149 *54:148 0.312052
92 *54:80 *54:77 0.183854
93 *54:160 *54:196 0.551563
94 *54:82 *54:81 0.936012
95 *54:81 *54:188 0.155954
96 *54:181 *54:178 0.155954
97 *54:141 *54:148 0.367709
98 *54:78 *54:77 0.936012
99 *54:85 *449:RN 3.20007
100 *54:83 *461:RN 3.20007
101 *54:83 *54:160 2.80804
102 *54:182 *54:81 3.20007
103 *54:182 *54:181 0.367709
104 *54:76 *450:RN 3.20007
105 *54:141 *54:76 1.24806
106 *54:74 *54:78 0.183854
107 *54:85 *54:84 0.936012
108 *54:84 *54:83 0.780057
109 *54:165 *635:RN 3.20007
110 *54:183 *54:182 2.75782
111 *54:136 *463:RN 3.20007
112 *54:76 *54:75 0.936012
113 *54:75 *54:74 1.55997
114 *54:145 *54:84 3.20007
115 *54:166 *54:165 0.468006
116 *54:184 *54:183 0.0779771
117 *54:136 *54:135 2.80804
118 *54:146 *54:75 3.20007
119 *54:146 *54:145 3.86094
120 *54:163 *54:166 0.183854
121 *54:185 *54:184 2.0224
122 *54:167 *637:RN 3.20007
123 *54:193 *634:RN 3.20007
124 *54:135 *54:193 0.183854
125 *54:147 *54:146 4.0448
126 *54:164 *54:163 1.87202
127 *54:185 *54:186 0.0779771
128 *54:168 *54:167 0.62396
129 *54:193 *54:194 0.936012
130 *54:194 *54:147 3.20007
131 *54:164 *54:161 0.183854
132 *54:195 *462:RN 6.39999
133 *54:187 *54:186 0.367709
134 *54:176 *54:168 3.20007
135 *54:194 *54:162 0.780057
136 *54:162 *54:161 0.468006
137 *54:162 *54:195 0.367709
138 *54:72 *54:187 3.20007
139 *54:192 *448:RN 3.20007
140 *54:176 *54:175 0.367709
141 *54:157 *54:162 3.20007
142 *54:73 *558:RN 6.39999
143 *54:73 *54:72 0.936012
144 *54:71 *54:192 0.183854
145 *54:142 *54:175 3.20007
146 *54:155 *54:157 2.57396
147 *54:96 *54:73 3.20007
148 *54:154 *706:RN 3.20007
149 *54:71 *54:70 1.71607
150 *54:70 *54:142 0.468006
151 *54:156 *54:155 1.10313
152 *54:97 *54:96 2.94167
153 *54:153 *697:RN 3.20007
154 *54:154 *54:153 1.71607
155 *54:150 *54:70 3.20007
156 *54:150 *54:156 0.551563
157 *54:95 *514:RN 3.20007
158 *54:95 *54:97 3.20007
159 *54:151 *54:153 3.20007
160 *54:151 *54:150 3.67709
161 *54:95 *54:94 0.780057
162 *54:68 *724:RN 3.20007
163 *54:152 *54:151 1.65469
164 *54:98 *54:94 3.20007
165 *54:69 *720:RN 3.20007
166 *54:69 *54:68 1.71607
167 *54:152 *54:158 0.155954
168 *54:99 *54:98 9.37671471
169 *54:120 *699:RN 3.20007
170 *54:66 *54:69 0.183854
171 *54:159 *54:158 2.0224
172 *54:108 *54:99 3.20007
173 *54:67 *702:RN 3.20007
174 *54:120 *54:67 1.71607
175 *54:67 *54:66 1.09197
176 *54:174 *54:159 0.155954
177 *54:108 *54:107 2.49598
178 *54:143 *54:67 3.20007
179 *54:143 *54:174 0.551563
180 *54:56 *731:RN 3.20007
181 *54:107 *54:110 0.0919987
182 *54:144 *54:143 4.4125
183 *54:57 *723:RN 3.20007
184 *54:57 *54:56 1.71607
185 *54:110 *54:109 1.40402
186 *54:58 *701:RN 3.20007
187 *54:58 *54:144 3.20007
188 *54:58 *54:57 1.09197
189 *54:112 *54:109 0.0919987
190 *54:59 *729:RN 3.20007
191 *54:59 *54:58 1.71607
192 *54:112 *54:111 1.09197
193 *54:60 *726:RN 3.20007
194 *54:60 *54:59 1.09197
195 *54:191 *54:111 1.10313
196 *54:61 *722:RN 3.20007
197 *54:61 *54:60 1.71607
198 *54:190 *54:191 3.20007
199 *54:62 *718:RN 3.20007
200 *54:62 *54:61 1.09197
201 *443:Y *54:131 0.189864
202 *54:131 *54:190 4.47646
203 *54:63 *725:RN 3.20007
204 *54:63 *54:62 1.71607
205 *54:132 *54:131 0.671462
206 *54:64 *719:RN 6.39999
207 *54:64 *54:63 1.09197
208 *54:189 *54:132 6.39999
209 *54:65 *727:RN 3.20007
210 *54:65 *54:64 1.71607
211 *54:55 *54:189 0.367709
212 *54:119 *54:65 1.09197
213 *54:54 *728:RN 3.20007
214 *54:55 *54:54 0.936012
215 *54:51 *54:119 0.183854
216 *54:54 *54:53 0.468006
217 *54:52 *54:51 1.24806
218 *54:52 *54:53 0.183854
*END

*D_NET *55 0.0066282

*CONN
*I *442:A I *C 23.43 33.32 *L 0.0305 *D CLKBUFX20
*P *55 I *C 0 0.28 *L 0

*CAP
1 *442:A 0.000139834
2 *55 4.37471e-05
3 *55:2 0.000975101
4 *55:3 0.000975101
5 *55:4 6.92148e-05
6 *55:5 0.00184016
7 *55:6 0.00184016
8 *55:7 0.000120599
9 *55:2 *71:9 5.271e-05
10 *55:3 *71:7 5.271e-05
11 *55:2 *71:5 0.00012047
12 *55:3 *71:3 0.00012047
13 *55:2 *71:11 3.79e-05
14 *55:3 *71:8 3.79e-05
15 *55:2 *71:6 8.843e-05
16 *55:3 *71:4 8.843e-05
17 *55:2 *71:2 1.263e-05
18 *55:3 *71 1.26299919e-05

*RES
1 *55:7 *442:A 3.19997
2 *55:2 *55:7 3.19997
3 *55:3 *55:2 6.25121
4 *55:6 *55:3 3.19997
5 *55:5 *55:6 9.20400047
6 *55:4 *55:5 3.19997
7 *55 *55:4 0.236785
*END

*D_NET *56 0.0419323

*CONN
*I *443:A I *C 36.63 57.4 *L 0.00331 *D CLKBUFX3
*P *56 I *C 0 8.68 *L 0
*I *732:RN I *C 33.99 48.44 *L 0.004 *D DFFRHQX1
*I *730:RN I *C 33.99 38.36 *L 0.004 *D DFFRHQX1
*I *721:RN I *C 33.99 58.52 *L 0.004 *D DFFRHQX1
*I *717:RN I *C 34.65 28.28 *L 0.004 *D DFFRHQX1
*I *716:RN I *C 51.15 98.84 *L 0.004 *D DFFRHQX1
*I *715:RN I *C 49.83 72.52 *L 0.004 *D DFFRHQX1
*I *714:RN I *C 33.99 52.36 *L 0.004 *D DFFRHQX1
*I *713:RN I *C 49.83 82.6 *L 0.004 *D DFFRHQX1
*I *712:RN I *C 51.81 52.36 *L 0.004 *D DFFRHQX1
*I *707:RN I *C 55.11 32.2 *L 0.004 *D DFFRHQX1
*I *705:RN I *C 50.49 68.6 *L 0.004 *D DFFRHQX1
*I *704:RN I *C 51.15 92.68 *L 0.004 *D DFFRHQX1
*I *703:RN I *C 51.81 62.44 *L 0.004 *D DFFRHQX1
*I *700:RN I *C 50.49 88.76 *L 0.004 *D DFFRHQX1
*I *698:RN I *C 50.49 38.36 *L 0.004 *D DFFRHQX1
*I *646:RN I *C 64.35 38.36 *L 0.004 *D DFFRHQX1
*I *643:RN I *C 64.35 72.52 *L 0.004 *D DFFRHQX1
*I *633:RN I *C 65.67 88.76 *L 0.004 *D DFFRHQX1
*I *632:RN I *C 50.49 42.28 *L 0.004 *D DFFRHQX1
*I *631:RN I *C 79.53 28.28 *L 0.004 *D DFFRHQX1
*I *478:RN I *C 56.43 78.68 *L 0.00239 *D DFFRX1
*I *473:RN I *C 70.95 42.28 *L 0.00239 *D DFFRX1
*I *467:RN I *C 35.31 42.28 *L 0.004 *D DFFRHQX1
*I *465:RN I *C 79.53 32.2 *L 0.004 *D DFFRHQX1
*I *455:RN I *C 63.03 58.52 *L 0.004 *D DFFRHQX1
*I *453:RN I *C 64.35 42.28 *L 0.004 *D DFFRHQX1
*I *451:RN I *C 65.67 82.6 *L 0.004 *D DFFRHQX1
*I *446:RN I *C 70.95 48.44 *L 0.00239 *D DFFRX1
*I *445:RN I *C 71.61 88.76 *L 0.00239 *D DFFRX1

*CAP
1 *443:A 3.98807e-05
2 *56 0.00177951
3 *732:RN 0.00013983
4 *730:RN 0.00013983
5 *721:RN 6.32913e-05
6 *717:RN 0.00013983
7 *716:RN 6.32913e-05
8 *715:RN 0.00013983
9 *714:RN 0.00013983
10 *713:RN 6.32913e-05
11 *712:RN 0.00013983
12 *707:RN 0.00013983
13 *705:RN 6.32913e-05
14 *704:RN 6.32913e-05
15 *703:RN 0.00013983
16 *700:RN 6.32913e-05
17 *698:RN 0.00013983
18 *646:RN 0.00013983
19 *643:RN 0.00013983
20 *633:RN 6.32913e-05
21 *632:RN 0.00013983
22 *631:RN 0.00013983
23 *478:RN 6.32913e-05
24 *473:RN 6.32913e-05
25 *467:RN 0.00013983
26 *465:RN 0.00013983
27 *455:RN 0.00013983
28 *453:RN 0.00013983
29 *451:RN 0.00013983
30 *446:RN 6.32913e-05
31 *445:RN 6.32913e-05
32 *56:31 7.20497e-05
33 *56:32 0.000298279
34 *56:33 0.00132314
35 *56:34 0.000557476
36 *56:35 0.000318054
37 *56:36 0.000421639
38 *56:37 0.000529907
39 *56:38 0.00058634
40 *56:39 0.00097066
41 *56:40 0.00159776
42 *56:41 0.00052236
43 *56:42 0.000592041
44 *56:43 0.000641865
45 *56:44 0.000396631
46 *56:45 0.000294588
47 *56:46 0.000470719
48 *56:47 0.000862062
49 *56:48 0.000404729
50 *56:49 0.000594768
51 *56:50 0.000362452
52 *56:51 0.000515888
53 *56:52 0.000515888
54 *56:53 0.000287069
55 *56:54 0.000295773
56 *56:55 0.00032819
57 *56:56 0.000463228
58 *56:57 0.000374818
59 *56:58 0.000313124
60 *56:59 9.60387e-05
61 *56:60 0.00035989
62 *56:61 0.000637127
63 *56:62 0.000191003
64 *56:63 0.000109011
65 *56:64 0.000109011
66 *56:65 0.00030219
67 *56:66 0.000204031
68 *56:67 0.000447556
69 *56:68 0.000447556
70 *56:69 0.000187395
71 *56:70 0.000498178
72 *56:71 0.000361736
73 *56:72 0.000177645
74 *56:73 0.000177645
75 *56:74 0.000311114
76 *56:75 0.000380795
77 *56:76 0.000619308
78 *56:77 9.45514e-05
79 *56:78 0.000265063
80 *56:79 5.39822e-05
81 *56:80 0.0011518
82 *56:81 0.00180496
83 *56:82 0.000884481
84 *56:83 0.000182355
85 *56:84 7.51895e-05
86 *56:85 0.000222621
87 *56:86 0.000204086
88 *56:87 0.000124985
89 *56:88 0.000445904
90 *56:89 0.00113442
91 *56:90 0.000632858
92 *56:91 0.000307561
93 *56:92 6.58527e-05
94 *56:93 6.58527e-05
95 *56:94 0.00018263
96 *56:95 0.00018263
97 *56:96 0.000120606
98 *56:97 0.000649218
99 *56:98 0.000313675
100 *56:99 0.000454469
101 *56:100 0.000313675
102 *56:101 0.000399275
103 *56:102 0.000142226
104 *56:103 0.000454469
105 *56:104 0.000372284
106 *56:105 0.000372284
107 *56:106 0.000375892
108 *56:107 0.000120606
109 *56:108 0.000306211
110 *56:109 0.000320974
111 *56:110 0.000474052
112 *56:111 0.000218793
113 *56:112 0.000129475
114 *56:113 0.000184366
115 *56:114 0.000337003
116 *56:115 0.000337003
117 *56:46 *357:7 9.618e-05
118 *56:47 *357:5 9.618e-05
119 *56:47 *357:7 2.131e-05
120 *56:48 *357:5 2.13099941e-05
121 *56:105 *112:3 0.00022259
122 *56:104 *112:4 0.00022259
123 *56:69 *112:3 4.178e-05
124 *56:70 *112:4 4.17800093e-05
125 *56:55 *124:3 8.717e-05
126 *56:56 *124:4 8.717e-05
127 *56:56 *124:7 8.276e-05
128 *56:57 *124:8 8.276e-05
129 *56:57 *124:7 0.00018555
130 *56:58 *124:8 0.00018555
131 *56:58 *124:7 4.178e-05
132 *56:59 *124:8 4.178e-05
133 *56:60 *124:5 1.773e-05
134 *56:61 *124:6 1.773e-05
135 *56:62 *124:7 2.659e-05
136 *56:63 *124:8 2.659e-05
137 *56:64 *124:7 2.659e-05
138 *56:65 *124:8 2.659e-05
139 *56:65 *124:7 4.974e-05
140 *56:66 *124:8 4.974e-05
141 *56:67 *124:7 4.663e-05
142 *56:68 *124:8 4.66299868e-05

*RES
1 *56:107 *445:RN 6.39995
2 *56:108 *56:107 3.20005
3 *56:106 *56:108 1.65467
4 *56:105 *633:RN 6.39995
5 *56:105 *56:106 3.20005
6 *56:104 *451:RN 3.20005
7 *56:104 *56:105 1.71598
8 *56:72 *56:104 3.20005
9 *56:73 *56:72 0.367753
10 *56:71 *643:RN 3.20005
11 *56:69 *56:73 3.20005
12 *56:71 *56:70 1.71598
13 *56:70 *56:69 1.09196
14 *56:103 *56:70 3.20005
15 *56:99 *56:103 2.20622
16 *56:98 *478:RN 6.39995
17 *56:98 *56:99 3.20005
18 *56:98 *56:100 1.09196
19 *56:93 *716:RN 6.39995
20 *56:74 *56:100 3.20005
21 *56:92 *704:RN 6.39995
22 *56:55 *56:93 0.183803
23 *56:75 *56:74 1.65467
24 *56:56 *56:92 0.183803
25 *56:56 *56:55 1.71598
26 *56:59 *56:75 3.20005
27 *56:57 *700:RN 6.39995
28 *56:57 *56:56 1.09196
29 *56:59 *56:58 0.31201
30 *56:58 *56:57 1.40397
31 *56:87 *56:58 0.183803
32 *56:62 *713:RN 6.39995
33 *56:62 *56:87 0.31201
34 *56:63 *56:62 0.467942
35 *56:67 *56:63 0.183803
36 *56:68 *56:67 1.87206
37 *56:68 *56:64 0.183803
38 *56:65 *715:RN 3.20005
39 *56:65 *56:64 0.467942
40 *56:66 *56:65 1.09196
41 *56:109 *631:RN 3.20005
42 *56:94 *712:RN 3.20005
43 *56:95 *703:RN 3.20005
44 *56:60 *705:RN 6.39995
45 *56:66 *56:60 0.183803
46 *56:110 *465:RN 3.20005
47 *56:109 *56:110 1.09196
48 *56:50 *56:94 0.367753
49 *56:61 *56:95 0.367753
50 *56:61 *56:60 1.71598
51 *56:110 *56:111 0.936031
52 *56:50 *56:49 1.56005
53 *56:49 *56:61 1.24804
54 *56:111 *56:114 0.183803
55 *56:53 *56:49 3.20005
56 *56:114 *56:115 1.40397
57 *56:54 *56:53 1.47086
58 *56:112 *56:115 0.183803
59 *56:54 *56:51 0.155932
60 *56:41 *446:RN 6.39995
61 *56:112 *56:113 0.467942
62 *56:52 *56:51 2.20622
63 *56:42 *473:RN 6.39995
64 *56:42 *56:41 1.71598
65 *56:46 *56:113 3.20005
66 *56:86 *56:52 0.155932
67 *56:47 *56:42 3.20005
68 *56:47 *56:46 2.39017
69 *56:84 *443:A 0.223849
70 *56:78 *56:86 0.919308
71 *56:79 *721:RN 6.39995
72 *56:45 *646:RN 3.20005
73 *56:48 *56:47 1.83862
74 *56:102 *455:RN 3.20005
75 *56:85 *56:84 3.20005
76 *56:77 *56:78 3.20005
77 *56:77 *56:79 0.155932
78 *56:44 *453:RN 3.20005
79 *56:45 *56:44 1.09196
80 *56:44 *56:48 3.20005
81 *56:39 *56:102 0.183803
82 *56:36 *56:85 0.551556
83 *56:36 *56:77 0.155932
84 *56:40 *56:44 0.551556
85 *56:40 *56:39 4.52393
86 *56:37 *714:RN 3.20005
87 *56:37 *56:36 1.40397
88 *56:91 *632:RN 3.20005
89 *56:43 *56:40 2.80795
90 *56:83 *467:RN 3.20005
91 *56:38 *732:RN 3.20005
92 *56:38 *56:37 1.09196
93 *56:90 *698:RN 3.20005
94 *56:90 *56:91 1.09196
95 *56:96 *707:RN 3.20005
96 *56:101 *56:43 3.20005
97 *56:76 *56:83 0.367753
98 *56:76 *56:38 1.71598
99 *56:88 *56:90 1.71598
100 *56:97 *56:96 3.20005
101 *56:97 *56:101 2.02242
102 *56:34 *730:RN 3.20005
103 *56:34 *56:76 1.09196
104 *56:89 *56:88 3.20005
105 *56:89 *56:97 1.28706
106 *56:35 *56:34 1.56005
107 *56:82 *56:89 4.41259
108 *56:35 *56:31 0.183803
109 *56:32 *56:82 3.20005
110 *56:32 *56:31 0.155932
111 *56:33 *717:RN 3.20005
112 *56:33 *56:32 1.09196
113 *56:80 *56:33 5.45996
114 *56:81 *56:80 3.20005
115 *56 *56:81 9.61349964
*END

*D_NET *57 0.00889515

*CONN
*P *57 I *C 0 155.96 *L 0
*I *720:D I *C 40.59 114.52 *L 0.00184 *D DFFRHQX1

*CAP
1 *57 0.00170896
2 *720:D 6.33172e-05
3 *57:2 0.00220835
4 *57:3 0.00220835
5 *57:4 0.000425596
6 *57:5 0.0017344
7 *57:6 0.000120603
8 *57:7 0.000425596

*RES
1 *57:6 *720:D 6.39997
2 *57:7 *57:6 3.20007
3 *57:4 *57:7 2.02235
4 *57:3 *57:4 3.20007
5 *57:3 *57:2 11.5439997
6 *57:5 *57:2 3.20007
7 *57 *57:5 9.2458
*END

*D_NET *58 0.00773249

*CONN
*P *58 I *C 0 147 *L 0
*I *724:D I *C 40.59 117.32 *L 0.00184 *D DFFRHQX1

*CAP
1 *58 0.00208518
2 *724:D 6.3286e-05
3 *58:2 0.000120614
4 *58:3 0.000120614
5 *58:4 0.00158122
6 *58:5 0.00211066
7 *58:6 0.00165091

*RES
1 *58:2 *724:D 6.39992
2 *58:3 *58:2 3.19996
3 *58:4 *58:3 3.19996
4 *58:4 *58:6 8.26805
5 *58:5 *58:6 3.19996
6 *58 *58:5 11.2682142
*END

*D_NET *59 0.00492673

*CONN
*P *59 I *C 0 138.6 *L 0
*I *731:D I *C 24.09 117.32 *L 0.00184 *D DFFRHQX1

*CAP
1 *59 0.00123317
2 *731:D 6.33017e-05
3 *59:2 0.00122065
4 *59:3 0.00115097
5 *59:4 0.00125864

*RES
1 *59:3 *731:D 6.39997
2 *59:3 *59:2 5.92801
3 *59:4 *59:2 3.19999
4 *59 *59:4 6.67178583
*END

*D_NET *60 0.0044741

*CONN
*P *60 I *C 0 129.64 *L 0
*I *723:D I *C 24.09 114.52 *L 0.00184 *D DFFRHQX1

*CAP
1 *60 0.00123317
2 *723:D 6.33017e-05
3 *60:2 0.000120592
4 *60:3 0.000120592
5 *60:4 0.000804062
6 *60:5 0.00125864
7 *60:6 0.00087374

*RES
1 *60:2 *723:D 6.39997
2 *60:3 *60:2 3.19999
3 *60:4 *60:3 3.19999
4 *60:4 *60:6 4.21201
5 *60:5 *60:6 3.19999
6 *60 *60:5 6.67178583
*END

*D_NET *61 0.00495305

*CONN
*P *61 I *C 0 121.24 *L 0
*I *729:D I *C 24.09 104.44 *L 0.00184 *D DFFRHQX1

*CAP
1 *61 7.77453e-05
2 *729:D 6.3301e-05
3 *61:2 0.00086062
4 *61:3 0.000851919
5 *61:4 0.00023274
6 *61:5 0.000171757
7 *61:6 0.0009552
8 *61:7 0.0009552
9 *61:8 0.000103194
10 *61:9 0.000120597
11 *61:2 *63:9 0.00021835
12 *61:3 *63:4 0.00021835
13 *61:4 *63:9 6.204e-05
14 *61:5 *63:4 6.20399902e-05

*RES
1 *61:9 *729:D 6.4000001
2 *61:4 *61:9 3.2
3 *61:5 *61:4 0.919238
4 *61:5 *61:2 0.155957
5 *61:3 *61:2 5.33184
6 *61:6 *61:3 3.2
7 *61:6 *61:7 4.52402
8 *61:8 *61:7 3.2
9 *61 *61:8 0.420605
*END

*D_NET *62 0.00577572

*CONN
*P *62 I *C 0 112.28 *L 0
*I *718:D I *C 24.09 87.08 *L 0.00184 *D DFFRHQX1

*CAP
1 *62 0.0013177
2 *718:D 6.331e-05
3 *62:2 0.00133164
4 *62:3 0.00126196
5 *62:4 0.000120594
6 *62:5 0.000120594
7 *62:6 0.00134316
8 *62:2 *65:10 2.624e-05
9 *62:3 *65:9 2.624e-05
10 *62:2 *65:8 1.75e-05
11 *62:3 *65:7 1.75e-05
12 *62:2 *65:5 6.464e-05
13 *62:3 *65:4 6.46399971e-05

*RES
1 *62:4 *718:D 6.40001
2 *62:5 *62:4 3.2
3 *62:3 *62:5 3.2
4 *62:3 *62:2 7.01999998
5 *62:6 *62:2 3.2
6 *62 *62:6 6.67176
*END

*D_NET *63 0.00413555

*CONN
*P *63 I *C 0 103.88 *L 0
*I *722:D I *C 24.09 94.36 *L 0.00184 *D DFFRHQX1

*CAP
1 *63 7.77366e-05
2 *722:D 6.33007e-05
3 *63:2 0.000113547
4 *63:3 0.000113547
5 *63:4 0.00101653
6 *63:5 0.000111903
7 *63:6 6.57177e-05
8 *63:7 0.000131945
9 *63:8 0.000117147
10 *63:9 0.00107751
11 *63:10 0.000252841
12 *63:11 0.000252841
13 *63:9 *61:2 0.00021835
14 *63:4 *61:3 0.00021835
15 *63:9 *61:4 6.204e-05
16 *63:4 *61:5 6.20399902e-05
17 *63:11 *53:83 2.461e-05
18 *63:10 *53:178 2.461e-05
19 *63:8 *53:83 3.545e-05
20 *63:7 *53:178 3.545e-05
21 *63:2 *53:178 3.005e-05
22 *63:3 *53:166 3.00499974e-05

*RES
1 *63:6 *722:D 6.40004
2 *63:6 *63:3 0.183812
3 *63:3 *63:2 0.623999
4 *63:2 *63:10 0.183812
5 *63:10 *63:11 1.248
6 *63:7 *63:11 0.183812
7 *63:7 *63:8 0.623999
8 *63:9 *63:8 3.20002
9 *63:4 *63:9 6.43499994
10 *63:4 *63:5 0.156024
11 *63 *63:5 0.420647
*END

*D_NET *64 0.004141

*CONN
*P *64 I *C 0 94.92 *L 0
*I *725:D I *C 24.09 84.28 *L 0.00184 *D DFFRHQX1

*CAP
1 *64 0.0012916
2 *725:D 6.33116e-05
3 *64:2 0.000105992
4 *64:3 0.000674209
5 *64:4 0.00061915
6 *64:5 0.00138674

*RES
1 *64:2 *725:D 6.39996
2 *64:2 *64:3 0.367679
3 *64:3 *64:4 2.96399
4 *64:5 *64:4 3.19998
5 *64 *64:5 7.03950024
*END

*D_NET *65 0.00429996

*CONN
*P *65 I *C 0 86.52 *L 0
*I *726:D I *C 24.09 97.16 *L 0.00184 *D DFFRHQX1

*CAP
1 *65 0.00116523
2 *726:D 6.32994e-05
3 *65:2 0.000172493
4 *65:3 0.000102798
5 *65:4 0.000367933
6 *65:5 0.000367933
7 *65:6 0.00119068
8 *65:7 0.000156087
9 *65:8 0.000101199
10 *65:9 0.000110047
11 *65:10 0.000164917
12 *65:11 0.000120603
13 *65:10 *62:2 2.624e-05
14 *65:9 *62:3 2.624e-05
15 *65:8 *62:2 1.75e-05
16 *65:7 *62:3 1.75e-05
17 *65:5 *62:2 6.464e-05
18 *65:4 *62:3 6.46399971e-05

*RES
1 *65:11 *726:D 6.4000001
2 *65:2 *65:11 3.2
3 *65:3 *65:2 0.367676
4 *65:10 *65:3 3.2
5 *65:9 *65:10 0.467969
6 *65:5 *65:9 0.183887
7 *65:4 *65:5 2.02803
8 *65:4 *65:8 0.183887
9 *65:7 *65:8 0.467969
10 *65:6 *65:7 3.2
11 *65 *65:6 6.3041
*END

*D_NET *66 0.00288937

*CONN
*P *66 I *C 0 78.12 *L 0
*I *719:D I *C 24.09 77 *L 0.00184 *D DFFRHQX1

*CAP
1 *66 0.000655461
2 *719:D 6.33052e-05
3 *66:2 0.000649696
4 *66:3 0.00072378
5 *66:4 0.000120602
6 *66:5 0.000676522

*RES
1 *66:4 *719:D 6.4000001
2 *66:5 *66:4 3.2
3 *66:2 *66:5 3.12559
4 *66:2 *66:3 0.312012
5 *66 *66:3 3.54619
*END

*D_NET *67 0.00330054

*CONN
*P *67 I *C 0 69.16 *L 0
*I *727:D I *C 24.09 74.2 *L 0.00184 *D DFFRHQX1

*CAP
1 *67 0.00123317
2 *727:D 6.33017e-05
3 *67:2 0.000407543
4 *67:3 0.00125864
5 *67:4 0.000337865

*RES
1 *67:4 *727:D 6.39997
2 *67:2 *67:4 1.40397
3 *67:3 *67:2 3.19999
4 *67 *67:3 6.67178583
*END

*D_NET *68 0.00306001

*CONN
*P *68 I *C 0 60.76 *L 0
*I *728:D I *C 24.09 64.12 *L 0.00184 *D DFFRHQX1

*CAP
1 *68 0.000791396
2 *728:D 6.33011e-05
3 *68:2 0.00082556
4 *68:3 0.00047799
5 *68:4 0.000251076
6 *68:5 0.000469298
7 *68:6 0.0001814

*RES
1 *68:6 *728:D 6.4000001
2 *68:4 *68:6 0.77998
3 *68:5 *68:4 3.2
4 *68:3 *68:5 2.39014
5 *68:2 *68:3 0.155957
6 *68 *68:2 4.28164
*END

*D_NET *69 0.00319254

*CONN
*P *69 I *C 0 51.8 *L 0
*I *721:D I *C 23.43 56.84 *L 0.00184 *D DFFRHQX1

*CAP
1 *69 0.00109724
2 *721:D 6.33002e-05
3 *69:2 0.000368717
4 *69:3 0.0011227
5 *69:4 0.000394345
6 *69:5 0.000146233

*RES
1 *69:5 *721:D 6.4000001
2 *69:4 *69:5 0.551562
3 *69:2 *69:4 1.404
4 *69:3 *69:2 3.2
5 *69 *69:3 5.93633
*END

*D_NET *70 0.00298195

*CONN
*P *70 I *C 0 43.4 *L 0
*I *732:D I *C 23.43 46.76 *L 0.00184 *D DFFRHQX1

*CAP
1 *70 0.00116521
2 *732:D 6.33044e-05
3 *70:2 0.00119938
4 *70:3 6.8136e-05
5 *70:4 0.000248075
6 *70:5 5.94428e-05
7 *70:6 0.000178402

*RES
1 *70:6 *732:D 6.4000001
2 *70:4 *70:6 0.77998
3 *70:5 *70:4 3.2
4 *70:3 *70:5 0.183887
5 *70:2 *70:3 0.155957
6 *70 *70:2 6.3041
*END

*D_NET *71 0.00334766

*CONN
*P *71 I *C 0 34.44 *L 0
*I *730:D I *C 23.43 36.68 *L 0.00184 *D DFFRHQX1

*CAP
1 *71 7.04976e-05
2 *730:D 6.33027e-05
3 *71:2 0.000104662
4 *71:3 0.00049014
5 *71:4 0.000221358
6 *71:5 0.00049014
7 *71:6 0.000221358
8 *71:7 0.000233653
9 *71:8 0.000114377
10 *71:9 0.000233653
11 *71:10 0.000222121
12 *71:11 0.000105679
13 *71:12 0.000152438
14 *71:9 *55:2 5.271e-05
15 *71:7 *55:3 5.271e-05
16 *71:5 *55:2 0.00012047
17 *71:3 *55:3 0.00012047
18 *71:11 *55:2 3.79e-05
19 *71:8 *55:3 3.79e-05
20 *71:6 *55:2 8.843e-05
21 *71:4 *55:3 8.843e-05
22 *71:2 *55:2 1.263e-05
23 *71 *55:3 1.26299919e-05

*RES
1 *71:12 *730:D 6.4000001
2 *71:10 *71:12 0.624023
3 *71:11 *71:10 3.2
4 *71:8 *71:11 0.551562
5 *71:8 *71:9 0.155957
6 *71:7 *71:9 1.28701
7 *71:6 *71:7 0.155957
8 *71:4 *71:6 1.28701
9 *71:4 *71:5 0.155957
10 *71:3 *71:5 2.9417
11 *71:2 *71:3 0.155957
12 *71 *71:2 0.420605
*END

*D_NET *72 0.00275999

*CONN
*P *72 I *C 0 26.04 *L 0
*I *717:D I *C 24.09 26.6 *L 0.00184 *D DFFRHQX1

*CAP
1 *72 0.000692037
2 *717:D 6.32953e-05
3 *72:2 0.0007262
4 *72:3 0.000583287
5 *72:4 0.000120596
6 *72:5 0.000574577

*RES
1 *72:4 *717:D 6.4000001
2 *72:5 *72:4 3.2
3 *72:3 *72:5 2.9417
4 *72:2 *72:3 0.155957
5 *72 *72:2 3.73008
*END

*D_NET *73 0.0105627

*CONN
*P *73 O *C 164.34 31.64 *L 0
*I *735:A I *C 81.51 27.16 *L 0.00346 *D INVX1
*I *631:Q O *C 80.85 26.6 *L 0 *D DFFRHQX1

*CAP
1 *73 0.00191504
2 *735:A 3.98671e-05
3 *631:Q 0.000179694
4 *73:3 0.00087609
5 *73:4 0.000833237
6 *73:5 0.000138565
7 *73:6 0.000766063
8 *73:7 0.000729983
9 *73:8 0.000575779
10 *73:9 0.000507466
11 *73:10 0.000120586
12 *73:11 0.000440539
13 *73:12 0.000440539
14 *73:13 0.00201752
15 *73:5 *273:12 4.933e-05
16 *73:6 *273:8 4.933e-05
17 *73:6 *273:12 7.045e-05
18 *73:7 *273:8 7.045e-05
19 *73:6 *273:8 0.00011971
20 *73:7 *273:5 0.000119710006
21 *73:5 *93:5 0.00012667
22 *73:6 *93:6 0.00012667
23 *73:8 *93:7 0.00011209
24 *73:9 *93:8 0.00011209
25 *73:5 *93:7 1.263e-05
26 *73:6 *93:8 1.26300076e-05

*RES
1 *73:13 *73 10.1650715
2 *73:12 *73:13 0.467957
3 *73:11 *73:12 1.65468
4 *73:8 *73:11 0.467957
5 *73:9 *73:8 2.7578
6 *73:5 *73:9 0.156037
7 *73:6 *73:5 1.10312
8 *73:7 *73:6 3.67711
9 *73:7 *73:3 0.312075
10 *73:4 *73:3 3.86107
11 *73:10 *73:4 3.20001
12 *631:Q *73:10 3.20001
13 *631:Q *735:A 0.223819
*END

*D_NET *74 0.0125602

*CONN
*P *74 O *C 164.34 39.48 *L 0
*I *743:A I *C 66.33 37.24 *L 0.00346 *D INVX1
*I *646:Q O *C 65.67 36.68 *L 0 *D DFFRHQX1

*CAP
1 *74 0.00153333
2 *743:A 3.98485e-05
3 *646:Q 0.000179701
4 *74:3 0.000128061
5 *74:4 0.000128061
6 *74:5 0.00156751
7 *74:6 0.000875352
8 *74:7 0.000875352
9 *74:8 0.000271238
10 *74:9 0.000271238
11 *74:10 0.000592011
12 *74:11 0.00069589
13 *74:12 0.000600717
14 *74:13 0.000678812
15 *74:14 0.00056582
16 *74:15 0.000582898
17 *74:8 *341:9 0.00011642
18 *74:9 *341:10 0.00011642
19 *74:15 *341:11 0.00015177
20 *74:14 *341:9 0.00015177
21 *74:15 *341:9 0.00010679
22 *74:14 *341:10 0.00010679
23 *74:13 *341:9 6.204e-05
24 *74:11 *341:10 6.204e-05
25 *74:6 *341:11 0.0001922
26 *74:7 *341:9 0.000192199998
27 *74:12 *54:98 0.00025833
28 *74:10 *54:99 0.00025833
29 *74:13 *54:98 8.892e-05
30 *74:11 *54:99 8.892e-05
31 *74:13 *54:96 0.00015641
32 *74:11 *54:97 0.000156410014
33 *74:15 *53:123 7.53e-06
34 *74:14 *53:112 7.53e-06
35 *74:15 *53:112 0.00012448
36 *74:14 *53:113 0.00012448
37 *74:12 *53:113 3.012e-05
38 *74:10 *53:120 3.012e-05
39 *74:13 *53:113 8.892e-05
40 *74:11 *53:120 8.892e-05
41 *74:12 *53:120 0.00010328
42 *74:10 *53:118 0.000103280011

*RES
1 *74:5 *74 8.14264297
2 *74:6 *74:5 0.156054
3 *74:7 *74:6 5.14805
4 *74:7 *74:15 0.156054
5 *74:14 *74:15 4.04486
6 *74:14 *74:8 0.078027
7 *74:9 *74:8 1.28695
8 *74:13 *74:9 0.078027
9 *74:11 *74:13 4.78027
10 *74:11 *74:12 0.156054
11 *74:10 *74:12 4.04486
12 *74:3 *74:10 3.19998
13 *74:4 *74:3 0.156054
14 *646:Q *74:4 3.19998
15 *646:Q *743:A 0.223769
*END

*D_NET *75 0.0117161

*CONN
*P *75 O *C 164.34 47.32 *L 0
*I *734:A I *C 49.83 47.32 *L 0.00346 *D INVX1
*I *632:Q O *C 51.81 43.96 *L 0 *D DFFRHQX1

*CAP
1 *75 0.000961297
2 *734:A 6.33092e-05
3 *632:Q 6.33092e-05
4 *75:3 0.000310686
5 *75:4 0.000285073
6 *75:5 9.58096e-05
7 *75:6 0.000165462
8 *75:7 0.000146252
9 *75:8 0.00388929
10 *75:9 0.000120577
11 *75:10 7.2431e-05
12 *75:11 0.00395894
13 *75:12 0.000270937
14 *75:13 0.00098679
15 *75:14 0.000325849

*RES
1 *75:13 *75 5.20091
2 *75:14 *75:13 3.20013
3 *75:12 *75:14 1.24801
4 *75:10 *75:12 0.183939
5 *75:11 *75:10 3.20013
6 *75:8 *75:11 25.9238567
7 *75:6 *75:8 3.20013
8 *75:6 *75:5 0.312102
9 *75:9 *75:5 3.20013
10 *75:4 *75:9 3.20013
11 *75:4 *632:Q 6.39987
12 *75:4 *75:3 0.935911
13 *75:7 *75:3 0.55142
14 *734:A *75:7 6.39987
*END

*D_NET *76 0.0118546

*CONN
*P *76 O *C 164.34 55.16 *L 0
*I *741:A I *C 64.35 67.48 *L 0.00346 *D INVX1
*I *643:Q O *C 65.67 74.2 *L 0 *D DFFRHQX1

*CAP
1 *76 0.000655447
2 *741:A 0.000139868
3 *643:Q 0.000139868
4 *76:3 0.000338709
5 *76:4 0.000158418
6 *76:5 0.000200676
7 *76:6 0.000200676
8 *76:7 0.000318721
9 *76:8 0.000214911
10 *76:9 0.000214911
11 *76:10 0.000112936
12 *76:11 0.00325045
13 *76:12 0.000365294
14 *76:13 0.000614875
15 *76:14 0.000614875
16 *76:15 0.00325045
17 *76:16 0.000374024
18 *76:17 0.00068962

*RES
1 *76:17 *76 3.54626
2 *76:16 *76:17 0.155912
3 *76:12 *76:16 1.83845
4 *76:13 *76:12 3.19997
5 *76:13 *76:14 2.65215
6 *76:15 *76:14 3.19997
7 *76:11 *76:15 21.5112858
8 *76:9 *76:11 3.19997
9 *76:9 *76:8 0.623977
10 *76:10 *643:Q 3.19997
11 *76:5 *76:8 3.19997
12 *76:7 *76:10 0.367625
13 *76:6 *76:5 0.91939
14 *76:3 *741:A 3.19997
15 *76:3 *76:7 1.09204
16 *76:4 *76:6 3.19997
17 *76:4 *76:3 0.312153
*END

*D_NET *77 0.0038318

*CONN
*P *77 O *C 164.34 63 *L 0
*I *739:A I *C 138.27 57.4 *L 0.00346 *D INVX1
*I *644:Q O *C 142.89 64.12 *L 0 *D DFFRHQX1

*CAP
1 *77 9.78575e-06
2 *739:A 0.000139842
3 *644:Q 0.000139842
4 *77:3 0.000195505
5 *77:4 0.000265204
6 *77:5 0.000279641
7 *77:6 0.000120607
8 *77:7 0.00137916
9 *77:8 0.00118995
10 *77:9 0.000112252

*RES
1 *77:9 *77 0.0529667
2 *77:8 *77:9 0.467992
3 *77:6 *644:Q 3.19999
4 *77:7 *77:8 5.88342857
5 *77:7 *77:6 3.19999
6 *77:5 *77:7 1.287
7 *77:4 *77:5 3.19999
8 *77:3 *77:4 1.09201
9 *739:A *77:3 3.19999
*END

*D_NET *78 0.0040852

*CONN
*P *78 O *C 164.34 70.84 *L 0
*I *744:A I *C 138.93 73.64 *L 0.00346 *D INVX1
*I *642:Q O *C 142.89 77 *L 0 *D DFFRHQX1

*CAP
1 *78 0.000791396
2 *744:A 0.000139842
3 *642:Q 0.000139842
4 *78:3 0.000412068
5 *78:4 0.000403364
6 *78:5 0.000262879
7 *78:6 0.000209265
8 *78:7 0.000456625
9 *78:8 0.000261985
10 *78:9 0.000182358
11 *78:10 0.00082556

*RES
1 *78:10 *78 4.28164291
2 *78:10 *78:3 0.156014
3 *78:4 *78:3 2.02244
4 *78:9 *642:Q 3.2
5 *78:6 *78:4 3.2
6 *78:8 *78:9 0.367692
7 *78:6 *78:7 0.623993
8 *78:7 *78:8 0.936021
9 *78:5 *78:7 0.73545
10 *744:A *78:5 3.2
*END

*D_NET *79 0.00652307

*CONN
*P *79 O *C 164.34 78.12 *L 0
*I *736:A I *C 128.37 93.8 *L 0.00346 *D INVX1
*I *639:Q O *C 142.89 94.36 *L 0 *D DFFRHQX1

*CAP
1 *79 0.000587497
2 *736:A 0.000139842
3 *639:Q 0.000145694
4 *79:3 0.000120604
5 *79:4 0.000170377
6 *79:5 0.000457593
7 *79:6 0.00017908
8 *79:7 0.000457593
9 *79:8 9.28163e-05
10 *79:9 0.000120604
11 *79:10 0.000153799
12 *79:11 0.000119688
13 *79:12 0.000276006
14 *79:13 0.000300995
15 *79:14 0.000276006
16 *79:15 0.00083382
17 *79:16 0.000612957
18 *79:17 0.000299035
19 *79:18 0.00083382
20 *79:10 *81:9 2.377e-05
21 *79:8 *81:10 2.377e-05
22 *79:6 *81:5 4.557e-05
23 *79:4 *81:6 4.557e-05
24 *79:7 *81:9 0.00010328
25 *79:5 *81:10 0.000103280001

*RES
1 *79:16 *79 3.17852
2 *79:15 *79:16 3.2
3 *79:15 *79:18 3.9
4 *79:17 *79:18 3.2
5 *79:13 *79:17 1.5668
6 *79:13 *79:14 0.189941
7 *79:12 *79:14 1.34297
8 *79:11 *79:12 0.189941
9 *639:Q *79:11 0.447656
10 *79:9 *639:Q 6.4000001
11 *79:10 *79:9 3.2
12 *79:8 *79:10 0.367676
13 *79:7 *79:8 0.155957
14 *79:5 *79:7 2.75781
15 *79:5 *79:6 0.155957
16 *79:4 *79:6 0.919238
17 *79:3 *79:4 3.2
18 *736:A *79:3 3.2
*END

*D_NET *80 0.00461206

*CONN
*P *80 O *C 164.34 85.96 *L 0
*I *737:A I *C 128.37 83.72 *L 0.00346 *D INVX1
*I *629:Q O *C 142.89 84.28 *L 0 *D DFFRHQX1

*CAP
1 *80 7.77439e-05
2 *737:A 0.000139844
3 *629:Q 6.33074e-05
4 *80:3 0.000120604
5 *80:4 0.000878776
6 *80:5 0.000120604
7 *80:6 0.00184066
8 *80:7 0.00115613
9 *80:8 0.000214386

*RES
1 *80:8 *80 0.420605
2 *80:7 *80:8 0.624023
3 *80:5 *629:Q 6.4000001
4 *80:6 *80:7 5.51572
5 *80:6 *80:5 3.2
6 *80:4 *80:6 4.04482
7 *80:3 *80:4 3.2
8 *737:A *80:3 3.2
*END

*D_NET *81 0.010223

*CONN
*P *81 O *C 164.34 93.8 *L 0
*I *749:A I *C 94.05 97.72 *L 0.00346 *D INVX1
*I *634:Q O *C 95.37 104.44 *L 0 *D DFFRHQX1

*CAP
1 *81 0.00102929
2 *749:A 0.000139851
3 *634:Q 0.000139851
4 *81:3 0.00127818
5 *81:4 0.0013391525
6 *81:5 0.000367651
7 *81:6 0.000367651
8 *81:7 0.000247662
9 *81:8 0.000264745
10 *81:9 0.000463835
11 *81:10 0.000412586
12 *81:11 0.000317261
13 *81:12 0.000500289
14 *81:13 0.00021135
15 *81:14 0.00014825
16 *81:15 0.000148107
17 *81:16 7.24187e-05
18 *81:17 0.0010976
19 *81:5 *109:5 0.00020717
20 *81:6 *109:6 0.00020717
21 *81:9 *109:7 8.197e-05
22 *81:10 *109:8 8.197e-05
23 *81:9 *109:9 3.678e-05
24 *81:10 *109:10 3.678e-05
25 *81:9 *109:5 1.188e-05
26 *81:10 *109:6 1.18800033e-05
27 *81:3 *378:9 0.00023978
28 *81:4 *378:10 0.00023978
29 *81:3 *378:10 8.843e-05
30 *81:4 *378:11 8.84300013e-05
31 *81:9 *79:10 2.377e-05
32 *81:10 *79:8 2.377e-05
33 *81:5 *79:6 4.557e-05
34 *81:6 *79:4 4.557e-05
35 *81:9 *79:7 0.00010328
36 *81:10 *79:5 0.000103280001

*RES
1 *81:17 *81 5.56862
2 *81:17 *81:9 0.312026
3 *81:10 *81:9 3.30939
4 *81:10 *81:5 0.0779547
5 *81:6 *81:5 2.57396
6 *81:16 *634:Q 3.19998
7 *81:6 *81:7 0.0779547
8 *81:15 *81:16 0.183832
9 *81:8 *81:7 1.28703
10 *81:14 *81:15 0.46804
11 *81:3 *81:8 0.156013
12 *81:13 *81:14 0.183832
13 *81:4 *81:3 6.80271435
14 *81:12 *749:A 3.19998
15 *81:12 *81:13 0.623949
16 *81:11 *81:4 3.19998
17 *81:11 *81:12 0.779962
*END

*D_NET *82 0.0131853

*CONN
*P *82 O *C 164.34 101.64 *L 0
*I *745:A I *C 70.29 93.8 *L 0.00346 *D INVX1
*I *633:Q O *C 66.99 87.08 *L 0 *D DFFRHQX1

*CAP
1 *82 0.00228686
2 *745:A 0.000139859
3 *633:Q 0.000139859
4 *82:3 0.000503689
5 *82:4 0.000626796
6 *82:5 0.000275892
7 *82:6 8.06781e-05
8 *82:7 0.000150342
9 *82:8 0.000212958
10 *82:9 0.000282621
11 *82:10 0.00186583
12 *82:11 0.00186583
13 *82:12 0.00059779
14 *82:13 0.00059779
15 *82:14 0.002321
16 *82:15 6.63345e-05
17 *82:16 8.76197e-05
18 *82:17 8.76197e-05
19 *82:12 *53:172 3.678e-05
20 *82:13 *53:173 3.678e-05
21 *82:12 *53:173 1.263e-05
22 *82:13 *53:174 1.263e-05
23 *82:17 *53:175 2.527e-05
24 *82:16 *53:176 2.527e-05
25 *82:10 *53:173 0.00013998
26 *82:11 *53:174 0.00013998
27 *82:10 *53:174 0.00016496
28 *82:11 *53:177 0.00016496
29 *82:10 *53:177 6.68e-06
30 *82:11 *53:175 6.68e-06
31 *82:10 *53:175 0.00011166
32 *82:11 *53:176 0.000111660008

*RES
1 *82:14 *82 11.8197861
2 *82:14 *82:12 0.156008
3 *82:13 *82:12 3.12556
4 *82:10 *82:13 0.156008
5 *82:11 *82:10 10.8475
6 *82:11 *82:17 0.156008
7 *82:16 *82:17 0.367745
8 *82:15 *82:16 0.156008
9 *82:3 *82:15 3.20005
10 *82:4 *745:A 3.20005
11 *82:4 *82:3 2.18393
12 *82:5 *82:4 0.936046
13 *82:8 *82:5 3.20005
14 *82:9 *82:8 0.919273
15 *82:6 *82:9 3.20005
16 *82:7 *82:6 0.156008
17 *633:Q *82:7 3.20005
*END

*D_NET *83 0.0102835

*CONN
*P *83 O *C 164.34 109.48 *L 0
*I *747:A I *C 88.11 113.96 *L 0.00346 *D INVX1
*I *635:Q O *C 95.37 117.32 *L 0 *D DFFRHQX1

*CAP
1 *83 0.00300224
2 *747:A 0.000139877
3 *635:Q 0.000139877
4 *83:3 0.00303639
5 *83:4 0.000423941
6 *83:5 0.000423941
7 *83:6 0.000350597
8 *83:7 0.000341933
9 *83:8 0.00020933
10 *83:9 0.000279013
11 *83:10 0.000431586
12 *83:11 0.000505115
13 *83:12 0.000568127
14 *83:13 0.000431586

*RES
1 *83:3 *83 16.0485001
2 *83:3 *83:4 0.155989
3 *83:5 *83:4 1.83856
4 *83:6 *83:5 0.155989
5 *83:7 *83:6 1.28709
6 *83:11 *83:7 6.39996
7 *83:11 *83:12 2.18409
8 *83:12 *635:Q 3.2001
9 *83:13 *83:12 3.2001
10 *83:10 *83:13 2.02247
11 *83:9 *83:10 3.2001
12 *83:8 *83:9 0.935934
13 *747:A *83:8 3.2001
*END

*D_NET *84 0.010932

*CONN
*P *84 O *C 164.34 117.32 *L 0
*I *742:A I *C 77.55 107.8 *L 0.00346 *D INVX1
*I *637:Q O *C 78.87 114.52 *L 0 *D DFFRHQX1

*CAP
1 *84 0.00116523
2 *742:A 6.33009e-05
3 *637:Q 0.000279666
4 *84:3 0.00121444
5 *84:4 0.00152796531
6 *84:5 0.000381834
7 *84:6 0.000934289
8 *84:7 0.000934289
9 *84:8 6.57024e-05
10 *84:9 0.00031823
11 *84:10 0.00031823
12 *84:11 7.24172e-05
13 *84:12 0.00018447
14 *84:13 0.00018447
15 *84:14 0.000114501
16 *84:15 0.000123198
17 *84:16 0.000856859
18 *84:17 0.000925173
19 *84:18 0.0012677

*RES
1 *84:18 *84 6.30411
2 *84:17 *84:18 0.467975
3 *84:16 *84:17 4.22876
4 *84:16 *84:6 0.156024
5 *84:7 *84:6 4.41257
6 *84:3 *84:7 0.156024
7 *84:4 *84:3 6.43499994
8 *84:5 *84:4 1.83861
9 *84:5 *84:15 0.156024
10 *84:14 *84:15 0.551535
11 *84:13 *84:14 3.20002
12 *84:12 *84:13 0.467975
13 *637:Q *84:12 3.20002
14 *84:11 *637:Q 3.20002
15 *84:10 *84:11 0.183812
16 *84:9 *84:10 1.09197
17 *84:8 *84:9 0.183812
18 *742:A *84:8 6.40004
*END

*D_NET *85 0.00584705

*CONN
*P *85 O *C 164.34 125.16 *L 0
*I *750:A I *C 138.93 103.88 *L 0.00346 *D INVX1
*I *641:Q O *C 142.89 107.24 *L 0 *D DFFRHQX1

*CAP
1 *85 0.00109723
2 *750:A 0.000139854
3 *641:Q 0.000139854
4 *85:3 0.000265486
5 *85:4 0.000335164
6 *85:5 0.000120604
7 *85:6 0.000282862
8 *85:7 0.00125278
9 *85:8 0.00109054
10 *85:9 0.00112269

*RES
1 *85:9 *85 5.93635702
2 *85:8 *85:9 3.19998
3 *85:7 *85:8 4.99204
4 *85:7 *641:Q 3.19998
5 *85:6 *85:7 0.93598
6 *85:3 *85:6 3.19998
7 *85:4 *85:3 1.1031
8 *85:5 *85:4 3.19998
9 *750:A *85:5 3.19998
*END

*D_NET *86 0.00671257

*CONN
*P *86 O *C 164.34 133 *L 0
*I *746:A I *C 127.05 113.96 *L 0.00346 *D INVX1
*I *630:Q O *C 140.25 117.32 *L 0 *D DFFRHQX1

*CAP
1 *86 0.00123317
2 *746:A 0.000139836
3 *630:Q 0.000139836
4 *86:3 0.000269685
5 *86:4 0.000200007
6 *86:5 0.000782744
7 *86:6 0.000782744
8 *86:7 0.000952944
9 *86:8 0.000952944
10 *86:9 0.00125864

*RES
1 *86:9 *86 6.67178583
2 *86:7 *86:9 3.19999
3 *86:8 *86:7 4.36798
4 *86:8 *630:Q 3.19999
5 *86:5 *86:8 3.19999
6 *86:6 *86:5 3.67714
7 *86:3 *86:6 3.19999
8 *86:4 *86:3 0.93598
9 *746:A *86:4 3.19999
*END

*D_NET *87 0.0078056

*CONN
*P *87 O *C 164.34 140.84 *L 0
*I *748:A I *C 115.17 124.04 *L 0.00346 *D INVX1
*I *636:Q O *C 125.73 117.32 *L 0 *D DFFRHQX1

*CAP
1 *87 0.0019808
2 *748:A 6.32856e-05
3 *636:Q 0.000139829
4 *87:3 5.09349e-05
5 *87:4 0.000569195
6 *87:5 0.000307704
7 *87:6 0.00108108
8 *87:7 0.000569195
9 *87:8 0.000893971
10 *87:9 0.000100494
11 *87:10 0.00204912

*RES
1 *87:10 *87 10.7166433
2 *87:9 *87:10 0.312002
3 *87:5 *636:Q 3.19998
4 *87:8 *87:9 3.19998
5 *87:5 *87:6 1.09201
6 *87:6 *87:8 4.36803
7 *87:7 *87:6 3.19998
8 *87:4 *87:7 2.94178
9 *87:3 *87:4 6.39996
10 *748:A *87:3 6.39996
*END

*D_NET *88 0.0108412

*CONN
*P *88 O *C 164.34 148.68 *L 0
*I *738:A I *C 105.27 113.96 *L 0.00346 *D INVX1
*I *640:Q O *C 109.89 117.32 *L 0 *D DFFRHQX1

*CAP
1 *88 0.00303426
2 *738:A 0.000139856
3 *640:Q 0.000139856
4 *88:3 0.0018169
5 *88:4 0.000200161
6 *88:5 0.00029357
7 *88:6 0.00029357
8 *88:7 0.00166764
9 *88:8 6.62991e-05
10 *88:9 0.00306844
11 *88:10 0.000120612

*RES
1 *88:9 *88 16.416214
2 *88:10 *640:Q 3.20003
3 *88:8 *88:9 0.156056
4 *88:5 *88:10 3.20003
5 *88:7 *88:8 3.20003
6 *88:6 *88:5 1.28703
7 *88:3 *88:7 8.58009
8 *88:3 *88:6 3.20003
9 *88:4 *88:3 0.936087
10 *738:A *88:4 3.20003
*END

*D_NET *89 0.0110463

*CONN
*I *390:A I *C 111.21 37.24 *L 0.00446 *D BUFX3
*P *89 O *C 164.34 0.28 *L 0
*I *530:Q O *C 127.71 33.88 *L 0 *D DFFRHQX1

*CAP
1 *390:A 4.17248e-05
2 *89 0.00184488
3 *530:Q 0.000139844
4 *89:3 0.0015392
5 *89:4 0.00159408
6 *89:5 0.000989866
7 *89:6 0.000920201
8 *89:7 0.0002941
9 *89:8 0.0002941
10 *89:9 0.000110163
11 *89:10 0.00013582
12 *89:11 7.70568e-05
13 *89:12 0.000110163
14 *89:13 0.00013582
15 *89:14 0.000142098
16 *89:15 0.000153457
17 *89:16 0.000229858
18 *89:17 0.00187034
19 *89:5 *1:4 3.182e-05
20 *89:6 *1:5 3.182e-05
21 *89:7 *1:10 0.00017995
22 *89:8 *1:9 0.000179949998

*RES
1 *89:17 *89 9.98121452
2 *89:4 *89:17 3.2
3 *89:4 *89:3 8.11202
4 *89:15 *89:3 0.183828
5 *89:15 *89:16 0.468022
6 *89:16 *530:Q 3.2
7 *89:14 *89:16 0.183828
8 *89:5 *89:14 3.2
9 *89:6 *89:5 4.22864
10 *89:8 *89:6 6.4
11 *89:8 *89:7 1.40407
12 *89:11 *390:A 0.223883
13 *89:13 *89:7 6.4
14 *89:12 *89:11 6.4
15 *89:10 *89:13 0.367655
16 *89:9 *89:12 0.312065
17 *89:9 *89:10 6.4
*END

*D_NET *90 0.00798615

*CONN
*I *392:A I *C 129.03 37.24 *L 0.00446 *D BUFX3
*P *90 O *C 164.34 8.12 *L 0
*I *546:Q O *C 142.89 33.88 *L 0 *D DFFRHQX1

*CAP
1 *392:A 6.33027e-05
2 *90 0.000553517
3 *546:Q 0.000178677
4 *90:3 5.09143e-05
5 *90:4 0.000926063
6 *90:5 0.000121873
7 *90:6 0.000275997
8 *90:7 0.000129449
9 *90:8 0.00028406
10 *90:9 0.00028406
11 *90:10 0.000926063
12 *90:11 0.00033865
13 *90:12 0.000275997
14 *90:13 0.00133094
15 *90:14 0.000578985
16 *90:15 0.00033668
17 *90:16 0.00133094

*RES
1 *90:14 *90 2.99467
2 *90:13 *90:14 3.20002
3 *90:13 *90:16 6.55200005
4 *90:15 *90:16 3.20002
5 *90:11 *90:15 1.79056
6 *90:11 *90:12 0.189954
7 *90:6 *90:12 1.34297
8 *90:5 *90:6 0.189954
9 *546:Q *90:5 0.447691
10 *546:Q *90:7 0.671436
11 *90:8 *90:7 3.20002
12 *90:8 *90:9 0.935971
13 *90:10 *90:9 3.20002
14 *90:4 *90:10 4.41252
15 *90:3 *90:4 6.40004
16 *392:A *90:3 6.40004
*END

*D_NET *91 0.0047508

*CONN
*I *400:A I *C 137.61 23.24 *L 0.00446 *D BUFX3
*P *91 O *C 164.34 15.96 *L 0
*I *496:Q O *C 142.89 26.6 *L 0 *D DFFRHQX1

*CAP
1 *400:A 6.32948e-05
2 *91 0.00106325
3 *496:Q 0.000139847
4 *91:3 0.000323086
5 *91:4 0.000323086
6 *91:5 0.0001235
7 *91:6 0.0001235
8 *91:7 0.00050066
9 *91:8 0.000593642
10 *91:9 0.000158702
11 *91:10 0.000152206
12 *91:11 0.00108872
13 *91:12 9.73178e-05

*RES
1 *91:11 *91 5.75254
2 *91:10 *91:11 3.2
3 *91:10 *91:12 0.312012
4 *91:7 *91:12 0.183887
5 *91:9 *496:Q 3.2
6 *91:7 *91:8 2.34004
7 *91:8 *91:9 0.312012
8 *91:3 *91:8 3.2
9 *91:4 *91:3 1.4709
10 *91:5 *91:4 6.4000001
11 *91:6 *91:5 0.624023
12 *400:A *91:6 6.4000001
*END

*D_NET *92 0.00639587

*CONN
*I *397:A I *C 133.65 43.4 *L 0.00446 *D BUFX3
*P *92 O *C 164.34 23.8 *L 0
*I *483:Q O *C 142.89 46.76 *L 0 *D DFFRHQX1

*CAP
1 *397:A 6.32989e-05
2 *92 0.00102928
3 *483:Q 0.000139843
4 *92:3 0.00055733
5 *92:4 0.000612211
6 *92:5 0.000792403
7 *92:6 0.000604599
8 *92:7 5.09224e-05
9 *92:8 0.000473977
10 *92:9 6.5713e-05
11 *92:10 0.000473977
12 *92:11 0.000282954
13 *92:12 9.73222e-05
14 *92:13 9.73222e-05
15 *92:14 0.00105474

*RES
1 *92:14 *92 5.56865
2 *92:4 *92:14 3.2
3 *92:4 *92:3 2.34004
4 *92:12 *92:3 0.183887
5 *92:12 *92:13 0.312012
6 *92:6 *92:13 0.183887
7 *92:11 *483:Q 3.2
8 *92:6 *92:5 2.80801
9 *92:5 *92:11 0.936035
10 *92:9 *92:5 0.183887
11 *92:10 *92:9 6.4000001
12 *92:8 *92:10 2.39014
13 *92:7 *92:8 6.4000001
14 *397:A *92:7 6.4000001
*END

*D_NET *93 0.0203779

*CONN
*P *93 O *C 164.34 155.96 *L 0
*I *733:B I *C 108.57 27.16 *L 0.00391 *D NAND2BX1
*I *570:Q O *C 127.71 26.6 *L 0 *D DFFRHQX1

*CAP
1 *93 0.00150506
2 *733:B 0.00013982
3 *570:Q 6.33397e-05
4 *93:3 0.000459803
5 *93:4 0.000573753
6 *93:5 0.000149161
7 *93:6 0.000140538
8 *93:7 0.000740263
9 *93:8 0.000740263
10 *93:9 0.000136021
11 *93:10 0.000120623
12 *93:11 0.000120623
13 *93:12 0.00672766
14 *93:13 0.00153052
15 *93:14 0.00672766
16 *93:5 *73:5 0.00012667
17 *93:6 *73:6 0.00012667
18 *93:7 *73:8 0.00011209
19 *93:8 *73:9 0.00011209
20 *93:7 *73:5 1.263e-05
21 *93:8 *73:6 1.26300076e-05

*RES
1 *93:13 *93 8.14275
2 *93:14 *93:13 3.20005
3 *93:12 *93:14 35.8800011
4 *93:3 *93:12 3.20005
5 *93:11 *570:Q 6.4001
6 *93:4 *93:3 2.02241
7 *93:4 *93:11 3.20005
8 *93:9 *93:4 0.551318
9 *93:7 *93:9 0.156033
10 *93:8 *93:7 4.04482
11 *93:8 *93:5 0.156033
12 *93:6 *93:5 0.735273
13 *93:10 *93:6 3.20005
14 *733:B *93:10 3.20005
*END

*D_NET *94 0.0133206

*CONN
*P *94 I *C 0 17.08 *L 0
*I *733:AN I *C 107.91 29.4 *L 0.0021 *D NAND2BX1

*CAP
1 *94 0.0043307
2 *733:AN 0.000139854
3 *94:2 0.000749125
4 *94:3 0.000749125
5 *94:4 0.00435616
6 *94:5 0.000120578
7 *94:6 0.000977984
8 *94:7 0.00039929
9 *94:8 0.000120578
10 *94:9 0.000977984
11 *94:10 0.00039929

*RES
1 *94:2 *733:AN 3.19996
2 *94:3 *94:2 3.43207
3 *94:10 *94:3 3.19996
4 *94:7 *94:10 2.0226
5 *94:8 *94:7 3.19996
6 *94:9 *94:8 3.19996
7 *94:6 *94:9 4.59657
8 *94:5 *94:6 3.19996
9 *94:4 *94:5 3.19996
10 *94 *94:4 23.4027863
*END

*D_NET *95 0.00920777

*CONN
*I *709:B1 I *C 96.03 83.16 *L 0.00419 *D OAI22X1
*I *608:A1 I *C 105.93 83.16 *L 0.00472 *D AOI22X1
*I *600:A1 I *C 99.99 88.2 *L 0.00472 *D AOI22X1
*I *536:D I *C 108.57 73.64 *L 0.00447 *D NAND4X1
*I *526:A2 I *C 100.65 73.08 *L 0.00497 *D OAI33X1
*I *458:B I *C 113.85 73.64 *L 0.00389 *D MXI2X1
*I *444:QN O *C 119.79 89.32 *L 0 *D DFFRX1

*CAP
1 *709:B1 0.00013984
2 *608:A1 6.32991e-05
3 *600:A1 6.32991e-05
4 *536:D 0.00013984
5 *526:A2 6.32991e-05
6 *458:B 6.32991e-05
7 *444:QN 0.00013984
8 *95:7 0.000354543
9 *95:8 0.000424224
10 *95:9 5.51256e-05
11 *95:10 0.000124794
12 *95:11 0.00074811625
13 *95:12 0.000491838
14 *95:13 7.22374e-05
15 *95:14 6.35388e-05
16 *95:15 0.00027839
17 *95:16 0.000182443
18 *95:17 0.000182443
19 *95:18 0.000148676
20 *95:19 7.36644e-05
21 *95:20 0.000124794
22 *95:21 0.000264498
23 *95:22 5.51256e-05
24 *95:23 0.000560057
25 *95:24 5.09132e-05
26 *95:25 0.00031766
27 *95:26 6.25913e-05
28 *95:27 5.09132e-05
29 *95:28 0.000385696
30 *95:29 0.000140582
31 *95:30 0.000192614
32 *95:31 8.67694e-05
33 *95:32 0.000602991
34 *95:33 0.000105982
35 *95:34 0.000315468
36 *95:35 0.000271176
37 *95:36 0.000341096
38 *95:37 0.000222614
39 *95:35 *233:6 9.539e-05
40 *95:32 *233:7 9.539e-05
41 *95:32 *233:6 0.00011505
42 *95:28 *233:7 0.00011505
43 *95:28 *233:6 1.263e-05
44 *95:26 *233:7 1.263e-05
45 *95:25 *233:7 2.54e-05
46 *95:23 *233:8 2.54e-05
47 *95:7 *233:9 1.625e-05
48 *95:8 *233:10 1.625e-05
49 *95:7 *233:11 2.332e-05
50 *95:8 *233:12 2.33199885e-05
51 *95:36 *385:4 9.96e-06
52 *95:34 *385:5 9.96e-06
53 *95:16 *385:6 8.644e-05
54 *95:17 *385:7 8.644e-05
55 *95:18 *385:4 1.513e-05
56 *95:19 *385:5 1.513e-05
57 *95:31 *385:2 1.034e-05
58 *95:30 *385:3 1.03400017e-05
59 *95:16 *354:7 0.00011943
60 *95:17 *354:5 0.00011943
61 *95:18 *354:7 6.24e-05
62 *95:19 *354:5 6.24000009e-05

*RES
1 *95:24 *526:A2 6.4000001
2 *95:14 *95:24 6.4000001
3 *95:9 *536:D 3.2
4 *95:14 *95:13 0.183887
5 *95:10 *95:9 0.155957
6 *95:12 *95:13 0.155957
7 *95:11 *95:10 3.2
8 *95:12 *95:11 2.02246
9 *95:11 *95:15 1.10312
10 *95:29 *95:15 3.2
11 *95:33 *458:B 6.4000001
12 *95:29 *95:30 0.312012
13 *95:30 *95:33 0.367676
14 *95:30 *95:31 0.467969
15 *95:31 *95:17 0.0918945
16 *95:37 *444:QN 3.2
17 *95:17 *95:16 1.71602
18 *95:36 *95:37 0.551562
19 *95:19 *95:16 0.0918945
20 *95:34 *95:36 1.09199
21 *95:19 *95:18 0.467969
22 *95:35 *95:34 3.2
23 *95:27 *608:A1 6.4000001
24 *95:32 *95:18 3.2
25 *95:32 *95:35 1.4709
26 *95:28 *95:27 6.4000001
27 *95:28 *95:32 1.83857
28 *95:7 *600:A1 6.4000001
29 *95:26 *95:28 0.183887
30 *95:8 *95:7 1.55996
31 *95:25 *95:26 0.155957
32 *95:23 *95:8 3.2
33 *95:23 *95:25 1.4709
34 *95:22 *709:B1 3.2
35 *95:21 *95:23 1.10312
36 *95:20 *95:22 0.155957
37 *95:20 *95:21 3.2
*END

*D_NET *96 0.0116184

*CONN
*I *740:A I *C 100.65 83.72 *L 0.00346 *D INVX1
*I *709:A0 I *C 98.01 83.16 *L 0.00456 *D OAI22X1
*I *622:A1 I *C 103.95 93.24 *L 0.00456 *D OAI22X1
*I *621:A1 I *C 109.89 93.24 *L 0.00456 *D OAI22X1
*I *521:B0 I *C 99.99 77.56 *L 0.00441 *D AOI21X1
*I *504:A1 I *C 98.67 68.04 *L 0.00472 *D AOI211X1
*I *491:A0N I *C 114.51 67.48 *L 0.0019 *D OAI2BB2XL
*I *479:Q O *C 120.45 84.28 *L 0 *D DFFRHQX1

*CAP
1 *740:A 7.45799e-05
2 *709:A0 0.00013983
3 *622:A1 6.32951e-05
4 *621:A1 0.00013983
5 *521:B0 6.32951e-05
6 *504:A1 0.00013983
7 *491:A0N 3.98504e-05
8 *479:Q 0.00013983
9 *96:8 0.000134169
10 *96:9 0.000134169
11 *96:10 0.00010309
12 *96:11 0.000178023
13 *96:12 0.00037789
14 *96:13 0.00037789
15 *96:14 0.000331187
16 *96:15 0.000331187
17 *96:16 0.000400832
18 *96:17 0.000360423
19 *96:18 0.000301131
20 *96:19 0.00012173
21 *96:20 0.000746507
22 *96:21 0.00122037289
23 *96:22 0.00062433
24 *96:23 0.000150463
25 *96:24 9.14512e-05
26 *96:25 0.000161115
27 *96:26 0.000297612
28 *96:27 0.000143573
29 *96:28 0.00041666
30 *96:29 0.000356159
31 *96:30 0.00112894
32 *96:31 0.000673212
33 *96:32 0.000193815
34 *96:33 0.000114449
35 *96:34 0.000114449
36 *96:35 0.000576341
37 *96:36 0.000230499
38 *96:37 0.000230499
39 *96:38 7.51944e-05
40 *96:39 0.000120594

*RES
1 *96:38 *491:A0N 0.223828
2 *96:11 *504:A1 3.2
3 *96:15 *96:38 3.2
4 *96:8 *622:A1 6.4000001
5 *96:37 *621:A1 3.2
6 *96:11 *96:10 0.467969
7 *96:15 *96:14 1.09199
8 *96:9 *96:8 0.467969
9 *96:36 *96:37 0.467969
10 *96:10 *96:17 0.0918945
11 *96:12 *96:14 3.2
12 *96:29 *96:9 3.2
13 *96:27 *96:36 3.2
14 *96:34 *740:A 0.379785
15 *96:17 *96:16 1.71602
16 *96:13 *96:12 1.65469
17 *96:29 *96:28 1.10312
18 *96:28 *96:27 0.551562
19 *96:33 *96:34 0.223828
20 *96:16 *96:19 0.275781
21 *96:31 *96:13 3.2
22 *96:35 *96:28 3.2
23 *96:39 *479:Q 3.2
24 *96:32 *96:33 0.379785
25 *96:18 *521:B0 6.4000001
26 *96:19 *96:18 0.467969
27 *96:31 *96:30 2.80801
28 *96:30 *96:35 2.65195
29 *96:20 *96:39 3.2
30 *96:26 *96:32 3.2
31 *96:18 *96:26 1.09199
32 *96:21 *96:30 3.2
33 *96:21 *96:20 3.49326
34 *96:22 *96:26 3.2
35 *96:22 *96:21 2.20625
36 *96:24 *709:A0 3.2
37 *96:23 *96:22 0.551562
38 *96:25 *96:24 0.467969
39 *96:25 *96:23 3.2
*END

*D_NET *97 0.00829591

*CONN
*I *708:A0 I *C 70.95 77.56 *L 0.0034 *D AOI22XL
*I *626:B1 I *C 72.27 83.16 *L 0.00419 *D OAI22X1
*I *625:B1 I *C 76.23 83.16 *L 0.00419 *D OAI22X1
*I *623:B1 I *C 80.85 83.16 *L 0.00419 *D OAI22X1
*I *526:B2 I *C 96.69 73.64 *L 0.00472 *D OAI33X1
*I *457:B I *C 74.25 73.64 *L 0.00389 *D MXI2X1
*I *445:QN O *C 80.85 89.32 *L 0 *D DFFRX1

*CAP
1 *708:A0 6.33013e-05
2 *626:B1 7.45765e-05
3 *625:B1 6.33013e-05
4 *623:B1 0.000139844
5 *526:B2 0.000139844
6 *457:B 0.000139844
7 *445:QN 0.000139844
8 *97:7 7.15141e-05
9 *97:8 0.000141184
10 *97:9 0.000110177
11 *97:10 0.000342519
12 *97:11 0.000252457
13 *97:12 0.000550467
14 *97:13 0.000550467
15 *97:14 0.000160567
16 *97:15 0.000223538
17 *97:16 0.000887366
18 *97:17 0.00114031
19 *97:18 0.000362529
20 *97:19 0.000352455
21 *97:20 0.000328391
22 *97:21 0.00019923
23 *97:22 0.000325954
24 *97:23 0.000168049
25 *97:24 0.00020532
26 *97:25 0.000449843
27 *97:26 0.000380173
28 *97:27 0.0001206
29 *97:28 0.000212245

*RES
1 *97:8 *457:B 3.2
2 *97:13 *526:B2 3.2
3 *97:28 *445:QN 3.2
4 *97:8 *97:7 0.312012
5 *97:13 *97:12 2.02803
6 *97:20 *623:B1 3.2
7 *97:20 *97:28 1.09199
8 *97:27 *97:7 3.2
9 *97:14 *625:B1 6.4000001
10 *97:16 *97:12 3.2
11 *97:21 *97:20 0.624023
12 *97:26 *97:27 3.2
13 *97:15 *97:14 0.624023
14 *97:17 *97:16 4.4126
15 *97:17 *97:21 3.2
16 *97:23 *626:B1 0.379785
17 *97:26 *97:25 1.71602
18 *97:18 *97:15 3.2
19 *97:18 *97:17 1.28701
20 *97:24 *97:23 0.447656
21 *97:19 *97:25 3.2
22 *97:19 *97:18 0.551562
23 *97:9 *97:24 3.2
24 *97:22 *97:19 0.919238
25 *97:10 *97:9 0.312012
26 *97:10 *97:22 3.2
27 *97:11 *97:10 0.936035
28 *708:A0 *97:11 6.4000001
*END

*D_NET *98 0.00786748

*CONN
*I *708:A1 I *C 71.61 78.12 *L 0.00344 *D AOI22XL
*I *614:A1N I *C 80.85 77.56 *L 0.0024 *D AOI2BB1X1
*I *604:A1 I *C 75.57 78.12 *L 0.00472 *D AOI22X1
*I *527:C0 I *C 79.53 68.04 *L 0.00317 *D AOI211XL
*I *492:B I *C 70.95 67.48 *L 0.002 *D MXI2XL
*I *478:QN O *C 65.67 79.24 *L 0 *D DFFRX1

*CAP
1 *708:A1 6.33071e-05
2 *614:A1N 6.33071e-05
3 *604:A1 6.33071e-05
4 *527:C0 6.33071e-05
5 *492:B 0.000139839
6 *478:QN 0.000139839
7 *98:6 0.000105602
8 *98:7 0.000120525
9 *98:8 0.000147658
10 *98:9 0.000430132
11 *98:10 0.000399323
12 *98:11 0.000303601
13 *98:12 0.000267551
14 *98:13 0.000348339
15 *98:14 0.000613767
16 *98:15 0.000613767
17 *98:16 0.000146861
18 *98:17 0.000161784
19 *98:18 0.000320367
20 *98:19 0.000161742
21 *98:20 0.000161742
22 *98:21 0.00067869
23 *98:22 0.000609004
24 *98:23 0.00025006
25 *98:24 0.000315428
26 *98:25 0.000203757
27 *98:26 0.000284131
28 *98:27 0.00018262
29 *98:28 5.51154e-05
30 *98:29 0.000284131
31 *98:9 *352:7 8.446e-05
32 *98:18 *352:6 8.44600001e-05

*RES
1 *98:16 *614:A1N 6.4000001
2 *98:17 *98:16 0.624023
3 *98:17 *98:12 0.183887
4 *98:13 *98:12 1.09199
5 *98:10 *98:13 0.551562
6 *98:11 *527:C0 6.4000001
7 *98:11 *98:10 0.936035
8 *98:14 *98:11 3.2
9 *98:6 *708:A1 6.4000001
10 *98:28 *492:B 3.2
11 *98:15 *98:14 2.39014
12 *98:7 *98:6 0.312012
13 *98:20 *604:A1 6.4000001
14 *98:28 *98:18 0.155957
15 *98:18 *98:15 3.2
16 *98:8 *98:7 0.183887
17 *98:20 *98:19 0.467969
18 *98:18 *98:9 1.71602
19 *98:9 *98:8 0.77998
20 *98:21 *98:19 3.2
21 *98:29 *98:9 3.2
22 *98:22 *98:21 2.75781
23 *98:26 *98:29 1.34297
24 *98:25 *98:22 3.2
25 *98:27 *98:26 3.2
26 *98:24 *98:25 0.77998
27 *98:24 *478:QN 3.2
28 *98:23 *98:27 0.367676
29 *98:23 *98:24 0.77998
*END

*D_NET *99 0.00438855

*CONN
*I *711:A1 I *C 84.81 52.92 *L 0.00472 *D AOI22X1
*I *603:A1 I *C 79.53 57.96 *L 0.00472 *D AOI22X1
*I *599:A0N I *C 76.89 63.56 *L 0.00185 *D OAI2BB1X1
*I *459:A I *C 82.17 53.48 *L 0.00377 *D MXI2X1
*I *446:QN O *C 80.19 49 *L 0 *D DFFRX1

*CAP
1 *711:A1 6.32974e-05
2 *603:A1 6.32974e-05
3 *599:A0N 6.32974e-05
4 *459:A 0.000139841
5 *446:QN 6.32974e-05
6 *99:5 0.000411079
7 *99:6 0.00045094
8 *99:7 7.1066e-05
9 *99:8 7.1066e-05
10 *99:9 6.18249e-05
11 *99:10 0.000150836
12 *99:11 0.00031079
13 *99:12 0.000391578
14 *99:13 0.00033274
15 *99:14 0.000337364
16 *99:15 0.000209448
17 *99:16 0.0001865
18 *99:17 0.000176213
19 *99:18 0.000176213
20 *99:19 0.000112936
21 *99:20 0.000272463
22 *99:21 0.000272463

*RES
1 *99:8 *711:A1 6.4000001
2 *99:8 *99:7 0.155957
3 *99:21 *99:7 3.2
4 *99:20 *99:21 0.735449
5 *99:16 *446:QN 6.4000001
6 *99:19 *459:A 3.2
7 *99:19 *99:20 3.2
8 *99:6 *99:16 0.735449
9 *99:17 *99:19 0.367676
10 *99:6 *99:5 1.71602
11 *99:17 *99:18 0.467969
12 *99:5 *99:13 0.551562
13 *99:13 *99:18 0.367676
14 *99:14 *603:A1 6.4000001
15 *99:13 *99:14 0.77998
16 *99:14 *99:15 0.77998
17 *99:11 *99:15 0.183887
18 *99:11 *99:12 0.936035
19 *99:10 *99:12 0.551562
20 *99:9 *99:10 0.155957
21 *599:A0N *99:9 6.4000001
*END

*D_NET *100 0.013439

*CONN
*I *711:A0 I *C 84.15 53.48 *L 0.00465 *D AOI22X1
*I *620:B1 I *C 63.03 63 *L 0.00419 *D OAI22X1
*I *619:B1 I *C 68.97 57.96 *L 0.00419 *D OAI22X1
*I *618:A1 I *C 67.65 63.56 *L 0.00324 *D OAI21XL
*I *617:A1 I *C 66.33 57.4 *L 0.00324 *D OAI21XL
*I *541:C0 I *C 86.79 63 *L 0.00317 *D AOI211XL
*I *511:A1 I *C 86.79 68.04 *L 0.00472 *D AOI211X1
*I *509:A0N I *C 91.41 67.48 *L 0.00185 *D OAI2BB1X1
*I *490:A I *C 86.79 43.4 *L 0.0026 *D MXI2XL
*I *473:QN O *C 80.19 41.72 *L 0 *D DFFRX1

*CAP
1 *711:A0 6.32999e-05
2 *620:B1 0.00013984
3 *619:B1 0.00013984
4 *618:A1 0.00013984
5 *617:A1 0.00013984
6 *541:C0 6.32999e-05
7 *511:A1 0.00013984
8 *509:A0N 6.32999e-05
9 *490:A 0.00013984
10 *473:QN 0.00013984
11 *100:10 0.000281563
12 *100:11 0.000275248
13 *100:12 0.000199409
14 *100:13 0.000269098
15 *100:14 7.01322e-05
16 *100:15 7.01322e-05
17 *100:16 0.000337809
18 *100:17 0.000337809
19 *100:18 0.000237947
20 *100:19 8.99642e-05
21 *100:20 0.000277094
22 *100:21 7.10739e-05
23 *100:22 0.00039086
24 *100:23 0.000390602
25 *100:24 0.000123996
26 *100:25 0.000179301
27 *100:26 0.000129831
28 *100:27 6.78055e-05
29 *100:28 0.000107506
30 *100:29 0.000311865
31 *100:30 0.000229804
32 *100:31 0.000812023
33 *100:32 0.000881693
34 *100:33 0.000289115
35 *100:34 0.000215105
36 *100:35 0.000215105
37 *100:36 0.000216342
38 *100:37 0.000216342
39 *100:38 0.000128779
40 *100:39 5.91082e-05
41 *100:40 0.000405227
42 *100:41 0.00121014
43 *100:42 0.000925512
44 *100:43 0.000112566
45 *100:44 0.000184305
46 *100:45 0.000120599
47 *100:34 *313:8 0.00011579
48 *100:35 *313:7 0.000115790003
49 *100:34 *335:6 0.00012316
50 *100:35 *335:7 0.00012316
51 *100:33 *335:2 4.41e-06
52 *100:20 *335:3 4.40999266e-06
53 *100:31 *250:14 9.417e-05
54 *100:32 *250:11 9.417e-05
55 *100:31 *250:11 0.00015329
56 *100:32 *250:8 0.000153289998
57 *100:31 *241:9 8.288e-05
58 *100:32 *241:5 8.288e-05
59 *100:31 *241:5 9.026e-05
60 *100:32 *241:6 9.02600063e-05
61 *100:16 *357:7 0.00025075
62 *100:17 *357:5 0.000250750012

*RES
1 *100:24 *711:A0 6.4000001
2 *100:15 *509:A0N 6.4000001
3 *100:25 *100:24 0.467969
4 *100:15 *100:14 0.155957
5 *100:25 *100:22 0.367676
6 *100:34 *100:14 6.4000001
7 *100:23 *100:22 1.55996
8 *100:39 *473:QN 3.2
9 *100:35 *100:34 1.28701
10 *100:19 *490:A 3.2
11 *100:23 *100:44 0.367676
12 *100:39 *100:38 0.155957
13 *100:21 *541:C0 6.4000001
14 *100:33 *511:A1 3.2
15 *100:33 *100:35 3.2
16 *100:19 *100:18 0.312012
17 *100:18 *100:44 0.467969
18 *100:17 *100:38 3.2
19 *100:21 *100:20 0.155957
20 *100:20 *100:33 1.24805
21 *100:16 *100:18 3.2
22 *100:17 *100:16 1.83857
23 *100:45 *100:20 3.2
24 *100:42 *100:16 3.2
25 *100:40 *100:45 3.2
26 *100:42 *100:41 3.9
27 *100:41 *100:40 1.404
28 *100:31 *100:41 3.2
29 *100:27 *619:B1 3.2
30 *100:32 *100:31 4.96416
31 *100:27 *100:26 0.155957
32 *100:26 *100:32 3.2
33 *100:30 *100:26 0.367676
34 *100:28 *618:A1 3.2
35 *100:30 *100:29 0.77998
36 *100:29 *100:28 0.467969
37 *100:11 *617:A1 3.2
38 *100:43 *100:29 0.367676
39 *100:11 *100:10 0.77998
40 *100:10 *100:43 0.155957
41 *100:36 *100:10 3.2
42 *100:12 *620:B1 3.2
43 *100:37 *100:36 0.919238
44 *100:13 *100:12 0.624023
45 *100:13 *100:37 3.2
*END

*D_NET *101 0.0133096

*CONN
*I *710:A0 I *C 121.77 53.48 *L 0.00465 *D AOI22X1
*I *628:B1 I *C 123.09 63 *L 0.00419 *D OAI22X1
*I *627:B1 I *C 118.47 63 *L 0.00419 *D OAI22X1
*I *624:B1 I *C 121.77 57.96 *L 0.00419 *D OAI22X1
*I *532:D I *C 98.67 63.56 *L 0.00307 *D NAND4BXL
*I *523:A2 I *C 96.69 57.96 *L 0.00467 *D OAI32X1
*I *456:A I *C 113.85 47.32 *L 0.00377 *D MXI2X1
*I *447:QN O *C 127.71 49 *L 0 *D DFFRX1

*CAP
1 *710:A0 6.32925e-05
2 *628:B1 0.000139842
3 *627:B1 0.000139842
4 *624:B1 6.32925e-05
5 *532:D 0.000139842
6 *523:A2 0.000139842
7 *456:A 0.000139842
8 *447:QN 0.000139842
9 *101:8 0.000177549
10 *101:9 0.000177549
11 *101:10 5.51229e-05
12 *101:11 0.000124801
13 *101:12 8.79489e-05
14 *101:13 0.000157641
15 *101:14 0.00024823
16 *101:15 0.000309222
17 *101:16 0.000306464
18 *101:17 0.000306464
19 *101:18 0.000156771
20 *101:19 0.000156771
21 *101:20 0.000127868
22 *101:21 0.000113048
23 *101:22 0.000428655
24 *101:23 0.000149059
25 *101:24 0.000597209
26 *101:25 0.000308912
27 *101:26 0.000851485
28 *101:27 0.000842784
29 *101:28 0.000873236
30 *101:29 0.000873236
31 *101:30 0.000142231
32 *101:31 0.000142231
33 *101:32 0.000120598
34 *101:33 6.5711e-05
35 *101:34 0.000120598
36 *101:35 0.000215433
37 *101:36 0.000432209
38 *101:37 0.000206733
39 *101:38 0.00096642
40 *101:39 0.000654809
41 *101:26 *303:16 0.00015545
42 *101:27 *303:17 0.00015545
43 *101:26 *303:17 6.308e-05
44 *101:27 *303:18 6.308e-05
45 *101:26 *303:18 0.00024751
46 *101:27 *303:19 0.000247509988
47 *101:26 *318:28 0.00015423
48 *101:27 *318:16 0.00015423
49 *101:26 *318:16 0.00015233
50 *101:27 *318:17 0.00015233
51 *101:26 *318:30 4.898e-05
52 *101:27 *318:18 4.898e-05
53 *101:26 *318:18 1.263e-05
54 *101:27 *318:19 1.263e-05
55 *101:26 *318:12 2.163e-05
56 *101:27 *318:13 2.163e-05
57 *101:18 *318:27 5.954e-05
58 *101:19 *318:25 5.954e-05
59 *101:8 *318:25 8.09e-06
60 *101:9 *318:24 8.08999065e-06

*RES
1 *101:33 *624:B1 6.4000001
2 *101:33 *101:16 0.183887
3 *101:17 *101:16 0.77998
4 *101:20 *101:17 0.183887
5 *101:21 *710:A0 6.4000001
6 *101:21 *101:20 0.467969
7 *101:12 *456:A 3.2
8 *101:15 *101:21 3.2
9 *101:13 *101:12 0.312012
10 *101:10 *447:QN 3.2
11 *101:15 *101:14 0.735449
12 *101:29 *101:13 3.2
13 *101:11 *101:10 0.155957
14 *101:35 *101:14 0.155957
15 *101:29 *101:28 3.86104
16 *101:28 *101:11 3.2
17 *101:35 *101:37 0.919238
18 *101:36 *101:28 3.2
19 *101:38 *101:37 3.2
20 *101:36 *101:38 1.87197
21 *101:38 *101:39 2.80801
22 *101:34 *628:B1 3.2
23 *101:25 *101:39 3.2
24 *101:32 *627:B1 3.2
25 *101:24 *101:34 3.2
26 *101:24 *101:25 1.28701
27 *101:22 *101:32 3.2
28 *101:22 *101:24 1.28701
29 *101:23 *101:22 0.367676
30 *101:23 *101:26 0.155957
31 *101:27 *101:26 5.14805
32 *101:31 *532:D 3.2
33 *101:31 *101:27 3.2
34 *101:18 *101:31 0.183887
35 *101:19 *101:18 0.77998
36 *101:8 *101:19 0.183887
37 *101:9 *101:8 0.77998
38 *101:30 *101:9 0.183887
39 *523:A2 *101:30 3.2
*END

*D_NET *102 0.00766105

*CONN
*I *710:A1 I *C 122.43 52.92 *L 0.00472 *D AOI22X1
*I *609:A1 I *C 113.19 57.96 *L 0.00472 *D AOI22X1
*I *524:C0 I *C 102.63 57.96 *L 0.00317 *D AOI211XL
*I *489:A I *C 117.15 43.4 *L 0.0026 *D MXI2XL
*I *472:QN O *C 127.05 38.92 *L 0 *D DFFRX1

*CAP
1 *710:A1 6.3301e-05
2 *609:A1 6.3301e-05
3 *524:C0 6.3301e-05
4 *489:A 0.000647197
5 *472:QN 6.3301e-05
6 *102:5 0.000240514
7 *102:6 0.000240514
8 *102:7 0.000186805
9 *102:8 0.00025648
10 *102:9 5.99358e-05
11 *102:10 0.000129611
12 *102:11 0.000800765
13 *102:12 0.00097153
14 *102:13 0.000613575
15 *102:14 0.000697601
16 *102:15 0.000431855
17 *102:16 0.000204624
18 *102:17 0.000253842
19 *102:18 0.000431855
20 *102:19 0.000262129
21 *102:20 0.000647197
22 *102:21 0.000331804

*RES
1 *102:19 *472:QN 6.4000001
2 *102:9 *710:A1 6.4000001
3 *102:19 *102:21 1.24805
4 *102:10 *102:9 0.155957
5 *102:20 *102:21 3.2
6 *102:18 *102:10 3.2
7 *489:A *102:20 3.35742
8 *102:15 *102:18 1.4709
9 *102:13 *489:A 3.2
10 *102:14 *102:15 3.2
11 *102:13 *102:14 2.496
12 *102:7 *609:A1 6.4000001
13 *102:14 *102:16 0.77998
14 *102:8 *102:7 0.77998
15 *102:17 *102:16 3.2
16 *102:12 *102:8 3.2
17 *102:12 *102:17 1.10312
18 *102:5 *524:C0 6.4000001
19 *102:11 *102:12 2.9417
20 *102:6 *102:5 0.77998
21 *102:6 *102:11 3.2
*END

*D_NET *103 0.00385787

*CONN
*I *663:A1 I *C 65.01 27.16 *L 0.00314 *D AOI21XL
*I *662:B0 I *C 70.95 37.24 *L 0.00441 *D AOI21X1
*I *465:Q O *C 80.85 33.88 *L 0 *D DFFRHQX1

*CAP
1 *663:A1 0.000139835
2 *662:B0 6.32987e-05
3 *465:Q 0.000139835
4 *103:3 0.000328259
5 *103:4 0.000258589
6 *103:5 0.000278546
7 *103:6 0.00034823
8 *103:7 0.000352941
9 *103:8 0.0008772
10 *103:9 0.000120601
11 *103:10 0.000537657
12 *103:5 *198:3 0.00020644
13 *103:6 *198:4 0.000206439997

*RES
1 *103:5 *662:B0 6.4000001
2 *103:9 *465:Q 3.2
3 *103:6 *103:5 1.71602
4 *103:10 *103:9 3.2
5 *103:8 *103:6 3.2
6 *103:8 *103:10 2.75781
7 *103:7 *103:8 1.65469
8 *103:3 *103:7 3.2
9 *103:4 *103:3 1.09199
10 *663:A1 *103:4 3.2
*END

*D_NET *104 0.00403277

*CONN
*I *671:A1 I *C 57.75 47.32 *L 0.00314 *D AOI21XL
*I *661:B0 I *C 60.39 53.48 *L 0.00441 *D AOI21X1
*I *453:Q O *C 65.67 43.96 *L 0 *D DFFRHQX1

*CAP
1 *671:A1 7.97332e-05
2 *661:B0 6.32991e-05
3 *453:Q 4.12103e-05
4 *104:3 0.000379143
5 *104:4 0.000489194
6 *104:5 0.00049609
7 *104:6 0.00049609
8 *104:7 0.000224378
9 *104:8 0.000224378
10 *104:9 0.000160973
11 *104:10 0.000360393
12 *104:11 0.000360393
13 *104:12 0.000115062
14 *104:13 0.000120595
15 *104:14 7.65387e-05
16 *104:5 *368:9 0.00015873
17 *104:6 *368:7 0.00015873
18 *104:7 *368:10 1.392e-05
19 *104:8 *368:8 1.39199866e-05

*RES
1 *104:13 *661:B0 6.4000001
2 *453:Q *104:14 0.223828
3 *104:10 *104:13 3.2
4 *104:8 *104:14 3.2
5 *104:11 *104:10 1.10312
6 *104:8 *104:7 0.624023
7 *104:12 *671:A1 0.447656
8 *104:3 *104:11 3.2
9 *104:5 *104:7 3.2
10 *104:4 *104:12 3.2
11 *104:4 *104:3 1.71602
12 *104:6 *104:5 2.75781
13 *104:9 *104:4 0.312012
14 *104:9 *104:6 3.2
*END

*D_NET *105 0.00248198

*CONN
*I *665:A1 I *C 40.59 47.32 *L 0.00314 *D AOI21XL
*I *660:B0 I *C 45.87 47.32 *L 0.00441 *D AOI21X1
*I *467:Q O *C 36.63 43.96 *L 0 *D DFFRHQX1

*CAP
1 *665:A1 6.22096e-05
2 *660:B0 6.32969e-05
3 *467:Q 8.23986e-05
4 *105:3 9.75365e-05
5 *105:4 0.000505380625
6 *105:5 0.000505380625
7 *105:6 0.000117733
8 *105:7 0.000182357
9 *105:8 0.000219218
10 *105:9 0.000252309
11 *105:10 0.000139071
12 *105:11 0.000162383
13 *105:12 9.27013e-05

*RES
1 *105:12 *660:B0 6.4000001
2 *105:11 *105:12 0.312012
3 *105:4 *105:11 3.2
4 *105:3 *665:A1 0.447656
5 *105:5 *105:4 1.83857
6 *105:10 *105:3 3.2
7 *105:9 *105:5 3.2
8 *105:9 *105:10 0.312012
9 *105:8 *105:9 0.624023
10 *105:7 *105:8 0.367676
11 *105:6 *105:7 3.2
12 *467:Q *105:6 0.447656
*END

*D_NET *106 0.0029665

*CONN
*I *677:B0 I *C 61.05 67.48 *L 0.00441 *D AOI21X1
*I *664:A1 I *C 56.43 67.48 *L 0.00314 *D AOI21XL
*I *455:Q O *C 64.35 56.84 *L 0 *D DFFRHQX1

*CAP
1 *677:B0 6.32956e-05
2 *664:A1 0.000139838
3 *455:Q 0.000139838
4 *106:3 0.000179231
5 *106:4 0.000179231
6 *106:5 0.000411069
7 *106:6 0.00050679
8 *106:7 0.00036266
9 *106:8 0.000274363
10 *106:9 0.00022757
11 *106:10 0.000157895
12 *106:11 0.000171381
13 *106:12 0.00015334

*RES
1 *106:12 *455:Q 3.2
2 *106:6 *106:12 0.551562
3 *106:10 *677:B0 6.4000001
4 *106:6 *106:5 1.71602
5 *106:9 *106:10 0.467969
6 *106:11 *106:5 3.2
7 *106:7 *106:9 3.2
8 *106:7 *106:11 0.367676
9 *106:3 *664:A1 3.2
10 *106:8 *106:7 1.28701
11 *106:4 *106:3 0.467969
12 *106:4 *106:8 3.2
*END

*D_NET *107 0.00289686

*CONN
*I *670:A1 I *C 129.69 57.4 *L 0.00314 *D AOI21XL
*I *656:B0 I *C 128.37 57.4 *L 0.00441 *D AOI21X1
*I *466:Q O *C 142.89 54.04 *L 0 *D DFFRHQX1

*CAP
1 *670:A1 6.33041e-05
2 *656:B0 6.33041e-05
3 *466:Q 0.000139841
4 *107:3 0.00088044
5 *107:4 0.00088044
6 *107:5 0.000105973
7 *107:6 0.000123666
8 *107:7 0.00011574
9 *107:8 0.00019843
10 *107:9 0.000183638
11 *107:10 0.000142098

*RES
1 *107:10 *466:Q 3.2
2 *107:8 *107:10 0.183887
3 *107:8 *107:9 0.77998
4 *107:3 *107:9 3.2
5 *107:4 *107:3 3.49326
6 *107:6 *107:4 3.2
7 *107:7 *670:A1 6.4000001
8 *107:6 *107:7 0.155957
9 *107:5 *107:7 0.367676
10 *656:B0 *107:5 6.4000001
*END

*D_NET *108 0.00294635

*CONN
*I *672:A1 I *C 132.33 73.64 *L 0.00314 *D AOI21XL
*I *658:B0 I *C 127.71 73.64 *L 0.00441 *D AOI21X1
*I *452:Q O *C 142.89 66.92 *L 0 *D DFFRHQX1

*CAP
1 *672:A1 8.2125e-05
2 *658:B0 6.33013e-05
3 *452:Q 0.000139839
4 *108:3 0.000328049
5 *108:4 0.000294186
6 *108:5 0.00011745
7 *108:6 6.57191e-05
8 *108:7 9.95759e-05
9 *108:8 0.000220359
10 *108:9 0.000438908
11 *108:10 0.000220359
12 *108:11 0.000158479
13 *108:12 0.00044761
14 *108:13 0.000120599
15 *108:14 0.000149784

*RES
1 *108:13 *452:Q 3.2
2 *108:14 *108:13 3.2
3 *108:11 *108:14 0.919238
4 *108:11 *108:12 0.155957
5 *108:9 *108:12 2.39014
6 *108:5 *672:A1 0.447656
7 *108:4 *108:9 3.2
8 *108:3 *108:5 3.2
9 *108:4 *108:3 0.936035
10 *108:3 *108:10 0.312012
11 *108:8 *108:10 0.735449
12 *108:7 *108:8 0.312012
13 *108:6 *108:7 0.183887
14 *658:B0 *108:6 6.4000001
*END

*D_NET *109 0.00415342

*CONN
*I *667:A1 I *C 124.41 93.8 *L 0.00314 *D AOI21XL
*I *657:B0 I *C 123.09 93.8 *L 0.00441 *D AOI21X1
*I *464:Q O *C 142.23 87.08 *L 0 *D DFFRHQX1

*CAP
1 *667:A1 6.3299e-05
2 *657:B0 6.3299e-05
3 *464:Q 0.000139841
4 *109:3 0.000149925
5 *109:4 0.000204986
6 *109:5 0.000429079
7 *109:6 0.000420374
8 *109:7 0.000350669
9 *109:8 0.000350669
10 *109:9 0.000109566
11 *109:10 0.000118271
12 *109:11 0.000105978
13 *109:12 0.00048592
14 *109:13 0.00048592
15 *109:5 *81:5 0.00020717
16 *109:6 *81:6 0.00020717
17 *109:7 *81:9 8.197e-05
18 *109:8 *81:10 8.197e-05
19 *109:9 *81:9 3.678e-05
20 *109:10 *81:10 3.678e-05
21 *109:5 *81:9 1.188e-05
22 *109:6 *81:10 1.18800033e-05

*RES
1 *109:12 *464:Q 3.2
2 *109:12 *109:13 1.71602
3 *109:9 *109:13 3.2
4 *109:10 *109:9 0.551562
5 *109:10 *109:7 0.155957
6 *109:8 *109:7 2.02246
7 *109:5 *109:8 0.155957
8 *109:6 *109:5 2.39014
9 *109:3 *109:6 6.4000001
10 *109:4 *667:A1 6.4000001
11 *109:4 *109:3 0.624023
12 *109:11 *109:4 0.367676
13 *657:B0 *109:11 6.4000001
*END

*D_NET *110 0.00175623

*CONN
*I *669:A1 I *C 125.07 83.72 *L 0.00314 *D AOI21XL
*I *659:B0 I *C 122.43 83.72 *L 0.00441 *D AOI21X1
*I *454:Q O *C 127.71 77 *L 0 *D DFFRHQX1

*CAP
1 *669:A1 7.97316e-05
2 *659:B0 6.32973e-05
3 *454:Q 0.000139841
4 *110:3 0.000203256
5 *110:4 0.000203256
6 *110:5 0.000105982
7 *110:6 0.000115059
8 *110:7 0.000105982
9 *110:8 5.9441e-05
10 *110:9 0.00031047
11 *110:10 0.00017062
12 *110:11 0.000199291

*RES
1 *110:4 *454:Q 3.2
2 *110:4 *110:3 0.467969
3 *110:11 *110:3 3.2
4 *110:9 *110:11 0.919238
5 *110:9 *110:10 0.624023
6 *110:6 *669:A1 0.447656
7 *110:8 *110:10 0.183887
8 *110:7 *110:6 6.4000001
9 *110:7 *110:8 6.4000001
10 *110:5 *110:7 0.367676
11 *659:B0 *110:5 6.4000001
*END

*D_NET *111 0.00323943

*CONN
*I *674:A1 I *C 80.85 97.72 *L 0.00314 *D AOI21XL
*I *653:B0 I *C 90.75 97.72 *L 0.00441 *D AOI21X1
*I *463:Q O *C 94.71 94.36 *L 0 *D DFFRHQX1

*CAP
1 *674:A1 0.000139845
2 *653:B0 6.33062e-05
3 *463:Q 0.000139845
4 *111:3 0.000283392
5 *111:4 0.000353071
6 *111:5 0.000120605
7 *111:6 0.000485577
8 *111:7 0.000120605
9 *111:8 0.00053203
10 *111:9 0.000199222
11 *111:9 *177:5 3.79e-05
12 *111:8 *177:6 3.79e-05
13 *111:8 *177:6 0.00013997
14 *111:6 *177:7 0.00013997
15 *111:9 *378:14 5.2e-05
16 *111:8 *378:15 5.2e-05
17 *111:8 *378:14 1.889e-05
18 *111:6 *378:15 1.889e-05
19 *111:8 *378:12 0.00015222
20 *111:6 *378:13 0.000152219999

*RES
1 *111:4 *463:Q 3.2
2 *111:4 *111:3 0.936035
3 *111:7 *653:B0 6.4000001
4 *111:9 *111:3 3.2
5 *111:8 *111:7 3.2
6 *111:8 *111:9 1.10312
7 *111:6 *111:8 2.75781
8 *111:5 *111:6 3.2
9 *674:A1 *111:5 3.2
*END

*D_NET *112 0.00353104

*CONN
*I *668:A1 I *C 59.07 93.8 *L 0.00314 *D AOI21XL
*I *649:B0 I *C 65.67 93.8 *L 0.00441 *D AOI21X1
*I *451:Q O *C 66.99 84.28 *L 0 *D DFFRHQX1

*CAP
1 *668:A1 3.98561e-05
2 *649:B0 6.32978e-05
3 *451:Q 0.000139838
4 *112:3 0.000358638
5 *112:4 0.00043943
6 *112:5 0.000303025
7 *112:6 0.000242161
8 *112:7 0.000349499
9 *112:8 0.000364432
10 *112:9 0.000136486
11 *112:10 0.000127682
12 *112:11 7.71643e-05
13 *112:12 0.000156528
14 *112:13 5.09198e-05
15 *112:14 0.000153336
16 *112:3 *56:105 0.00022259
17 *112:4 *56:104 0.00022259
18 *112:3 *56:69 4.178e-05
19 *112:4 *56:70 4.17800093e-05

*RES
1 *112:14 *451:Q 3.2
2 *112:4 *112:14 0.551562
3 *112:4 *112:3 2.34004
4 *112:3 *112:8 0.183887
5 *112:7 *649:B0 6.4000001
6 *112:8 *112:7 1.09199
7 *112:5 *112:7 3.2
8 *112:6 *112:5 1.28701
9 *112:6 *112:9 0.155957
10 *112:10 *112:9 0.367676
11 *112:13 *112:10 6.4000001
12 *112:12 *112:13 3.2
13 *112:11 *112:12 0.189941
14 *668:A1 *112:11 0.223828
*END

*D_NET *113 0.00367997

*CONN
*I *675:A1 I *C 83.49 113.96 *L 0.00314 *D AOI21XL
*I *654:B0 I *C 81.51 107.8 *L 0.00441 *D AOI21X1
*I *462:Q O *C 96.69 107.24 *L 0 *D DFFRHQX1

*CAP
1 *675:A1 3.98636e-05
2 *654:B0 6.33044e-05
3 *462:Q 0.000139837
4 *113:3 0.000121246
5 *113:4 0.000258157
6 *113:5 0.000165112
7 *113:6 0.000779848
8 *113:7 0.00084083
9 *113:8 6.57165e-05
10 *113:9 0.000153591
11 *113:10 0.000116306
12 *113:11 0.000114446
13 *113:12 0.000171463
14 *113:13 0.000120604
15 *113:14 0.000162764
16 *113:3 *53:183 8.193e-05
17 *113:4 *53:96 8.193e-05
18 *113:4 *53:183 8.061e-05
19 *113:5 *53:96 8.061e-05
20 *113:4 *53:96 2.089e-05
21 *113:5 *53:97 2.08900072e-05

*RES
1 *113:13 *462:Q 3.2
2 *113:11 *675:A1 0.223828
3 *113:14 *113:13 3.2
4 *113:10 *113:11 0.379785
5 *113:12 *113:14 0.551562
6 *113:9 *113:10 0.223828
7 *113:12 *113:6 0.155957
8 *113:3 *113:9 3.2
9 *113:7 *113:6 3.49326
10 *113:4 *113:3 0.624023
11 *113:4 *113:7 3.2
12 *113:5 *113:4 0.77998
13 *113:8 *113:5 0.183887
14 *654:B0 *113:8 6.4000001
*END

*D_NET *114 0.00299118

*CONN
*I *676:A1 I *C 70.95 107.8 *L 0.00314 *D AOI21XL
*I *655:B0 I *C 76.23 107.8 *L 0.00441 *D AOI21X1
*I *448:Q O *C 80.85 104.44 *L 0 *D DFFRHQX1

*CAP
1 *676:A1 0.000139837
2 *655:B0 6.32978e-05
3 *448:Q 0.000139837
4 *114:3 0.000300641
5 *114:4 0.000300641
6 *114:5 0.000306639824
7 *114:6 0.000306639824
8 *114:7 0.000120602
9 *114:8 0.000232192
10 *114:9 0.000232192
11 *114:10 0.000120602
12 *114:9 *132:9 0.00018786
13 *114:8 *132:10 0.000187859999
14 *114:9 *136:6 0.00012676
15 *114:8 *136:7 0.00012676
16 *114:9 *136:10 4.941e-05
17 *114:8 *136:11 4.94099976e-05

*RES
1 *114:10 *448:Q 3.2
2 *114:5 *114:10 3.2
3 *114:6 *114:5 1.28701
4 *114:4 *114:6 3.2
5 *114:3 *655:B0 6.4000001
6 *114:4 *114:3 0.936035
7 *114:9 *114:3 3.2
8 *114:8 *114:9 1.4709
9 *114:7 *114:8 3.2
10 *676:A1 *114:7 3.2
*END

*D_NET *115 0.0025255

*CONN
*I *651:B0 I *C 130.35 103.88 *L 0.00441 *D AOI21X1
*I *648:A1 I *C 131.67 103.88 *L 0.00314 *D AOI21XL
*I *460:Q O *C 142.89 97.16 *L 0 *D DFFRHQX1

*CAP
1 *651:B0 6.3306e-05
2 *648:A1 1.06581e-05
3 *460:Q 0.00013984
4 *115:3 0.000293959
5 *115:4 0.000337316
6 *115:5 9.04255e-05
7 *115:6 0.0006684
8 *115:7 5.33517e-05
9 *115:8 7.92268e-05
10 *115:9 0.000120605
11 *115:10 0.0006684

*RES
1 *115:9 *460:Q 3.2
2 *115:10 *115:9 3.2
3 *115:6 *115:10 3.12559
4 *115:7 *648:A1 0.0542969
5 *115:4 *115:6 3.2
6 *115:3 *115:7 3.2
7 *115:4 *115:3 0.936035
8 *115:3 *115:8 0.0780273
9 *115:5 *115:8 0.29668
10 *651:B0 *115:5 6.4000001
*END

*D_NET *116 0.000978561

*CONN
*I *673:A1 I *C 125.07 103.88 *L 0.00314 *D AOI21XL
*I *650:B0 I *C 123.09 97.72 *L 0.00441 *D AOI21X1
*I *449:Q O *C 123.75 104.44 *L 0 *D DFFRHQX1

*CAP
1 *673:A1 7.97318e-05
2 *650:B0 6.33015e-05
3 *449:Q 0.00021957
4 *116:3 0.000264371
5 *116:4 0.00027917
6 *116:5 7.24219e-05

*RES
1 *449:Q *673:A1 0.447656
2 *116:5 *449:Q 3.2
3 *116:4 *116:5 0.183887
4 *116:3 *116:4 1.09199
5 *650:B0 *116:3 6.4000001
*END

*D_NET *117 0.00274894

*CONN
*I *678:B0 I *C 110.55 113.96 *L 0.00441 *D AOI21X1
*I *647:A1 I *C 113.19 113.96 *L 0.00314 *D AOI21XL
*I *461:Q O *C 123.75 107.24 *L 0 *D DFFRHQX1

*CAP
1 *678:B0 6.33069e-05
2 *647:A1 7.97026e-05
3 *461:Q 0.000139837
4 *117:3 0.000287054
5 *117:4 0.000287054
6 *117:5 0.000115036
7 *117:6 0.00064573
8 *117:7 0.00063703
9 *117:8 0.000105981
10 *117:9 0.000182363
11 *117:10 0.000107272
12 *117:11 9.85715e-05

*RES
1 *117:4 *461:Q 3.2
2 *117:4 *117:3 0.936035
3 *117:11 *117:3 3.2
4 *117:10 *117:11 0.367676
5 *117:10 *117:6 0.155957
6 *117:5 *647:A1 0.447656
7 *117:7 *117:6 2.9417
8 *117:9 *117:5 3.2
9 *117:9 *117:7 3.2
10 *117:8 *117:9 0.367676
11 *678:B0 *117:8 6.4000001
*END

*D_NET *118 0.00291246

*CONN
*I *666:A1 I *C 101.97 113.96 *L 0.00314 *D AOI21XL
*I *652:B0 I *C 101.97 107.8 *L 0.00441 *D AOI21X1
*I *450:Q O *C 109.89 104.44 *L 0 *D DFFRHQX1

*CAP
1 *666:A1 0.00013984
2 *652:B0 6.32975e-05
3 *450:Q 6.32975e-05
4 *118:3 8.88711e-05
5 *118:4 0.000468670469
6 *118:5 0.000309944
7 *118:6 0.00040789
8 *118:7 0.000125937
9 *118:8 0.000151582
10 *118:9 0.000307777
11 *118:10 0.00040789
12 *118:11 0.000377461

*RES
1 *118:9 *450:Q 6.4000001
2 *118:9 *118:11 1.24805
3 *118:10 *118:11 3.2
4 *118:6 *118:10 2.01445
5 *118:7 *118:6 3.2
6 *118:5 *666:A1 3.2
7 *118:7 *118:8 0.155957
8 *118:4 *118:5 1.24805
9 *118:4 *118:8 0.551562
10 *118:3 *118:4 0.467969
11 *652:B0 *118:3 6.4000001
*END

*D_NET *119 0.00692101

*CONN
*I *751:S0 I *C 88.77 32.76 *L 0.00612 *D MXI2XL
*I *581:B I *C 102.63 23.24 *L 0.00375 *D NAND2X1
*I *577:A1 I *C 99.33 23.24 *L 0.00324 *D OAI21XL
*I *575:B I *C 85.47 23.24 *L 0.00389 *D MXI2X1
*I *519:A1 I *C 89.43 43.4 *L 0.00342 *D AOI211XL
*I *514:Q O *C 90.09 36.68 *L 0 *D DFFRHQX1

*CAP
1 *751:S0 0.000139838
2 *581:B 4.22712e-05
3 *577:A1 6.32971e-05
4 *575:B 0.000139838
5 *519:A1 0.000139838
6 *514:Q 0.000279676
7 *119:6 7.75979e-05
8 *119:7 0.000240823
9 *119:8 0.000255439
10 *119:9 0.000240781
11 *119:10 0.000240781
12 *119:11 0.000270605
13 *119:12 0.000200926
14 *119:13 0.000899430547
15 *119:14 0.000742807
16 *119:15 0.000185719
17 *119:16 0.000255398
18 *119:17 0.000299206
19 *119:18 0.000244322
20 *119:19 6.14854e-05
21 *119:20 6.14854e-05
22 *119:21 0.000120597
23 *119:22 0.000221114
24 *119:23 0.000586719
25 *119:24 0.000486202
26 *119:25 0.000182357
27 *119:26 7.24238e-05
28 *119:27 0.000170018

*RES
1 *119:17 *519:A1 3.2
2 *119:18 *119:17 0.936035
3 *119:18 *119:26 0.183887
4 *514:Q *119:26 3.2
5 *119:6 *581:B 0.223828
6 *119:25 *514:Q 3.2
7 *119:10 *119:6 3.2
8 *119:7 *119:25 0.367676
9 *119:12 *577:A1 6.4000001
10 *119:10 *119:9 0.624023
11 *119:8 *751:S0 3.2
12 *119:8 *119:7 1.09199
13 *119:12 *119:11 0.624023
14 *119:27 *119:9 3.2
15 *119:19 *119:8 3.2
16 *119:13 *119:11 3.2
17 *119:13 *119:27 0.735449
18 *119:20 *119:19 0.183887
19 *119:14 *119:13 3.12559
20 *119:24 *119:20 3.2
21 *119:23 *119:14 3.2
22 *119:23 *119:24 2.02803
23 *119:22 *119:23 0.624023
24 *119:15 *119:22 3.2
25 *119:16 *119:15 0.735449
26 *119:21 *119:16 3.2
27 *575:B *119:21 3.2
*END

*D_NET *120 0.0073955

*CONN
*I *751:B I *C 89.43 33.32 *L 0.002 *D MXI2XL
*I *586:A0N I *C 94.05 43.4 *L 0.00185 *D OAI2BB1X1
*I *585:A1 I *C 103.29 32.76 *L 0.00456 *D OAI22X1
*I *582:A1 I *C 99.99 42.84 *L 0.00472 *D AOI22X1
*I *568:B1 I *C 98.01 32.76 *L 0.00444 *D OAI2BB2X1
*I *568:A0N I *C 96.03 33.32 *L 0.00186 *D OAI2BB2X1
*I *564:B1 I *C 101.97 42.28 *L 0.00309 *D OAI22XL
*I *558:QN O *C 108.57 38.92 *L 0 *D DFFRX1

*CAP
1 *751:B 0.000139839
2 *586:A0N 7.97269e-05
3 *585:A1 6.32997e-05
4 *582:A1 6.32997e-05
5 *568:B1 0.000139839
6 *568:A0N 0.000139839
7 *564:B1 5.56564e-05
8 *558:QN 6.32997e-05
9 *120:8 0.00069861
10 *120:9 0.000397761
11 *120:10 0.000443663
12 *120:11 0.000443663
13 *120:12 0.00015196
14 *120:13 0.000226975
15 *120:14 0.000120598
16 *120:15 0.000169581
17 *120:16 0.000368584
18 *120:17 0.000109341
19 *120:18 0.000129478
20 *120:19 0.000115055
21 *120:20 0.000142099
22 *120:21 0.000120598
23 *120:22 0.000296521
24 *120:23 0.000115076
25 *120:24 0.000501697
26 *120:25 0.000120598
27 *120:26 0.000106377
28 *120:27 6.57302e-05
29 *120:28 6.99196e-05
30 *120:29 6.99196e-05
31 *120:30 9.0984e-05
32 *120:31 0.000134179
33 *120:32 0.000195037
34 *120:33 0.00023529
35 *120:34 7.10709e-05
36 *120:35 0.000490631
37 *120:36 0.000102156
38 *120:37 0.000347541

*RES
1 *120:27 *582:A1 6.4000001
2 *120:27 *120:29 0.183887
3 *120:30 *564:B1 0.223828
4 *120:28 *120:29 0.155957
5 *120:31 *120:30 3.2
6 *120:28 *120:31 0.183887
7 *120:19 *586:A0N 0.447656
8 *120:31 *120:33 0.367676
9 *120:20 *120:19 3.2
10 *120:32 *120:33 0.624023
11 *120:18 *120:20 0.183887
12 *120:32 *120:36 0.183887
13 *120:37 *558:QN 6.4000001
14 *120:17 *120:18 0.467969
15 *120:25 *568:B1 3.2
16 *120:34 *585:A1 6.4000001
17 *120:8 *120:36 0.312012
18 *120:8 *120:37 1.4709
19 *120:10 *120:17 0.0918945
20 *120:26 *120:25 3.2
21 *120:34 *120:9 0.155957
22 *120:9 *120:8 1.55996
23 *120:11 *120:10 1.87197
24 *120:23 *120:26 0.183887
25 *120:35 *120:9 3.2
26 *120:11 *120:12 0.0918945
27 *120:21 *568:A0N 3.2
28 *120:23 *120:24 0.155957
29 *120:24 *120:35 1.65469
30 *120:13 *120:12 0.467969
31 *120:22 *120:21 3.2
32 *120:22 *120:24 0.367676
33 *120:16 *120:13 3.2
34 *120:16 *120:22 1.10312
35 *120:15 *120:16 0.735449
36 *120:14 *120:15 3.2
37 *751:B *120:14 3.2
*END

*D_NET *121 0.00940971

*CONN
*I *706:Q O *C 66.99 104.44 *L 0 *D DFFRHQX1
*I *691:A I *C 64.35 33.32 *L 0.00346 *D INVX1
*I *662:A1 I *C 69.63 37.24 *L 0.00443 *D AOI21X1

*CAP
1 *706:Q 0.000139828
2 *691:A 0.000139828
3 *662:A1 8.34289e-05
4 *121:3 0.000190611
5 *121:4 0.000230863
6 *121:5 0.000182362
7 *121:6 0.000218869
8 *121:7 0.000218869
9 *121:8 9.39306e-05
10 *121:9 0.000120609
11 *121:10 0.00149909
12 *121:11 0.00151389
13 *121:12 0.00191708
14 *121:13 0.00191708
15 *121:14 0.000145152
16 *121:15 0.00014211
17 *121:16 0.000120609
18 *121:17 0.000120609
19 *121:18 7.24298e-05
20 *121:19 0.000184409
21 *121:20 0.000158023

*RES
1 *121:16 *706:Q 3.20007
2 *121:17 *121:16 3.20007
3 *121:18 *121:17 3.20007
4 *121:13 *121:18 0.183855
5 *121:12 *121:13 9.82800007
6 *121:7 *121:12 0.183855
7 *121:20 *662:A1 0.447641
8 *121:6 *121:7 1.248
9 *121:19 *121:20 0.379857
10 *121:6 *121:11 0.183855
11 *121:14 *121:19 0.447641
12 *121:10 *121:11 7.48797
13 *121:15 *121:14 3.20007
14 *121:9 *121:10 3.20007
15 *121:8 *121:15 0.183855
16 *121:8 *121:9 3.20007
17 *121:3 *121:8 0.183855
18 *121:4 *121:3 0.77996
19 *121:5 *121:4 0.36771
20 *691:A *121:5 3.20007
*END

*D_NET *122 0.00918832

*CONN
*I *697:Q O *C 66.99 107.24 *L 0 *D DFFRHQX1
*I *680:A I *C 57.09 53.48 *L 0.00346 *D INVX1
*I *661:A1 I *C 59.07 53.48 *L 0.00443 *D AOI21X1

*CAP
1 *697:Q 0.000139817
2 *680:A 0.000139817
3 *661:A1 0.000139817
4 *122:3 0.00259344
5 *122:4 0.00266673
6 *122:5 0.000128057
7 *122:6 0.000340996
8 *122:7 0.000341118
9 *122:8 0.000142217
10 *122:9 7.21871e-05
11 *122:10 0.000112553
12 *122:11 0.000259043
13 *122:12 0.000339572
14 *122:13 0.000222624
15 *122:14 0.000274547
16 *122:15 0.00012061
17 *122:16 0.000344211
18 *122:16 *54:150 6.364e-05
19 *122:14 *54:151 6.364e-05
20 *122:16 *54:151 0.00022272
21 *122:14 *54:152 0.000222719998
22 *122:3 *197:6 0.00011909
23 *122:4 *197:4 0.00011909

*RES
1 *122:15 *697:Q 3.19995
2 *122:16 *122:15 3.19995
3 *122:14 *122:16 1.65463
4 *122:13 *122:14 3.19995
5 *122:12 *122:13 0.551608
6 *122:11 *122:12 1.09209
7 *122:6 *122:11 0.183869
8 *122:7 *122:6 1.55996
9 *122:5 *661:A1 3.19995
10 *122:7 *122:3 0.183869
11 *122:5 *122:4 0.155957
12 *122:4 *122:3 12.7919998
13 *122:10 *122:4 0.367739
14 *122:9 *122:10 0.155957
15 *122:8 *122:9 0.183869
16 *680:A *122:8 3.19995
*END

*D_NET *123 0.0102098

*CONN
*I *701:Q O *C 35.97 107.24 *L 0 *D DFFRHQX1
*I *684:A I *C 37.29 47.32 *L 0.00346 *D INVX1
*I *660:A1 I *C 44.55 47.32 *L 0.00443 *D AOI21X1

*CAP
1 *701:Q 6.3295e-05
2 *684:A 0.00013982
3 *660:A1 0.00013982
4 *123:3 0.000277033
5 *123:4 0.000277033
6 *123:5 0.00322303
7 *123:6 0.000269803
8 *123:7 0.00307382
9 *123:8 0.000378787
10 *123:9 0.000448426
11 *123:10 0.00012059
12 *123:11 0.000399983
13 *123:12 0.000214328
14 *123:13 0.000339
15 *123:14 0.000205623
16 *123:7 *141:6 6.262e-05
17 *123:5 *141:7 6.262e-05
18 *123:7 *141:2 8.498e-05
19 *123:5 *141:3 8.498e-05
20 *123:7 *141:13 1.048e-05
21 *123:5 *141:12 1.048e-05
22 *123:7 *141:11 3.283e-05
23 *123:5 *141:10 3.28300063e-05
24 *123:7 *21:2 0.00012876
25 *123:5 *21:3 0.000128759997

*RES
1 *123:4 *684:A 3.20009
2 *123:4 *123:3 1.24803
3 *123:9 *123:3 3.20009
4 *123:6 *660:A1 3.20009
5 *123:9 *123:8 2.02251
6 *123:6 *123:5 1.09197
7 *123:5 *123:8 3.20009
8 *123:5 *123:7 15.2880001
9 *123:14 *123:7 3.20009
10 *123:12 *123:14 0.919342
11 *123:12 *123:13 0.156062
12 *123:11 *123:13 1.47081
13 *123:10 *123:11 3.20009
14 *701:Q *123:10 6.39994
*END

*D_NET *124 0.0074547

*CONN
*I *702:Q O *C 51.81 107.24 *L 0 *D DFFRHQX1
*I *686:A I *C 53.13 67.48 *L 0.00346 *D INVX1
*I *677:A1 I *C 59.73 67.48 *L 0.00443 *D AOI21X1

*CAP
1 *702:Q 6.3299e-05
2 *686:A 3.98629e-05
3 *677:A1 0.000139829
4 *124:3 0.000848777
5 *124:4 0.000863707
6 *124:5 0.000118138
7 *124:6 0.000118138
8 *124:7 0.00101178
9 *124:8 0.00101178
10 *124:9 0.000348777
11 *124:10 0.000287902
12 *124:11 0.00014074
13 *124:12 7.10801e-05
14 *124:13 7.51868e-05
15 *124:14 0.000142222
16 *124:15 0.000168962
17 *124:16 0.000177777
18 *124:3 *137:3 0.00034883
19 *124:4 *137:2 0.000348829986
20 *124:3 *56:55 8.717e-05
21 *124:4 *56:56 8.717e-05
22 *124:7 *56:56 8.276e-05
23 *124:8 *56:57 8.276e-05
24 *124:7 *56:57 0.00018555
25 *124:8 *56:58 0.00018555
26 *124:7 *56:58 4.178e-05
27 *124:8 *56:59 4.178e-05
28 *124:5 *56:60 1.773e-05
29 *124:6 *56:61 1.773e-05
30 *124:7 *56:62 2.659e-05
31 *124:8 *56:63 2.659e-05
32 *124:7 *56:64 2.659e-05
33 *124:8 *56:65 2.659e-05
34 *124:7 *56:65 4.974e-05
35 *124:8 *56:66 4.974e-05
36 *124:7 *56:67 4.663e-05
37 *124:8 *56:68 4.66299868e-05

*RES
1 *124:11 *677:A1 3.2
2 *124:12 *124:11 0.155957
3 *124:9 *124:12 3.2
4 *124:10 *124:9 1.28701
5 *124:10 *124:16 0.155957
6 *124:13 *686:A 0.223828
7 *124:15 *124:16 0.735449
8 *124:14 *124:13 3.2
9 *124:14 *124:15 3.2
10 *124:3 *702:Q 6.4000001
11 *124:6 *124:14 0.183887
12 *124:4 *124:3 4.52402
13 *124:6 *124:5 0.467969
14 *124:7 *124:4 0.183887
15 *124:8 *124:5 0.183887
16 *124:8 *124:7 6.08398
*END

*D_NET *125 0.00923425

*CONN
*I *712:Q O *C 53.13 54.04 *L 0 *D DFFRHQX1
*I *687:A I *C 132.33 57.4 *L 0.00346 *D INVX1
*I *656:A1 I *C 127.05 57.4 *L 0.00443 *D AOI21X1

*CAP
1 *712:Q 7.97623e-05
2 *687:A 0.000139839
3 *656:A1 0.000139839
4 *125:3 0.000154464
5 *125:4 0.000154464
6 *125:5 0.000420818
7 *125:6 9.71726e-05
8 *125:7 0.000406751
9 *125:8 0.00010019
10 *125:9 0.00010019
11 *125:10 0.000349459
12 *125:11 0.000279772
13 *125:12 0.000184967
14 *125:13 0.000184967
15 *125:14 0.00304262
16 *125:15 0.00304262
17 *125:16 0.000115094
18 *125:17 0.000120618
19 *125:18 0.000120618

*RES
1 *125:9 *687:A 3.20015
2 *125:4 *656:A1 3.20015
3 *125:9 *125:8 0.468115
4 *125:4 *125:3 0.312077
5 *125:7 *125:8 3.20015
6 *125:5 *125:3 3.20015
7 *125:5 *125:7 1.471
8 *125:6 *125:5 0.367826
9 *125:12 *125:6 3.20015
10 *125:13 *125:12 0.468115
11 *125:14 *125:13 3.20015
12 *125:15 *125:14 19.8565712
13 *125:10 *125:15 3.20015
14 *125:11 *125:10 1.09197
15 *125:18 *125:11 3.20015
16 *125:17 *125:18 3.20015
17 *125:16 *125:17 3.20015
18 *712:Q *125:16 0.447512
*END

*D_NET *126 0.00809716

*CONN
*I *715:Q O *C 51.15 74.2 *L 0 *D DFFRHQX1
*I *685:A I *C 129.69 73.64 *L 0.00346 *D INVX1
*I *658:A1 I *C 126.39 73.64 *L 0.00443 *D AOI21X1

*CAP
1 *715:Q 3.98421e-05
2 *685:A 0.000139847
3 *658:A1 0.000139847
4 *126:3 0.000291696
5 *126:4 0.000291696
6 *126:5 0.000151728
7 *126:6 0.000120606
8 *126:7 0.000120606
9 *126:8 0.000120606
10 *126:9 0.00261286
11 *126:10 0.00262154
12 *126:11 0.000546589
13 *126:12 0.000120606
14 *126:13 0.000120606
15 *126:14 0.000537909
16 *126:15 0.000120606

*RES
1 *126:15 *685:A 3.20006
2 *126:12 *658:A1 3.20006
3 *126:3 *126:15 3.20006
4 *126:4 *126:12 3.20006
5 *126:4 *126:3 0.919216
6 *126:13 *126:4 3.20006
7 *126:14 *126:13 3.20006
8 *126:11 *126:14 3.30934
9 *126:10 *126:11 0.155912
10 *126:9 *126:10 17.4664288
11 *126:8 *126:9 3.20006
12 *126:7 *126:8 3.20006
13 *126:6 *126:7 3.20006
14 *126:5 *126:6 3.20006
15 *715:Q *126:5 0.223874
*END

*D_NET *127 0.00735876

*CONN
*I *704:Q O *C 52.47 94.36 *L 0 *D DFFRHQX1
*I *689:A I *C 119.13 93.8 *L 0.00346 *D INVX1
*I *657:A1 I *C 121.77 93.8 *L 0.00443 *D AOI21X1

*CAP
1 *704:Q 0.000123603
2 *689:A 0.000139835
3 *657:A1 0.000139835
4 *127:3 0.000182389
5 *127:4 0.000156725
6 *127:5 0.000182206
7 *127:6 0.000101668
8 *127:7 0.000158918
9 *127:8 5.09255e-05
10 *127:9 5.09255e-05
11 *127:10 5.09255e-05
12 *127:11 5.16567e-05
13 *127:12 9.45029e-05
14 *127:13 0.00239584
15 *127:14 0.00236169
16 *127:15 0.000406088
17 *127:16 7.24217e-05
18 *127:17 0.000120605
19 *127:18 0.000120605
20 *127:19 0.000397387

*RES
1 *127:4 *657:A1 3.19998
2 *127:4 *127:3 0.31201
3 *127:5 *127:3 0.551672
4 *127:6 *127:5 0.31201
5 *127:16 *689:A 3.19998
6 *127:16 *127:6 0.183812
7 *127:17 *127:16 3.19998
8 *127:18 *127:17 3.19998
9 *127:19 *127:18 3.19998
10 *127:15 *127:19 2.39003
11 *127:14 *127:15 0.156005
12 *127:13 *127:14 15.4440002
13 *127:12 *127:13 0.31201
14 *127:11 *127:12 0.183812
15 *127:10 *127:11 6.39997
16 *127:9 *127:10 6.39997
17 *127:8 *127:9 6.39997
18 *127:7 *127:8 6.39997
19 *704:Q *127:7 0.671386
*END

*D_NET *128 0.0104101

*CONN
*I *713:Q O *C 51.15 84.28 *L 0 *D DFFRHQX1
*I *693:A I *C 125.07 87.64 *L 0.00346 *D INVX1
*I *659:A1 I *C 121.11 83.72 *L 0.00443 *D AOI21X1

*CAP
1 *713:Q 8.32094e-05
2 *693:A 0.000168274
3 *659:A1 0.00013984
4 *128:3 0.000161764
5 *128:4 0.000161764
6 *128:5 0.000474162
7 *128:6 0.000474162
8 *128:7 0.00221043
9 *128:8 0.00214955
10 *128:9 0.00123387
11 *128:10 0.0012251
12 *128:11 0.000130228
13 *128:12 0.000159336
14 *128:13 0.000118524
15 *128:14 0.000109046
16 *128:15 0.000161427
17 *128:16 0.000203588
18 *128:17 0.000176032
19 *128:7 *233:6 0.00025944
20 *128:8 *233:7 0.00025944
21 *128:7 *233:7 9.176e-05
22 *128:8 *233:8 9.176e-05
23 *128:7 *233:15 2.131e-05
24 *128:8 *233:13 2.131e-05
25 *128:11 *233:16 6.24e-05
26 *128:12 *233:14 6.23999768e-05

*RES
1 *128:16 *693:A 0.895378
2 *128:17 *128:16 3.19992
3 *128:15 *128:17 0.468014
4 *128:12 *659:A1 3.19992
5 *128:14 *128:15 0.367801
6 *128:12 *128:11 0.468014
7 *128:11 *128:14 0.156064
8 *128:7 *128:11 3.19992
9 *128:8 *128:7 11.5830002
10 *128:5 *128:8 0.156064
11 *128:6 *128:5 2.20628
12 *128:6 *128:9 0.156064
13 *128:10 *128:9 5.33179
14 *128:3 *128:10 3.19992
15 *128:4 *128:3 0.311951
16 *128:13 *128:4 3.19992
17 *713:Q *128:13 0.447689
*END

*D_NET *129 0.00640607

*CONN
*I *716:Q O *C 52.47 97.16 *L 0 *D DFFRHQX1
*I *682:A I *C 78.21 97.72 *L 0.00346 *D INVX1
*I *653:A1 I *C 89.43 97.72 *L 0.00443 *D AOI21X1

*CAP
1 *716:Q 0.00132021
2 *682:A 7.9717e-05
3 *653:A1 7.9717e-05
4 *129:3 0.00135554
5 *129:4 0.000211848
6 *129:5 0.000211848
7 *129:6 0.000479894
8 *129:7 0.000479894
9 *129:8 0.000127746
10 *129:9 0.000245542
11 *129:10 0.000127746
12 *129:11 0.000231849
13 *129:12 0.000143569
14 *129:13 0.000115066
15 *129:14 0.000263455
16 *129:15 0.000152194
17 *129:16 0.000245542
18 *129:17 0.000135254
19 *129:18 0.000138026
20 *129:19 0.000146341
21 *129:20 0.000115066

*RES
1 *129:20 *653:A1 0.447639
2 *129:4 *129:20 3.19996
3 *129:5 *129:4 0.624026
4 *129:19 *129:5 3.19996
5 *129:18 *129:19 0.551608
6 *129:6 *129:18 0.0780297
7 *129:7 *129:6 2.02242
8 *129:7 *129:17 0.0780297
9 *129:12 *129:17 0.551608
10 *129:13 *682:A 0.447639
11 *129:11 *129:12 3.19996
12 *129:14 *129:13 3.19996
13 *129:11 *129:14 0.624026
14 *129:14 *129:15 0.312013
15 *129:16 *129:15 3.19996
16 *129:9 *129:16 1.10311
17 *129:8 *129:9 3.19996
18 *129:8 *129:10 0.155954
19 *129:3 *129:10 3.19996
20 *716:Q *129:3 6.93860865
*END

*D_NET *130 0.00322724

*CONN
*I *700:Q O *C 51.81 87.08 *L 0 *D DFFRHQX1
*I *683:A I *C 56.43 93.8 *L 0.00346 *D INVX1
*I *649:A1 I *C 64.35 93.8 *L 0.00443 *D AOI21X1

*CAP
1 *700:Q 6.32973e-05
2 *683:A 3.98624e-05
3 *649:A1 6.32973e-05
4 *130:3 0.000413469
5 *130:4 0.000428399414
6 *130:5 0.000361729
7 *130:6 0.000277618
8 *130:7 0.000337039
9 *130:8 0.000337039
10 *130:9 0.000107892
11 *130:10 0.000116704
12 *130:11 6.58468e-05
13 *130:12 0.000114449
14 *130:13 0.00011728
15 *130:14 5.09163e-05
16 *130:15 0.000106317
17 *130:16 0.000113037
18 *130:17 0.000113037

*RES
1 *130:16 *649:A1 6.4000001
2 *130:16 *130:17 0.312012
3 *130:9 *130:17 6.4000001
4 *130:10 *130:9 0.367676
5 *130:12 *683:A 0.223828
6 *130:10 *130:7 0.155957
7 *130:12 *130:13 0.379785
8 *130:8 *130:7 1.65469
9 *130:14 *130:13 6.4000001
10 *130:15 *130:8 0.155957
11 *130:5 *130:14 6.4000001
12 *130:5 *130:15 0.367676
13 *130:6 *130:5 0.919238
14 *130:3 *130:6 6.4000001
15 *130:4 *130:3 1.404
16 *130:11 *130:4 0.183887
17 *700:Q *130:11 6.4000001
*END

*D_NET *131 0.00539712

*CONN
*I *699:Q O *C 51.81 104.44 *L 0 *D DFFRHQX1
*I *681:A I *C 80.19 113.96 *L 0.00346 *D INVX1
*I *654:A1 I *C 80.19 107.8 *L 0.00443 *D AOI21X1

*CAP
1 *699:Q 9.00103e-05
2 *681:A 0.00013984
3 *654:A1 0.00013984
4 *131:3 0.000219265
5 *131:4 0.000149576
6 *131:5 0.000293984
7 *131:6 0.000285287
8 *131:7 0.00056265
9 *131:8 0.00056265
10 *131:9 0.000201879
11 *131:10 0.000278436
12 *131:11 0.000184717
13 *131:12 0.00026973
14 *131:13 0.000461427
15 *131:14 0.000359783
16 *131:12 *136:5 4.979e-05
17 *131:10 *136:6 4.979e-05
18 *131:12 *136:6 4.6e-05
19 *131:10 *136:7 4.6e-05
20 *131:5 *136:8 5.104e-05
21 *131:6 *136:9 5.104e-05
22 *131:7 *136:10 0.00024791
23 *131:8 *136:11 0.000247909993
24 *131:7 *53:175 7.444e-05
25 *131:8 *53:176 7.444e-05
26 *131:7 *53:176 9.262e-05
27 *131:8 *53:179 9.262e-05
28 *131:5 *53:179 1.506e-05
29 *131:6 *53:180 1.506e-05
30 *131:3 *53:88 2.216e-05
31 *131:4 *53:89 2.21599936e-05

*RES
1 *131:14 *681:A 3.20002
2 *131:13 *654:A1 3.20002
3 *131:13 *131:14 1.71602
4 *131:11 *131:13 0.468017
5 *131:12 *131:11 3.20002
6 *131:10 *131:12 1.47089
7 *131:7 *131:10 0.155982
8 *131:8 *131:7 4.59642839
9 *131:8 *131:5 0.155982
10 *131:6 *131:5 1.47089
11 *131:3 *131:6 3.20002
12 *131:4 *131:3 0.468017
13 *131:9 *131:4 3.20002
14 *699:Q *131:9 0.447678
*END

*D_NET *132 0.00961072

*CONN
*I *703:Q O *C 53.13 64.12 *L 0 *D DFFRHQX1
*I *679:A I *C 67.65 107.8 *L 0.00346 *D INVX1
*I *655:A1 I *C 74.91 107.8 *L 0.00443 *D AOI21X1

*CAP
1 *703:Q 0.000205999
2 *679:A 0.000139848
3 *655:A1 0.000139848
4 *132:3 0.00163777
5 *132:4 0.00161173
6 *132:5 0.00020305
7 *132:6 0.000242286
8 *132:7 0.00104884
9 *132:8 0.00107485
10 *132:9 0.000212971
11 *132:10 0.000221668
12 *132:11 0.000317908
13 *132:12 0.000322281
14 *132:13 0.000284995
15 *132:14 0.000193079
16 *132:15 0.000120605
17 *132:16 0.000269425
18 *132:17 9.84386e-05
19 *132:18 0.000120605
20 *132:9 *54:150 0.00028393
21 *132:10 *54:151 0.00028393
22 *132:17 *54:150 2.527e-05
23 *132:16 *54:151 2.527e-05
24 *132:16 *54:151 3.753e-05
25 *132:14 *54:152 3.753e-05
26 *132:7 *54:153 3.769e-05
27 *132:8 *54:154 3.76899733e-05
28 *132:9 *114:9 0.00018786
29 *132:10 *114:8 0.000187859999

*RES
1 *132:18 *655:A1 3.20005
2 *132:9 *132:18 3.20005
3 *132:10 *132:9 1.65472
4 *132:15 *679:A 3.20005
5 *132:17 *132:10 0.156033
6 *132:16 *132:15 3.20005
7 *132:16 *132:17 0.367691
8 *132:14 *132:16 1.10318
9 *132:7 *132:14 3.20005
10 *132:8 *132:7 4.83605
11 *132:3 *132:8 0.551537
12 *132:4 *132:3 7.17600012
13 *132:5 *132:4 3.20005
14 *132:6 *132:5 0.671436
15 *132:13 *132:6 0.379845
16 *132:12 *132:13 1.11917
17 *132:11 *132:12 0.569713
18 *703:Q *132:11 1.11917
*END

*D_NET *133 0.0155564

*CONN
*I *705:Q O *C 51.81 66.92 *L 0 *D DFFRHQX1
*I *690:A I *C 134.31 103.88 *L 0.00346 *D INVX1
*I *651:A1 I *C 129.03 103.88 *L 0.00443 *D AOI21X1

*CAP
1 *705:Q 8.427e-05
2 *690:A 6.33101e-05
3 *651:A1 0.000139835
4 *133:3 0.000204313
5 *133:4 0.000204313
6 *133:5 0.000119613
7 *133:6 0.00177794
8 *133:7 0.00177794
9 *133:8 0.000398638
10 *133:9 0.000398638
11 *133:10 0.000212458
12 *133:11 0.00063181
13 *133:12 0.000409303
14 *133:13 0.000334191
15 *133:14 0.000334191
16 *133:15 0.00076178
17 *133:16 0.000770139
18 *133:17 0.00201409
19 *133:18 0.00201409
20 *133:19 0.000525842
21 *133:20 0.000542899
22 *133:21 0.000120596
23 *133:22 5.09247e-05
24 *133:13 *54:146 0.00015567
25 *133:14 *54:147 0.00015567
26 *133:20 *54:145 0.00010739
27 *133:19 *54:146 0.00010739
28 *133:20 *54:146 9.994e-05
29 *133:19 *54:147 9.994e-05
30 *133:15 *54:146 6.277e-05
31 *133:16 *54:147 6.277e-05
32 *133:8 *54:145 9.035e-05
33 *133:9 *54:146 9.03500064e-05
34 *133:10 *200:9 0.00022107
35 *133:11 *200:7 0.00022107
36 *133:10 *200:4 9.545e-05
37 *133:11 *200:5 9.54499927e-05

*RES
1 *133:22 *690:A 6.39995
2 *133:21 *651:A1 3.19998
3 *133:10 *133:22 6.39995
4 *133:11 *133:21 3.19998
5 *133:11 *133:10 1.4709
6 *133:12 *133:11 1.83856
7 *133:12 *133:8 0.155948
8 *133:9 *133:8 2.20635
9 *133:9 *133:20 0.155948
10 *133:19 *133:20 3.12563
11 *133:19 *133:13 0.0779738
12 *133:14 *133:13 1.65473
13 *133:15 *133:14 0.0779738
14 *133:16 *133:15 3.67711
15 *133:17 *133:16 3.19998
16 *133:18 *133:17 9.51599979
17 *133:6 *133:18 3.19998
18 *133:7 *133:6 8.6413
19 *133:3 *133:7 3.19998
20 *133:4 *133:3 0.467988
21 *133:5 *133:4 3.19998
22 *705:Q *133:5 0.44766
*END

*D_NET *134 0.014598

*CONN
*I *714:Q O *C 35.31 54.04 *L 0 *D DFFRHQX1
*I *688:A I *C 125.73 97.72 *L 0.00346 *D INVX1
*I *650:A1 I *C 121.77 97.72 *L 0.00443 *D AOI21X1

*CAP
1 *714:Q 0.000138324
2 *688:A 0.000139846
3 *650:A1 0.000139846
4 *134:3 0.00102837
5 *134:4 0.00102837
6 *134:5 0.000363287
7 *134:6 0.000363287
8 *134:7 0.000173636
9 *134:8 0.000274367
10 *134:9 0.000274367
11 *134:10 0.0020908
12 *134:11 0.0020908
13 *134:12 0.00262376
14 *134:13 0.000120588
15 *134:14 0.000120588
16 *134:15 0.00262376
17 *134:16 0.000120588
18 *134:10 *135:12 0.00034481
19 *134:11 *135:11 0.000344810011
20 *134:3 *40:5 9.689e-05
21 *134:4 *40:3 9.68900015e-05

*RES
1 *134:16 *688:A 3.19995
2 *134:13 *650:A1 3.19995
3 *134:8 *134:16 3.19995
4 *134:9 *134:13 3.19995
5 *134:9 *134:8 1.1032
6 *134:14 *134:9 3.19995
7 *134:15 *134:14 3.19995
8 *134:12 *134:15 17.8341427
9 *134:10 *134:12 3.19995
10 *134:11 *134:10 11.7001
11 *134:3 *134:11 3.19995
12 *134:4 *134:3 5.33179
13 *134:5 *134:4 3.19995
14 *134:6 *134:5 1.09205
15 *134:7 *134:6 3.19995
16 *714:Q *134:7 1.11926
*END

*D_NET *135 0.0165794

*CONN
*I *707:Q O *C 56.43 33.88 *L 0 *D DFFRHQX1
*I *694:A I *C 107.25 113.96 *L 0.00346 *D INVX1
*I *678:A1 I *C 109.23 113.96 *L 0.00443 *D AOI21X1

*CAP
1 *707:Q 0.000139842
2 *694:A 0.000139842
3 *678:A1 3.98951e-05
4 *135:3 0.000212371
5 *135:4 0.000220284
6 *135:5 0.00125993
7 *135:6 0.00125123
8 *135:7 0.00108694
9 *135:8 0.00108694
10 *135:9 0.000704566
11 *135:10 0.000713271
12 *135:11 0.00299591
13 *135:12 0.00305079
14 *135:13 0.000120616
15 *135:14 0.000120616
16 *135:15 0.000533347
17 *135:16 0.000548151
18 *135:17 0.000151713
19 *135:18 0.000182344
20 *135:12 *134:10 0.00034481
21 *135:11 *134:11 0.000344810011
22 *135:12 *53:192 7.037e-05
23 *135:11 *53:193 7.037e-05
24 *135:12 *53:193 0.00013282
25 *135:11 *53:194 0.00013282
26 *135:12 *53:194 8.56e-05
27 *135:11 *53:195 8.56e-05
28 *135:12 *53:195 0.00016986
29 *135:11 *53:196 0.00016986
30 *135:12 *53:196 7.9e-05
31 *135:11 *53:197 7.9e-05
32 *135:16 *53:197 4.518e-05
33 *135:15 *53:198 4.518e-05
34 *135:5 *53:186 8.282e-05
35 *135:6 *53:187 8.28200191e-05

*RES
1 *135:17 *678:A1 0.223795
2 *135:18 *135:17 3.19996
3 *135:3 *694:A 3.19996
4 *135:3 *135:18 0.367808
5 *135:4 *135:3 0.623862
6 *135:9 *135:4 3.19996
7 *135:10 *135:9 3.30941
8 *135:10 *135:7 0.156109
9 *135:8 *135:7 5.14787
10 *135:13 *707:Q 3.19996
11 *135:5 *135:8 0.156109
12 *135:14 *135:13 3.19996
13 *135:6 *135:5 5.88348
14 *135:15 *135:14 3.19996
15 *135:12 *135:6 3.19996
16 *135:15 *135:16 2.80795
17 *135:11 *135:12 18.8759995
18 *135:11 *135:16 0.18376
*END

*D_NET *136 0.0156111

*CONN
*I *698:Q O *C 51.81 36.68 *L 0 *D DFFRHQX1
*I *695:A I *C 98.67 113.96 *L 0.00346 *D INVX1
*I *652:A1 I *C 100.65 107.8 *L 0.00443 *D AOI21X1

*CAP
1 *698:Q 0.000139817
2 *695:A 0.000139817
3 *652:A1 0.000119591
4 *136:3 0.000383614
5 *136:4 0.000456321
6 *136:5 0.000979752
7 *136:6 0.00107195
8 *136:7 0.000151796
9 *136:8 0.000401337
10 *136:9 0.000392647
11 *136:10 0.000524315
12 *136:11 0.000524315
13 *136:12 8.24765e-05
14 *136:13 0.00321732
15 *136:14 0.00321732
16 *136:15 0.000120622
17 *136:16 8.24765e-05
18 *136:17 7.96291e-05
19 *136:18 7.96291e-05
20 *136:19 0.000123666
21 *136:20 0.000154938
22 *136:14 *53:192 4.011e-05
23 *136:13 *53:193 4.011e-05
24 *136:14 *53:193 0.00013625
25 *136:13 *53:194 0.00013625
26 *136:14 *53:194 9.035e-05
27 *136:13 *53:195 9.035e-05
28 *136:14 *53:195 0.00017247
29 *136:13 *53:196 0.00017247
30 *136:14 *53:196 0.00011557
31 *136:13 *53:197 0.00011557
32 *136:14 *53:197 2.999e-05
33 *136:13 *53:198 2.999e-05
34 *136:16 *53:119 1.506e-05
35 *136:12 *53:199 1.50599987e-05
36 *136:8 *54:158 6.517e-05
37 *136:9 *54:159 6.517e-05
38 *136:8 *54:174 3.712e-05
39 *136:9 *54:143 3.712e-05
40 *136:5 *54:157 0.00010413
41 *136:6 *54:155 0.00010413
42 *136:5 *54:155 4.14e-05
43 *136:6 *54:156 4.14e-05
44 *136:5 *54:156 1.779e-05
45 *136:6 *54:150 1.779e-05
46 *136:5 *54:150 1.506e-05
47 *136:6 *54:151 1.506e-05
48 *136:18 *54:151 7.53e-06
49 *136:17 *54:152 7.53e-06
50 *136:10 *54:151 3.765e-05
51 *136:11 *54:152 3.765e-05
52 *136:5 *54:146 8.726e-05
53 *136:6 *54:147 8.72600013e-05
54 *136:6 *114:9 0.00012676
55 *136:7 *114:8 0.00012676
56 *136:10 *114:9 4.941e-05
57 *136:11 *114:8 4.94099976e-05
58 *136:5 *131:12 4.979e-05
59 *136:6 *131:10 4.979e-05
60 *136:6 *131:12 4.6e-05
61 *136:7 *131:10 4.6e-05
62 *136:8 *131:5 5.104e-05
63 *136:9 *131:6 5.104e-05
64 *136:10 *131:7 0.00024791
65 *136:11 *131:8 0.000247909993

*RES
1 *136:20 *652:A1 0.671417
2 *136:3 *695:A 3.19998
3 *136:4 *136:20 3.19998
4 *136:4 *136:3 1.716
5 *136:19 *136:4 0.155948
6 *136:5 *136:19 3.19998
7 *136:6 *136:5 5.88332
8 *136:7 *136:6 1.10325
9 *136:10 *136:7 0.155948
10 *136:11 *136:10 3.67711
11 *136:11 *136:18 0.155948
12 *136:17 *136:18 0.367653
13 *136:17 *136:8 0.155948
14 *136:9 *136:8 2.39004
15 *136:14 *136:9 3.19998
16 *136:15 *698:Q 3.19998
17 *136:13 *136:14 19.0319996
18 *136:16 *136:15 3.19998
19 *136:12 *136:13 3.19998
20 *136:12 *136:16 0.367653
*END

*D_NET *137 0.00278828

*CONN
*I *437:A I *C 55.11 97.72 *L 0.00446 *D BUFX3
*I *720:Q O *C 52.47 114.52 *L 0 *D DFFRHQX1

*CAP
1 *437:A 0.000119592
2 *720:Q 0.000139847
3 *137:2 0.000739637
4 *137:3 0.00079439
5 *137:4 0.000154926
6 *137:5 0.000142235
7 *137:3 *124:3 0.00034883
8 *137:2 *124:4 0.000348829986

*RES
1 *137:4 *437:A 0.671503
2 *137:5 *137:4 3.19999
3 *137:3 *720:Q 3.19999
4 *137:2 *137:5 0.183884
5 *137:2 *137:3 3.9000001
*END

*D_NET *138 0.000990882

*CONN
*I *436:A I *C 55.11 113.96 *L 0.00446 *D BUFX3
*I *724:Q O *C 52.47 117.32 *L 0 *D DFFRHQX1

*CAP
1 *436:A 7.97294e-05
2 *724:Q 8.24e-05
3 *138:2 0.000115063
4 *138:3 0.000257
5 *138:4 7.99922e-05
6 *138:5 0.000257
7 *138:6 0.000119702

*RES
1 *138:2 *436:A 0.447656
2 *138:3 *138:2 3.20000005
3 *138:3 *138:5 0.77998
4 *138:4 *138:5 3.20000005
5 *138:4 *138:6 0.189893
6 *724:Q *138:6 0.447656
*END

*D_NET *139 0.00225266

*CONN
*I *428:A I *C 24.09 124.04 *L 0.00446 *D BUFX3
*I *731:Q O *C 35.97 117.32 *L 0 *D DFFRHQX1

*CAP
1 *428:A 3.98618e-05
2 *731:Q 6.32942e-05
3 *139:2 0.00075939
4 *139:3 0.00083595
5 *139:4 0.000151756
6 *139:5 0.000175749
7 *139:6 0.000160952
8 *139:7 6.57178e-05

*RES
1 *139:7 *731:Q 6.4000001
2 *139:5 *139:7 0.183887
3 *139:5 *139:6 0.624023
4 *139:4 *428:A 0.223828
5 *139:2 *139:6 6.4000001
6 *139:3 *139:4 0.569727
7 *139:3 *139:2 4.02891
*END

*D_NET *140 7.972e-05

*CONN
*I *434:A I *C 36.63 113.96 *L 0.00446 *D BUFX3
*I *723:Q O *C 35.97 114.52 *L 0 *D DFFRHQX1

*CAP
1 *434:A 3.986e-05
2 *723:Q 3.986e-05

*RES
1 *723:Q *434:A 0.223826
*END

*D_NET *141 0.00535209

*CONN
*I *410:A I *C 49.83 77.56 *L 0.00446 *D BUFX3
*I *729:Q O *C 35.97 104.44 *L 0 *D DFFRHQX1

*CAP
1 *410:A 6.32958e-05
2 *729:Q 0.000139843
3 *141:2 0.00059522
4 *141:3 0.000580425
5 *141:4 0.000368685
6 *141:5 0.000368685
7 *141:6 0.000431191
8 *141:7 0.000431191
9 *141:8 0.000120597
10 *141:9 0.000407258
11 *141:10 0.000224909
12 *141:11 0.000224909
13 *141:12 0.000133549
14 *141:13 0.000188434
15 *141:14 0.000337577
16 *141:15 5.09164e-05
17 *141:4 *21:7 3.182e-05
18 *141:5 *21:5 3.182e-05
19 *141:4 *21:8 0.00011997
20 *141:5 *21:6 0.000119970002
21 *141:6 *123:7 6.262e-05
22 *141:7 *123:5 6.262e-05
23 *141:2 *123:7 8.498e-05
24 *141:3 *123:5 8.498e-05
25 *141:13 *123:7 1.048e-05
26 *141:12 *123:5 1.048e-05
27 *141:11 *123:7 3.283e-05
28 *141:10 *123:5 3.28300063e-05

*RES
1 *141:15 *410:A 6.4000001
2 *141:4 *141:15 6.4000001
3 *141:5 *141:4 2.02246
4 *141:3 *141:5 6.4000001
5 *141:3 *141:2 2.96396
6 *141:10 *141:2 0.183887
7 *141:10 *141:11 1.09199
8 *141:11 *141:7 0.183887
9 *141:7 *141:6 2.18398
10 *141:12 *141:6 0.183887
11 *141:12 *141:13 0.467969
12 *141:14 *141:13 3.2
13 *141:9 *141:14 1.65469
14 *141:8 *141:9 3.2
15 *729:Q *141:8 3.2
*END

*D_NET *142 0.00189447

*CONN
*I *430:A I *C 36.63 77.56 *L 0.00446 *D BUFX3
*I *718:Q O *C 35.97 87.08 *L 0 *D DFFRHQX1

*CAP
1 *430:A 0.000139837
2 *718:Q 8.34651e-05
3 *142:2 0.00045318
4 *142:3 0.000398302
5 *142:4 0.000142098
6 *142:5 0.000118787
7 *142:2 *144:2 0.00014376
8 *142:3 *144:3 0.00014376
9 *142:2 *147:6 0.0001253
10 *142:3 *147:5 0.0001253
11 *142:2 *147:3 1.034e-05
12 *142:3 *147:2 1.03400129e-05

*RES
1 *142:4 *430:A 3.20000005
2 *142:4 *142:3 0.183838
3 *142:3 *142:2 2.652
4 *142:5 *142:2 3.20000005
5 *718:Q *142:5 0.447656
*END

*D_NET *143 7.972e-05

*CONN
*I *439:A I *C 36.63 93.8 *L 0.00446 *D BUFX3
*I *722:Q O *C 35.97 94.36 *L 0 *D DFFRHQX1

*CAP
1 *439:A 3.986e-05
2 *722:Q 3.986e-05

*RES
1 *722:Q *439:A 0.223826
*END

*D_NET *144 0.00142514

*CONN
*I *441:A I *C 39.27 77.56 *L 0.00446 *D BUFX3
*I *725:Q O *C 35.97 84.28 *L 0 *D DFFRHQX1

*CAP
1 *441:A 3.98613e-05
2 *725:Q 0.000134902
3 *144:2 0.000162751
4 *144:3 0.000177549
5 *144:4 0.00024677
6 *144:5 7.71582e-05
7 *144:6 0.000156531
8 *144:7 0.000142101
9 *144:2 *142:2 0.00014376
10 *144:3 *142:3 0.00014376

*RES
1 *144:5 *441:A 0.223828
2 *144:5 *144:6 0.189893
3 *144:7 *144:6 3.20000005
4 *144:3 *144:7 0.183838
5 *144:3 *144:2 1.09199
6 *144:4 *144:2 3.20000005
7 *725:Q *144:4 0.671484
*END

*D_NET *145 7.972e-05

*CONN
*I *440:A I *C 36.63 97.72 *L 0.00446 *D BUFX3
*I *726:Q O *C 35.97 97.16 *L 0 *D DFFRHQX1

*CAP
1 *440:A 3.986e-05
2 *726:Q 3.986e-05

*RES
1 *726:Q *440:A 0.223826
*END

*D_NET *146 0.00118127

*CONN
*I *433:A I *C 41.91 77.56 *L 0.00446 *D BUFX3
*I *719:Q O *C 35.97 77 *L 0 *D DFFRHQX1

*CAP
1 *433:A 3.98595e-05
2 *719:Q 6.32995e-05
3 *146:2 0.000151732
4 *146:3 0.000120598
5 *146:4 0.00037743
6 *146:5 0.000120598
7 *146:6 0.000307749

*RES
1 *146:2 *433:A 0.223828
2 *146:5 *146:2 3.2
3 *146:6 *146:5 3.2
4 *146:4 *146:6 1.4709
5 *146:3 *146:4 3.2
6 *719:Q *146:3 6.4000001
*END

*D_NET *147 0.00605857

*CONN
*I *427:A I *C 36.63 117.88 *L 0.00446 *D BUFX3
*I *727:Q O *C 35.97 74.2 *L 0 *D DFFRHQX1

*CAP
1 *427:A 0.000139853
2 *727:Q 0.000139853
3 *147:2 0.000203946
4 *147:3 0.000203946
5 *147:4 0.000142089
6 *147:5 0.00036028
7 *147:6 0.00036028
8 *147:7 0.00126556
9 *147:8 0.00132045
10 *147:8 *22:4 0.0001935
11 *147:7 *22:5 0.0001935
12 *147:8 *22:6 2.502e-05
13 *147:7 *22:7 2.502e-05
14 *147:8 *22:2 4.178e-05
15 *147:7 *22:3 4.17799942e-05
16 *147:6 *142:2 0.0001253
17 *147:5 *142:3 0.0001253
18 *147:3 *142:2 1.034e-05
19 *147:2 *142:3 1.03400129e-05
20 *147:8 *54:56 4.241e-05
21 *147:7 *54:57 4.241e-05
22 *147:8 *54:57 3.283e-05
23 *147:7 *54:58 3.283e-05
24 *147:8 *54:58 5.351e-05
25 *147:7 *54:59 5.351e-05
26 *147:8 *54:59 3.283e-05
27 *147:7 *54:60 3.283e-05
28 *147:8 *54:60 5.351e-05
29 *147:7 *54:61 5.351e-05
30 *147:8 *54:61 3.283e-05
31 *147:7 *54:62 3.283e-05
32 *147:6 *54:62 9.405e-05
33 *147:5 *54:63 9.405e-05
34 *147:6 *54:63 5.86e-05
35 *147:5 *54:64 5.86e-05
36 *147:3 *54:64 0.00016465
37 *147:2 *54:65 0.000164649985

*RES
1 *147:8 *427:A 3.19994
2 *147:7 *147:8 8.11200047
3 *147:6 *147:7 0.183812
4 *147:5 *147:6 2.80806
5 *147:3 *147:5 0.183812
6 *147:4 *727:Q 3.19994
7 *147:2 *147:3 1.24794
8 *147:2 *147:4 0.183812
*END

*D_NET *148 0.00016686

*CONN
*I *438:A I *C 37.29 63.56 *L 0.00446 *D BUFX3
*I *728:Q O *C 35.97 64.12 *L 0 *D DFFRHQX1

*CAP
1 *438:A 8.343e-05
2 *728:Q 8.343e-05

*RES
1 *728:Q *438:A 0.447652
*END

*D_NET *149 0.00114704

*CONN
*I *431:A I *C 35.97 67.48 *L 0.00446 *D BUFX3
*I *721:Q O *C 35.31 56.84 *L 0 *D DFFRHQX1

*CAP
1 *431:A 6.32977e-05
2 *721:Q 6.32977e-05
3 *149:2 6.57207e-05
4 *149:3 0.00010758
5 *149:4 0.00010758
6 *149:5 0.00013288
7 *149:6 0.000118081
8 *149:7 0.0002443
9 *149:8 0.0002443

*RES
1 *149:6 *431:A 6.4000001
2 *149:5 *149:6 0.467969
3 *149:5 *149:8 0.183887
4 *149:7 *149:8 1.404
5 *149:4 *149:7 0.183887
6 *149:3 *149:4 0.312012
7 *149:2 *149:3 0.183887
8 *721:Q *149:2 6.4000001
*END

*D_NET *150 0.000802618

*CONN
*I *429:A I *C 35.97 53.48 *L 0.00446 *D BUFX3
*I *732:Q O *C 35.31 46.76 *L 0 *D DFFRHQX1

*CAP
1 *429:A 0.000139837
2 *732:Q 0.000139837
3 *150:2 7.24198e-05
4 *150:3 0.00023266
5 *150:4 0.000217859

*RES
1 *150:4 *429:A 3.20000005
2 *150:3 *150:4 1.09199
3 *150:2 *150:3 0.183838
4 *732:Q *150:2 3.20000005
*END

*D_NET *151 0.00133552

*CONN
*I *432:A I *C 40.59 33.32 *L 0.00446 *D BUFX3
*I *730:Q O *C 35.31 36.68 *L 0 *D DFFRHQX1

*CAP
1 *432:A 6.33006e-05
2 *730:Q 6.33006e-05
3 *151:2 0.000212221
4 *151:3 0.00030754
5 *151:4 0.000245999
6 *151:5 0.000245999
7 *151:6 5.09211e-05
8 *151:7 0.00014624

*RES
1 *151:7 *432:A 6.4000001
2 *151:3 *151:7 0.551562
3 *151:3 *151:2 1.09199
4 *151:4 *151:2 6.4000001
5 *151:5 *151:4 0.919238
6 *151:6 *151:5 6.4000001
7 *730:Q *151:6 6.4000001
*END

*D_NET *152 0.00146758

*CONN
*I *435:A I *C 35.97 37.24 *L 0.00446 *D BUFX3
*I *717:Q O *C 35.97 26.6 *L 0 *D DFFRHQX1

*CAP
1 *435:A 0.000139844
2 *717:Q 0.000139844
3 *152:2 0.00059395
4 *152:3 0.00059395

*RES
1 *152:3 *435:A 3.20000005
2 *152:2 *152:3 2.18398
3 *717:Q *152:2 3.20000005
*END

*D_NET *153 0.00099919

*CONN
*I *695:Y O *C 99.33 113.4 *L 0 *D INVX1
*I *666:B0 I *C 103.29 113.96 *L 0.00319 *D AOI21XL

*CAP
1 *695:Y 7.97301e-05
2 *666:B0 6.3299e-05
3 *153:2 0.000154321
4 *153:3 0.000129499
5 *153:4 9.02403e-05
6 *153:5 0.00022262
7 *153:6 8.20808e-05
8 *153:7 0.000177403

*RES
1 *153:6 *666:B0 6.4000001
2 *153:6 *153:7 0.312012
3 *153:5 *153:7 0.551562
4 *153:4 *153:5 3.2
5 *153:3 *153:4 0.223828
6 *153:2 *153:3 0.379785
7 *695:Y *153:2 0.447656
*END

*D_NET *154 0.0013678

*CONN
*I *694:Y O *C 107.91 113.4 *L 0 *D INVX1
*I *647:B0 I *C 114.51 113.96 *L 0.00319 *D AOI21XL

*CAP
1 *694:Y 0.000139839
2 *647:B0 6.33012e-05
3 *154:2 8.69994e-05
4 *154:3 8.69994e-05
5 *154:4 0.000120595
6 *154:5 0.00043503
7 *154:6 0.00043503

*RES
1 *154:2 *647:B0 6.4000001
2 *154:3 *154:2 0.312012
3 *154:6 *154:3 3.2
4 *154:5 *154:6 1.83857
5 *154:4 *154:5 3.2
6 *694:Y *154:4 3.2
*END

*D_NET *155 0.000570628

*CONN
*I *693:Y O *C 125.73 88.2 *L 0 *D INVX1
*I *669:B0 I *C 126.39 83.72 *L 0.00319 *D AOI21XL

*CAP
1 *693:Y 6.3299e-05
2 *669:B0 3.986e-05
3 *155:2 0.00011445
4 *155:3 0.00011728
5 *155:4 0.000117869502
6 *155:5 0.000117869502

*RES
1 *155:5 *693:Y 6.4000001
2 *155:4 *155:5 0.624023
3 *155:3 *155:4 6.4000001
4 *155:2 *669:B0 0.223828
5 *155:2 *155:3 0.379785
*END

*D_NET *156 0.00413149

*CONN
*I *708:Y O *C 72.27 77 *L 0 *D AOI22XL
*I *692:A I *C 91.41 83.72 *L 0.0026 *D INVXL
*I *517:B1 I *C 90.09 78.12 *L 0.00328 *D OAI222XL

*CAP
1 *708:Y 0.000139839
2 *692:A 7.9732e-05
3 *517:B1 0.000139839
4 *156:3 0.00045494
5 *156:4 0.000147934
6 *156:5 0.000390092
7 *156:6 0.00053477
8 *156:7 0.00053477
9 *156:8 0.000120606
10 *156:9 0.00021297
11 *156:10 0.000109565
12 *156:11 0.000152104
13 *156:12 0.000109565
14 *156:13 0.000414417
15 *156:14 0.000475283
16 *156:15 0.000115065

*RES
1 *156:15 *692:A 0.447656
2 *156:5 *156:15 3.20000005
3 *156:3 *517:B1 3.20000005
4 *156:3 *156:5 1.56001
5 *156:4 *156:3 0.468018
6 *156:14 *156:4 3.20000005
7 *156:13 *156:14 1.65474
8 *156:6 *156:13 0.156006
9 *156:7 *156:6 2.39014
10 *156:7 *156:12 0.156006
11 *156:10 *156:12 0.551562
12 *156:10 *156:11 0.156006
13 *156:9 *156:11 0.367725
14 *156:8 *156:9 3.20000005
15 *708:Y *156:8 3.20000005
*END

*D_NET *157 0.000892684

*CONN
*I *692:Y O *C 92.07 84.28 *L 0 *D INVXL
*I *517:A1 I *C 92.07 78.12 *L 0.00354 *D OAI222XL

*CAP
1 *692:Y 0.000139844
2 *517:A1 0.000139844
3 *157:2 0.0003065
4 *157:3 0.0003065

*RES
1 *157:3 *692:Y 3.20000005
2 *157:2 *157:3 1.09199
3 *517:A1 *157:2 3.20000005
*END

*D_NET *158 0.000972692

*CONN
*I *691:Y O *C 65.01 32.76 *L 0 *D INVX1
*I *663:B0 I *C 66.33 27.16 *L 0.00319 *D AOI21XL

*CAP
1 *691:Y 7.97265e-05
2 *663:B0 6.33013e-05
3 *158:2 0.00032246
4 *158:3 0.00011506
5 *158:4 0.00039214

*RES
1 *158:2 *663:B0 6.4000001
2 *158:2 *158:4 1.404
3 *158:3 *158:4 3.2
4 *691:Y *158:3 0.447656
*END

*D_NET *159 0.00063392

*CONN
*I *690:Y O *C 134.97 103.32 *L 0 *D INVX1
*I *648:B0 I *C 132.99 103.88 *L 0.00319 *D AOI21XL

*CAP
1 *690:Y 0.000139841
2 *648:B0 6.32994e-05
3 *159:2 6.57203e-05
4 *159:3 7.12188e-05
5 *159:4 0.000111481
6 *159:5 0.00018236

*RES
1 *159:5 *690:Y 3.2
2 *159:4 *159:5 0.367676
3 *159:3 *159:4 0.155957
4 *159:2 *159:3 0.183887
5 *648:B0 *159:2 6.4000001
*END

*D_NET *160 0.00122729

*CONN
*I *689:Y O *C 119.79 93.24 *L 0 *D INVX1
*I *667:B0 I *C 125.73 93.8 *L 0.00319 *D AOI21XL

*CAP
1 *689:Y 7.97317e-05
2 *667:B0 6.33022e-05
3 *160:2 0.000115063
4 *160:3 0.0001206
5 *160:4 0.000364
6 *160:5 0.0001206
7 *160:6 0.000364

*RES
1 *160:5 *667:B0 6.4000001
2 *160:6 *160:5 3.2
3 *160:4 *160:6 1.28701
4 *160:3 *160:4 3.2
5 *160:2 *160:3 3.2
6 *689:Y *160:2 0.447656
*END

*D_NET *161 0.00086027

*CONN
*I *688:Y O *C 126.39 98.28 *L 0 *D INVX1
*I *673:B0 I *C 126.39 103.88 *L 0.00319 *D AOI21XL

*CAP
1 *688:Y 3.73011e-05
2 *673:B0 6.33005e-05
3 *161:2 0.00030157
4 *161:3 0.00030157
5 *161:4 0.00015653

*RES
1 *161:2 *673:B0 6.4000001
2 *161:3 *161:2 1.24805
3 *161:4 *161:3 3.2
4 *688:Y *161:4 0.189941
*END

*D_NET *162 0.00122505

*CONN
*I *687:Y O *C 132.99 57.96 *L 0 *D INVX1
*I *670:B0 I *C 131.01 57.4 *L 0.00319 *D AOI21XL

*CAP
1 *687:Y 0.000139841
2 *670:B0 3.98601e-05
3 *162:2 0.000117278
4 *162:3 0.000120601
5 *162:4 0.000255250234
6 *162:5 0.000114451
7 *162:6 0.0001261
8 *162:7 0.000255250234
9 *162:8 5.64211e-05

*RES
1 *162:8 *687:Y 3.20000005
2 *162:6 *162:8 0.156006
3 *162:7 *162:6 3.20000005
4 *162:4 *162:7 0.735449
5 *162:5 *670:B0 0.223828
6 *162:3 *162:4 3.20000005
7 *162:2 *162:5 0.379834
8 *162:2 *162:3 3.20000005
*END

*D_NET *163 0.000851454

*CONN
*I *686:Y O *C 53.79 68.04 *L 0 *D INVX1
*I *664:B0 I *C 57.75 67.48 *L 0.00319 *D AOI21XL

*CAP
1 *686:Y 0.000122361
2 *664:B0 6.33004e-05
3 *163:2 0.000190398
4 *163:3 9.46801e-05
5 *163:4 0.000157691
6 *163:5 0.00022302

*RES
1 *163:3 *664:B0 6.4000001
2 *163:3 *163:2 0.312012
3 *163:5 *163:2 0.551562
4 *163:4 *163:5 3.2
5 *686:Y *163:4 0.671484
*END

*D_NET *164 0.000799529

*CONN
*I *685:Y O *C 130.35 73.08 *L 0 *D INVX1
*I *672:B0 I *C 133.65 73.64 *L 0.00319 *D AOI21XL

*CAP
1 *685:Y 6.43181e-05
2 *672:B0 6.3299e-05
3 *164:2 0.00017619
4 *164:3 0.00022262
5 *164:4 0.000184211
6 *164:5 8.88917e-05

*RES
1 *164:5 *672:B0 6.4000001
2 *164:4 *164:5 0.312012
3 *164:3 *164:4 0.551562
4 *164:2 *164:3 3.2
5 *685:Y *164:2 0.447656
*END

*D_NET *165 0.000804192

*CONN
*I *684:Y O *C 37.95 47.88 *L 0 *D INVX1
*I *665:B0 I *C 41.91 47.32 *L 0.00319 *D AOI21XL

*CAP
1 *684:Y 0.000121999
2 *665:B0 6.3299e-05
3 *165:2 0.00015733
4 *165:3 0.00022262
5 *165:4 7.18118e-05
6 *165:5 0.000167131

*RES
1 *165:4 *665:B0 6.4000001
2 *165:4 *165:5 0.312012
3 *165:3 *165:5 0.551562
4 *165:2 *165:3 3.2
5 *684:Y *165:2 0.671484
*END

*D_NET *166 0.00064087

*CONN
*I *683:Y O *C 57.09 93.24 *L 0 *D INVX1
*I *668:B0 I *C 60.39 93.8 *L 0.00319 *D AOI21XL

*CAP
1 *683:Y 3.98591e-05
2 *668:B0 6.32998e-05
3 *166:2 0.000145500176
4 *166:3 0.000145500176
5 *166:4 7.51912e-05
6 *166:5 0.000120601
7 *166:6 5.09201e-05

*RES
1 *166:6 *668:B0 6.4000001
2 *166:2 *166:6 6.4000001
3 *166:3 *166:2 0.735449
4 *166:5 *166:3 3.2
5 *166:4 *166:5 3.2
6 *683:Y *166:4 0.223828
*END

*D_NET *167 0.00104179

*CONN
*I *682:Y O *C 78.87 98.28 *L 0 *D INVX1
*I *674:B0 I *C 82.17 97.72 *L 0.00319 *D AOI21XL

*CAP
1 *682:Y 7.96992e-05
2 *674:B0 6.32981e-05
3 *167:2 0.000128779
4 *167:3 5.90991e-05
5 *167:4 0.00023764
6 *167:5 0.00023764
7 *167:6 0.000115032
8 *167:7 0.000120599

*RES
1 *167:3 *674:B0 6.4000001
2 *167:3 *167:2 0.155957
3 *167:4 *167:2 3.2
4 *167:5 *167:4 0.551562
5 *167:7 *167:5 3.2
6 *167:6 *167:7 3.2
7 *682:Y *167:6 0.447656
*END

*D_NET *168 0.00099707

*CONN
*I *681:Y O *C 80.85 113.4 *L 0 *D INVX1
*I *675:B0 I *C 84.81 113.96 *L 0.00319 *D AOI21XL

*CAP
1 *681:Y 7.97314e-05
2 *675:B0 6.3302e-05
3 *168:2 0.000115059
4 *168:3 0.0001206
5 *168:4 0.00024889
6 *168:5 0.0001206
7 *168:6 0.00024889

*RES
1 *168:5 *675:B0 6.4000001
2 *168:6 *168:5 3.2
3 *168:4 *168:6 0.735449
4 *168:3 *168:4 3.2
5 *168:2 *168:3 3.2
6 *681:Y *168:2 0.447656
*END

*D_NET *169 0.00118355

*CONN
*I *680:Y O *C 57.75 52.92 *L 0 *D INVX1
*I *671:B0 I *C 59.07 47.32 *L 0.00319 *D AOI21XL

*CAP
1 *680:Y 3.73007e-05
2 *671:B0 6.32966e-05
3 *169:2 0.000119701
4 *169:3 0.000387921
5 *169:4 0.000117732
6 *169:5 0.0004576

*RES
1 *169:3 *671:B0 6.4000001
2 *169:3 *169:5 1.24805
3 *169:4 *169:5 3.2
4 *169:2 *169:4 0.447656
5 *169:2 *680:Y 0.189941
*END

*D_NET *170 0.000866927

*CONN
*I *679:Y O *C 68.31 108.36 *L 0 *D INVX1
*I *676:B0 I *C 72.27 107.8 *L 0.00319 *D AOI21XL

*CAP
1 *679:Y 0.00011959
2 *676:B0 6.3299e-05
3 *170:2 0.000154919
4 *170:3 0.00022262
5 *170:4 0.000105591
6 *170:5 0.00020091

*RES
1 *170:4 *676:B0 6.4000001
2 *170:4 *170:5 0.312012
3 *170:3 *170:5 0.551562
4 *170:2 *170:3 3.2
5 *679:Y *170:2 0.671484
*END

*D_NET *171 0.0027616

*CONN
*I *748:Y O *C 115.83 123.48 *L 0 *D INVX1
*I *678:A0 I *C 109.89 114.52 *L 0.00465 *D AOI21X1
*I *647:A0 I *C 113.85 113.4 *L 0.00314 *D AOI21XL

*CAP
1 *748:Y 8.34271e-05
2 *678:A0 0.000139841
3 *647:A0 0.000139841
4 *171:3 0.000142096
5 *171:4 0.000128646
6 *171:5 0.000128646
7 *171:6 0.000389
8 *171:7 0.000253071
9 *171:8 0.00033394
10 *171:9 0.000148352
11 *171:10 0.00010809
12 *171:11 0.000104262
13 *171:12 0.000144518
14 *171:13 0.000142096
15 *171:14 0.000255042
16 *171:15 0.000120733

*RES
1 *171:13 *647:A0 3.2
2 *171:11 *171:13 0.183887
3 *171:15 *748:Y 0.447656
4 *171:11 *171:12 0.467969
5 *171:14 *171:15 0.189941
6 *171:9 *171:12 0.367676
7 *171:7 *171:14 1.11914
8 *171:9 *171:10 0.312012
9 *171:8 *171:7 6.4000001
10 *171:6 *171:10 0.183887
11 *171:6 *171:8 1.71602
12 *171:5 *171:6 0.183887
13 *171:4 *171:5 0.467969
14 *171:3 *171:4 0.183887
15 *678:A0 *171:3 3.2
*END

*D_NET *172 0.00180323

*CONN
*I *741:Y O *C 65.01 68.04 *L 0 *D INVX1
*I *677:A0 I *C 60.39 66.92 *L 0.00465 *D AOI21X1
*I *664:A0 I *C 57.09 68.04 *L 0.00314 *D AOI21XL

*CAP
1 *741:Y 0.000139842
2 *677:A0 0.000139842
3 *664:A0 6.32981e-05
4 *172:3 0.000369082
5 *172:4 0.00055861
6 *172:5 0.000240449
7 *172:6 5.09214e-05
8 *172:7 0.000120595
9 *172:8 0.000120595

*RES
1 *172:8 *741:Y 3.2
2 *172:7 *677:A0 3.2
3 *172:3 *172:8 3.2
4 *172:4 *172:7 3.2
5 *172:4 *172:3 1.28701
6 *172:5 *172:4 0.919238
7 *172:6 *172:5 6.4000001
8 *664:A0 *172:6 6.4000001
*END

*D_NET *173 0.00240056

*CONN
*I *742:Y O *C 78.21 108.36 *L 0 *D INVX1
*I *676:A0 I *C 71.61 108.36 *L 0.00314 *D AOI21XL
*I *655:A0 I *C 75.57 107.24 *L 0.00465 *D AOI21X1

*CAP
1 *742:Y 6.32973e-05
2 *676:A0 6.32973e-05
3 *655:A0 0.000139841
4 *173:3 0.000109968
5 *173:4 0.00027911
6 *173:5 0.000412643
7 *173:6 0.000340597
8 *173:7 7.20393e-05
9 *173:8 0.000142096
10 *173:9 0.000416359219
11 *173:10 0.000295578
12 *173:11 6.57242e-05

*RES
1 *173:11 *742:Y 6.4000001
2 *173:10 *173:11 0.183887
3 *173:9 *173:10 1.09199
4 *173:8 *655:A0 3.2
5 *173:6 *173:9 0.735449
6 *173:7 *173:8 0.183887
7 *173:3 *676:A0 6.4000001
8 *173:6 *173:5 0.936035
9 *173:5 *173:7 0.155957
10 *173:4 *173:3 0.467969
11 *173:4 *173:5 0.919238
*END

*D_NET *174 0.00222225

*CONN
*I *393:A I *C 63.03 113.96 *L 0.00446 *D BUFX3
*I *676:Y O *C 72.93 107.24 *L 0 *D AOI21XL

*CAP
1 *393:A 6.32983e-05
2 *676:Y 0.000139835
3 *174:2 5.39795e-05
4 *174:3 5.39795e-05
5 *174:4 0.00058385
6 *174:5 0.000336884
7 *174:6 0.000406561
8 *174:7 0.00058385

*RES
1 *174:5 *676:Y 3.2
2 *174:5 *174:6 1.55996
3 *174:7 *174:6 3.2
4 *174:4 *174:7 2.75781
5 *174:3 *174:4 6.4000001
6 *174:2 *174:3 0.155957
7 *393:A *174:2 6.4000001
*END

*D_NET *175 0.00260342

*CONN
*I *747:Y O *C 88.77 113.4 *L 0 *D INVX1
*I *675:A0 I *C 84.15 113.4 *L 0.00314 *D AOI21XL
*I *654:A0 I *C 80.85 107.24 *L 0.00465 *D AOI21X1

*CAP
1 *747:Y 0.000119591
2 *675:A0 0.00013984
3 *654:A0 0.00013984
4 *175:3 0.000188169
5 *175:4 0.000188169
6 *175:5 0.00023552
7 *175:6 7.24224e-05
8 *175:7 0.000305199
9 *175:8 0.000179884
10 *175:9 0.00038587
11 *175:10 0.000110671
12 *175:11 0.000224609
13 *175:12 0.000154919
14 *175:13 0.000158711

*RES
1 *175:12 *747:Y 0.671484
2 *175:13 *175:12 3.20000005
3 *175:10 *675:A0 3.20000005
4 *175:11 *175:13 0.312012
5 *175:9 *175:10 0.468018
6 *175:9 *175:11 0.735449
7 *175:8 *175:9 0.624023
8 *175:6 *175:8 0.183838
9 *175:7 *175:6 3.20000005
10 *175:5 *175:7 0.735449
11 *175:3 *175:5 3.20000005
12 *175:4 *175:3 0.312012
13 *654:A0 *175:4 3.20000005
*END

*D_NET *176 0.0014736

*CONN
*I *408:A I *C 79.53 117.88 *L 0.00446 *D BUFX3
*I *675:Y O *C 85.47 114.52 *L 0 *D AOI21XL

*CAP
1 *408:A 6.32992e-05
2 *675:Y 3.72999e-05
3 *176:2 0.000340500234
4 *176:3 0.000340500234
5 *176:4 5.09231e-05
6 *176:5 9.02389e-05
7 *176:6 0.000264149
8 *176:7 0.00019447
9 *176:8 9.22133e-05

*RES
1 *675:Y *176:8 0.189941
2 *176:5 *176:8 0.223828
3 *176:6 *176:5 3.2
4 *176:6 *176:7 0.77998
5 *176:2 *176:7 6.4000001
6 *176:3 *176:2 1.28701
7 *176:4 *176:3 6.4000001
8 *408:A *176:4 6.4000001
*END

*D_NET *177 0.00290196

*CONN
*I *749:Y O *C 94.71 98.28 *L 0 *D INVX1
*I *674:A0 I *C 81.51 98.28 *L 0.00314 *D AOI21XL
*I *653:A0 I *C 90.09 97.16 *L 0.00465 *D AOI21X1

*CAP
1 *749:Y 0.000132907
2 *674:A0 0.000139839
3 *653:A0 0.000139839
4 *177:3 0.000126929
5 *177:4 5.72476e-05
6 *177:5 0.000147867
7 *177:6 0.00062487
8 *177:7 0.00056009
9 *177:8 0.000125632
10 *177:9 0.000125632
11 *177:10 0.000244771
12 *177:11 0.000120607
13 *177:5 *111:9 3.79e-05
14 *177:6 *111:8 3.79e-05
15 *177:6 *111:8 0.00013997
16 *177:7 *111:6 0.00013997

*RES
1 *177:10 *749:Y 0.671484
2 *177:8 *653:A0 3.20000005
3 *177:11 *177:10 3.20000005
4 *177:8 *177:9 0.156006
5 *177:5 *177:11 3.20000005
6 *177:6 *177:9 3.20000005
7 *177:6 *177:5 0.735449
8 *177:7 *177:6 2.39014
9 *177:3 *177:7 3.20000005
10 *177:4 *177:3 0.156006
11 *674:A0 *177:4 3.20000005
*END

*D_NET *178 0.00114647

*CONN
*I *407:A I *C 78.87 93.8 *L 0.00446 *D BUFX3
*I *674:Y O *C 82.83 97.16 *L 0 *D AOI21XL

*CAP
1 *407:A 6.32995e-05
2 *674:Y 3.73003e-05
3 *178:2 5.09203e-05
4 *178:3 0.000174589
5 *178:4 0.00023166
6 *178:5 0.000174589
7 *178:6 9.02391e-05
8 *178:7 0.00023166
9 *178:8 9.22115e-05

*RES
1 *178:8 *674:Y 0.189941
2 *178:6 *178:8 0.223828
3 *178:7 *178:6 6.4000001
4 *178:4 *178:7 0.77998
5 *178:5 *178:4 6.4000001
6 *178:3 *178:5 0.735449
7 *178:2 *178:3 6.4000001
8 *407:A *178:2 6.4000001
*END

*D_NET *179 0.00308798

*CONN
*I *746:Y O *C 127.71 113.4 *L 0 *D INVX1
*I *673:A0 I *C 125.73 103.32 *L 0.00314 *D AOI21XL
*I *650:A0 I *C 122.43 97.16 *L 0.00465 *D AOI21X1

*CAP
1 *746:Y 0.00011959
2 *673:A0 0.00013984
3 *650:A0 0.00013984
4 *179:3 0.000355856
5 *179:4 0.000289278
6 *179:5 0.000158776
7 *179:6 0.000239304
8 *179:7 0.000150444
9 *179:8 5.51171e-05
10 *179:9 0.000106847
11 *179:10 0.000142104
12 *179:11 0.000490594
13 *179:12 0.000154922
14 *179:13 0.00054547

*RES
1 *179:12 *746:Y 0.671484
2 *179:13 *179:12 3.20000005
3 *179:11 *179:13 2.18398
4 *179:10 *673:A0 3.20000005
5 *179:9 *179:11 0.183838
6 *179:3 *179:10 0.183838
7 *179:3 *179:9 0.468018
8 *179:4 *179:3 1.09199
9 *179:5 *179:4 0.183838
10 *179:8 *650:A0 3.20000005
11 *179:6 *179:5 0.77998
12 *179:7 *179:8 0.156006
13 *179:7 *179:6 0.551562
*END

*D_NET *180 0.00148077

*CONN
*I *406:A I *C 128.37 113.96 *L 0.00446 *D BUFX3
*I *673:Y O *C 127.05 104.44 *L 0 *D AOI21XL

*CAP
1 *406:A 6.33052e-05
2 *673:Y 8.2394e-05
3 *180:2 0.000573832
4 *180:3 0.00064351
5 *180:4 0.000117734

*RES
1 *180:2 *406:A 6.4000001
2 *180:3 *180:2 2.65195
3 *180:4 *180:3 3.2
4 *673:Y *180:4 0.447656
*END

*D_NET *181 0.0022544

*CONN
*I *744:Y O *C 139.59 73.08 *L 0 *D INVX1
*I *672:A0 I *C 132.99 73.08 *L 0.00314 *D AOI21XL
*I *658:A0 I *C 127.05 74.2 *L 0.00465 *D AOI21X1

*CAP
1 *744:Y 0.000119591
2 *672:A0 6.3302e-05
3 *658:A0 0.000139843
4 *181:3 0.000283516
5 *181:4 0.00070709
6 *181:5 0.000436986
7 *181:6 5.09157e-05
8 *181:7 5.09157e-05
9 *181:8 0.000154926
10 *181:9 0.000123658
11 *181:10 0.000123658

*RES
1 *181:8 *744:Y 0.671484
2 *181:9 *181:8 3.2
3 *181:9 *181:10 0.155957
4 *181:7 *672:A0 6.4000001
5 *181:3 *181:10 3.2
6 *181:4 *181:7 6.4000001
7 *181:4 *181:3 1.28701
8 *181:5 *181:4 1.65469
9 *181:6 *181:5 6.4000001
10 *658:A0 *181:6 3.2
*END

*D_NET *182 7.972e-05

*CONN
*I *404:A I *C 134.97 73.64 *L 0.00446 *D BUFX3
*I *672:Y O *C 134.31 74.2 *L 0 *D AOI21XL

*CAP
1 *404:A 3.986e-05
2 *672:Y 3.986e-05

*RES
1 *672:Y *404:A 0.223826
*END

*D_NET *183 0.00414049

*CONN
*I *743:Y O *C 66.99 37.8 *L 0 *D INVX1
*I *671:A0 I *C 58.41 47.88 *L 0.00314 *D AOI21XL
*I *661:A0 I *C 59.73 54.04 *L 0.00465 *D AOI21X1

*CAP
1 *743:Y 3.72938e-05
2 *671:A0 0.000139836
3 *661:A0 0.000139836
4 *183:3 0.000347707
5 *183:4 0.000278031
6 *183:5 0.000155917
7 *183:6 0.000689240313
8 *183:7 0.000616399
9 *183:8 0.000584995
10 *183:9 0.000584995
11 *183:10 0.000182819
12 *183:11 0.000182819
13 *183:12 7.99933e-05
14 *183:13 0.0001206

*RES
1 *183:3 *661:A0 3.20000005
2 *183:4 *183:3 0.935986
3 *183:11 *183:4 3.20000005
4 *743:Y *183:12 0.189893
5 *183:10 *183:11 0.367725
6 *183:13 *183:12 3.20000005
7 *183:5 *183:10 3.20000005
8 *183:8 *183:13 3.20000005
9 *183:6 *671:A0 3.20000005
10 *183:6 *183:5 0.468018
11 *183:9 *183:8 2.39014
12 *183:7 *183:6 2.496
13 *183:7 *183:9 3.20000005
*END

*D_NET *184 7.972e-05

*CONN
*I *391:A I *C 60.39 47.32 *L 0.00446 *D BUFX3
*I *671:Y O *C 59.73 46.76 *L 0 *D AOI21XL

*CAP
1 *391:A 3.986e-05
2 *671:Y 3.986e-05

*RES
1 *671:Y *391:A 0.223826
*END

*D_NET *185 0.00212814

*CONN
*I *739:Y O *C 138.93 57.96 *L 0 *D INVX1
*I *670:A0 I *C 130.35 57.96 *L 0.00314 *D AOI21XL
*I *656:A0 I *C 127.71 56.84 *L 0.00465 *D AOI21X1

*CAP
1 *739:Y 0.000292011
2 *670:A0 0.000139842
3 *656:A0 0.000139842
4 *185:3 0.000227178
5 *185:4 0.000227178
6 *185:5 0.000262881
7 *185:6 0.000262881
8 *185:7 0.000124493
9 *185:8 0.00032734
10 *185:9 0.000124493

*RES
1 *185:8 *739:Y 1.5668
2 *185:9 *185:8 3.20000005
3 *185:7 *185:9 0.156006
4 *185:3 *185:7 3.20000005
5 *185:4 *185:3 1.10312
6 *185:6 *670:A0 3.20000005
7 *185:6 *185:4 3.20000005
8 *185:5 *185:6 0.735449
9 *656:A0 *185:5 3.20000005
*END

*D_NET *186 0.00136536

*CONN
*I *396:A I *C 127.05 63.56 *L 0.00446 *D BUFX3
*I *670:Y O *C 131.67 56.84 *L 0 *D AOI21XL

*CAP
1 *396:A 6.33009e-05
2 *670:Y 0.000139839
3 *186:2 7.53089e-05
4 *186:3 0.000254099316
5 *186:4 7.53089e-05
6 *186:5 0.000251699
7 *186:6 0.000251699
8 *186:7 0.000254099316

*RES
1 *186:5 *670:Y 3.2
2 *186:5 *186:6 1.09199
3 *186:7 *186:6 6.4000001
4 *186:4 *396:A 6.4000001
5 *186:3 *186:7 1.28701
6 *186:2 *186:4 0.312012
7 *186:2 *186:3 6.4000001
*END

*D_NET *187 0.00146885

*CONN
*I *737:Y O *C 129.03 83.16 *L 0 *D INVX1
*I *669:A0 I *C 125.73 83.16 *L 0.00314 *D AOI21XL
*I *659:A0 I *C 121.77 84.28 *L 0.00465 *D AOI21X1

*CAP
1 *737:Y 7.9731e-05
2 *669:A0 0.000139838
3 *659:A0 0.000139838
4 *187:3 0.0003434
5 *187:4 0.000150444
6 *187:5 0.000277922
7 *187:6 0.000115059
8 *187:7 0.000222619

*RES
1 *187:6 *737:Y 0.447656
2 *187:7 *187:6 3.20000005
3 *187:4 *187:7 0.551562
4 *187:5 *669:A0 3.20000005
5 *187:4 *187:5 0.156006
6 *187:3 *187:5 1.10312
7 *659:A0 *187:3 3.20000005
*END

*D_NET *188 0.000788323

*CONN
*I *402:A I *C 126.39 87.64 *L 0.00446 *D BUFX3
*I *669:Y O *C 127.05 84.28 *L 0 *D AOI21XL

*CAP
1 *402:A 6.33013e-05
2 *669:Y 6.33013e-05
3 *188:2 0.00011341
4 *188:3 0.00011341
5 *188:4 6.57207e-05
6 *188:5 6.57207e-05
7 *188:6 0.00015173
8 *188:7 0.00015173

*RES
1 *188:4 *402:A 6.4000001
2 *188:4 *188:7 0.183887
3 *188:6 *188:7 0.624023
4 *188:2 *188:6 0.183887
5 *188:5 *669:Y 6.4000001
6 *188:3 *188:2 0.312012
7 *188:3 *188:5 0.183887
*END

*D_NET *189 0.00210641

*CONN
*I *745:Y O *C 69.63 93.24 *L 0 *D INVX1
*I *668:A0 I *C 59.73 93.24 *L 0.00314 *D AOI21XL
*I *649:A0 I *C 65.01 94.36 *L 0.00465 *D AOI21X1

*CAP
1 *745:Y 0.000119591
2 *668:A0 0.000139838
3 *649:A0 0.000139838
4 *189:3 0.0004669
5 *189:4 0.000354248
6 *189:5 0.000137487
7 *189:6 6.78104e-05
8 *189:7 0.000139561
9 *189:8 0.000139561
10 *189:9 0.000154921
11 *189:10 0.000120595
12 *189:11 0.000126053

*RES
1 *189:9 *745:Y 0.671484
2 *189:8 *649:A0 3.20000005
3 *189:10 *189:9 3.20000005
4 *189:7 *189:8 0.156006
5 *189:11 *189:10 3.20000005
6 *189:3 *189:7 3.20000005
7 *189:3 *189:11 0.735449
8 *189:6 *668:A0 3.20000005
9 *189:4 *189:3 1.47085
10 *189:5 *189:6 0.156006
11 *189:5 *189:4 3.20000005
*END

*D_NET *190 7.972e-05

*CONN
*I *409:A I *C 61.71 93.8 *L 0.00446 *D BUFX3
*I *668:Y O *C 61.05 94.36 *L 0 *D AOI21XL

*CAP
1 *409:A 3.986e-05
2 *668:Y 3.986e-05

*RES
1 *668:Y *409:A 0.223826
*END

*D_NET *191 0.00138525

*CONN
*I *736:Y O *C 129.03 93.24 *L 0 *D INVX1
*I *667:A0 I *C 125.07 93.24 *L 0.00314 *D AOI21XL
*I *657:A0 I *C 122.43 94.36 *L 0.00465 *D AOI21X1

*CAP
1 *736:Y 0.000119589
2 *667:A0 0.000139842
3 *657:A0 0.000139842
4 *191:3 0.00026288
5 *191:4 0.0001493
6 *191:5 0.00019626
7 *191:6 0.00015492
8 *191:7 0.000222619

*RES
1 *191:6 *736:Y 0.671484
2 *191:7 *191:6 3.20000005
3 *191:4 *191:7 0.551562
4 *191:5 *667:A0 3.20000005
5 *191:4 *191:5 0.156006
6 *191:3 *191:5 0.735449
7 *657:A0 *191:3 3.20000005
*END

*D_NET *192 0.00081828

*CONN
*I *401:A I *C 127.05 97.72 *L 0.00446 *D BUFX3
*I *667:Y O *C 126.39 94.36 *L 0 *D AOI21XL

*CAP
1 *401:A 6.32977e-05
2 *667:Y 0.000139841
3 *192:2 0.000247266
4 *192:3 0.00030215
5 *192:4 6.57183e-05

*RES
1 *192:4 *401:A 6.4000001
2 *192:2 *192:4 0.183887
3 *192:3 *192:2 0.936035
4 *667:Y *192:3 3.2
*END

*D_NET *193 0.00253442

*CONN
*I *738:Y O *C 105.93 113.4 *L 0 *D INVX1
*I *666:A0 I *C 102.63 113.4 *L 0.00314 *D AOI21XL
*I *652:A0 I *C 101.31 107.24 *L 0.00465 *D AOI21X1

*CAP
1 *738:Y 0.000139842
2 *666:A0 0.000139842
3 *652:A0 0.000139842
4 *193:3 0.00047389
5 *193:4 0.000301898
6 *193:5 0.000140522
7 *193:6 0.000316361
8 *193:7 0.000300329
9 *193:8 0.000370015
10 *193:9 0.0001206
11 *193:10 9.12854e-05

*RES
1 *193:5 *666:A0 3.20000005
2 *193:6 *193:5 0.468018
3 *193:10 *738:Y 3.20000005
4 *193:6 *193:3 0.919287
5 *193:3 *193:10 0.312012
6 *193:4 *193:3 0.935986
7 *193:7 *193:4 3.20000005
8 *193:8 *193:7 1.28701
9 *193:9 *193:8 3.20000005
10 *652:A0 *193:9 3.20000005
*END

*D_NET *194 0.00249983

*CONN
*I *394:A I *C 98.01 124.04 *L 0.00446 *D BUFX3
*I *666:Y O *C 103.95 114.52 *L 0 *D AOI21XL

*CAP
1 *394:A 7.97316e-05
2 *666:Y 0.000139843
3 *194:2 0.000363854
4 *194:3 0.000363854
5 *194:4 0.000278247
6 *194:5 0.000278247
7 *194:6 0.0004405
8 *194:7 0.00011506
9 *194:8 0.0004405

*RES
1 *194:5 *666:Y 3.2
2 *194:5 *194:4 0.77998
3 *194:7 *394:A 0.447656
4 *194:8 *194:4 3.2
5 *194:2 *194:7 6.4000001
6 *194:6 *194:8 2.02246
7 *194:3 *194:2 1.87197
8 *194:3 *194:6 6.4000001
*END

*D_NET *195 0.00149591

*CONN
*I *734:Y O *C 50.49 47.88 *L 0 *D INVX1
*I *665:A0 I *C 41.25 47.88 *L 0.00314 *D AOI21XL
*I *660:A0 I *C 45.21 46.76 *L 0.00465 *D AOI21X1

*CAP
1 *734:Y 6.32989e-05
2 *665:A0 6.32989e-05
3 *660:A0 6.32989e-05
4 *195:3 0.000262716
5 *195:4 0.00047447
6 *195:5 0.000225155
7 *195:6 5.09186e-05
8 *195:7 5.09186e-05
9 *195:8 5.09186e-05
10 *195:4 *14:2 9.545e-05
11 *195:5 *14:3 9.54500008e-05

*RES
1 *195:8 *734:Y 6.4000001
2 *195:7 *660:A0 6.4000001
3 *195:3 *195:8 6.4000001
4 *195:4 *195:7 6.4000001
5 *195:4 *195:3 1.4709
6 *195:5 *195:4 1.10312
7 *195:6 *195:5 6.4000001
8 *665:A0 *195:6 6.4000001
*END

*D_NET *196 0.00193212

*CONN
*I *403:Y O *C 48.51 47.32 *L 0 *D BUFX3
*I *632:D I *C 39.93 43.96 *L 0.00184 *D DFFRHQX1

*CAP
1 *403:Y 6.33036e-05
2 *632:D 6.33036e-05
3 *196:2 0.0005941
4 *196:3 0.0005941
5 *196:4 5.75561e-05
6 *196:5 7.23599e-05
7 *196:6 0.000185378
8 *196:7 0.000185378
9 *196:8 6.5724e-05
10 *196:9 5.09203e-05

*RES
1 *196:9 *403:Y 6.4000001
2 *196:2 *196:9 6.4000001
3 *196:3 *196:2 2.02246
4 *196:4 *196:3 6.4000001
5 *196:5 *196:4 0.155957
6 *196:6 *196:5 0.183887
7 *196:7 *196:6 0.624023
8 *196:8 *196:7 0.183887
9 *632:D *196:8 6.4000001
*END

*D_NET *197 0.00133826

*CONN
*I *405:A I *C 53.79 63.56 *L 0.00446 *D BUFX3
*I *664:Y O *C 58.41 66.92 *L 0 *D AOI21XL

*CAP
1 *405:A 6.33004e-05
2 *664:Y 6.33004e-05
3 *197:2 5.09183e-05
4 *197:3 0.00028205
5 *197:4 0.000179232
6 *197:5 0.00028205
7 *197:6 0.000179232
8 *197:6 *122:3 0.00011909
9 *197:4 *122:4 0.00011909

*RES
1 *197:6 *664:Y 6.4000001
2 *197:4 *197:6 0.936035
3 *197:5 *197:4 6.4000001
4 *197:3 *197:5 1.28701
5 *197:2 *197:3 6.4000001
6 *405:A *197:2 6.4000001
*END

*D_NET *198 0.00412583

*CONN
*I *735:Y O *C 82.17 27.72 *L 0 *D INVX1
*I *663:A0 I *C 65.67 27.72 *L 0.00314 *D AOI21XL
*I *662:A0 I *C 70.29 36.68 *L 0.00465 *D AOI21X1

*CAP
1 *735:Y 0.000139835
2 *663:A0 0.000139835
3 *662:A0 0.000139835
4 *198:3 0.000462739
5 *198:4 0.000532416
6 *198:5 0.000120599
7 *198:6 0.000350977
8 *198:7 0.00076912
9 *198:8 0.000509918
10 *198:9 0.000183058
11 *198:10 0.000120599
12 *198:11 0.000244039
13 *198:3 *103:5 0.00020644
14 *198:4 *103:6 0.000206439997

*RES
1 *198:10 *735:Y 3.20000005
2 *198:11 *198:10 3.20000005
3 *198:3 *662:A0 3.20000005
4 *198:9 *198:11 0.735449
5 *198:4 *198:3 2.496
6 *198:8 *198:9 0.156006
7 *198:7 *198:4 3.20000005
8 *198:7 *198:8 2.57402
9 *198:6 *198:7 1.28701
10 *198:5 *198:6 3.20000005
11 *663:A0 *198:5 3.20000005
*END

*D_NET *199 0.000761648

*CONN
*I *395:A I *C 68.97 23.24 *L 0.00446 *D BUFX3
*I *663:Y O *C 66.99 26.6 *L 0 *D AOI21XL

*CAP
1 *395:A 3.98622e-05
2 *663:Y 6.33006e-05
3 *199:2 0.00011268
4 *199:3 7.51882e-05
5 *199:4 0.000207777
6 *199:5 0.00026284

*RES
1 *199:3 *395:A 0.223828
2 *199:4 *199:3 6.4000001
3 *199:4 *199:5 0.936035
4 *199:2 *199:5 0.367676
5 *663:Y *199:2 6.4000001
*END

*D_NET *200 0.00296789

*CONN
*I *750:Y O *C 139.59 103.32 *L 0 *D INVX1
*I *651:A0 I *C 129.69 104.44 *L 0.00465 *D AOI21X1
*I *648:A0 I *C 132.33 103.32 *L 0.00314 *D AOI21XL

*CAP
1 *750:Y 0.000139842
2 *651:A0 0.000139842
3 *648:A0 0.000139842
4 *200:3 0.000370806
5 *200:4 0.00044605
6 *200:5 0.000197199
7 *200:6 0.000120601
8 *200:7 0.0002483
9 *200:8 0.000120601
10 *200:9 0.000291159
11 *200:10 0.000120601
12 *200:9 *133:10 0.00022107
13 *200:7 *133:11 0.00022107
14 *200:4 *133:10 9.545e-05
15 *200:5 *133:11 9.54499927e-05

*RES
1 *200:8 *648:A0 3.20000005
2 *200:10 *750:Y 3.20000005
3 *200:5 *200:8 3.20000005
4 *200:3 *200:10 3.20000005
5 *200:5 *200:4 0.735449
6 *200:4 *200:3 1.28701
7 *200:4 *200:9 0.312012
8 *200:7 *200:9 1.47085
9 *200:6 *200:7 3.20000005
10 *651:A0 *200:6 3.20000005
*END

*D_NET *201 0.00146931

*CONN
*I *399:A I *C 127.05 107.8 *L 0.00446 *D BUFX3
*I *648:Y O *C 133.65 104.44 *L 0 *D AOI21XL

*CAP
1 *399:A 6.32981e-05
2 *648:Y 3.72991e-05
3 *201:2 0.00038671
4 *201:3 0.00038671
5 *201:4 5.09181e-05
6 *201:5 9.02412e-05
7 *201:6 0.00018096
8 *201:7 0.00018096
9 *201:8 9.22121e-05

*RES
1 *648:Y *201:8 0.189941
2 *201:5 *201:8 0.223828
3 *201:6 *201:5 6.4000001
4 *201:6 *201:7 0.77998
5 *201:2 *201:7 6.4000001
6 *201:3 *201:2 1.4709
7 *201:4 *201:3 6.4000001
8 *399:A *201:4 6.4000001
*END

*D_NET *202 0.0018187

*CONN
*I *398:A I *C 112.53 124.04 *L 0.00446 *D BUFX3
*I *647:Y O *C 115.17 114.52 *L 0 *D AOI21XL

*CAP
1 *398:A 6.33002e-05
2 *647:Y 6.33002e-05
3 *202:2 0.000131241
4 *202:3 0.00011644
5 *202:4 0.00034129
6 *202:5 0.00034129
7 *202:6 0.00011468
8 *202:7 0.00012948
9 *202:8 5.09214e-05
10 *202:9 0.000131079
11 *202:10 0.000102301
12 *202:11 0.000173939
13 *202:12 5.94413e-05

*RES
1 *202:3 *647:Y 6.4000001
2 *202:3 *202:2 0.467969
3 *202:2 *202:5 0.183887
4 *202:5 *202:4 1.404
5 *202:7 *202:4 0.183887
6 *202:7 *202:6 0.467969
7 *202:12 *202:6 6.4000001
8 *202:10 *202:12 0.183887
9 *202:10 *202:11 0.312012
10 *202:9 *202:11 0.551562
11 *202:8 *202:9 6.4000001
12 *398:A *202:8 6.4000001
*END

*D_NET *203 0.0032253

*CONN
*I *658:Y O *C 127.71 74.2 *L 0 *D AOI21X1
*I *628:A0 I *C 125.07 63 *L 0.00456 *D OAI22X1
*I *627:B0 I *C 119.13 63.56 *L 0.00457 *D OAI22X1
*I *476:B0 I *C 125.07 67.48 *L 0.00319 *D AOI21XL

*CAP
1 *658:Y 0.00013984
2 *628:A0 0.00013984
3 *627:B0 0.00013984
4 *476:B0 6.32999e-05
5 *203:4 0.000159848
6 *203:5 0.000159848
7 *203:6 0.000191431
8 *203:7 0.000154851
9 *203:8 0.000344432
10 *203:9 0.000344432
11 *203:10 0.000271798
12 *203:11 0.000114444
13 *203:12 0.00046449
14 *203:13 0.000424225
15 *203:14 0.00011268

*RES
1 *203:14 *658:Y 3.2
2 *203:13 *203:14 0.367676
3 *203:11 *476:B0 6.4000001
4 *203:12 *203:13 1.71602
5 *203:7 *628:A0 3.2
6 *203:10 *203:11 0.467969
7 *203:10 *203:12 0.551562
8 *203:7 *203:6 0.467969
9 *203:6 *203:10 0.312012
10 *203:9 *203:6 3.2
11 *203:8 *203:9 1.65469
12 *203:4 *203:8 3.2
13 *203:5 *203:4 0.312012
14 *627:B0 *203:5 3.2
*END

*D_NET *204 0.00434061

*CONN
*I *710:B0 I *C 121.11 52.92 *L 0.00433 *D AOI22X1
*I *628:A1 I *C 125.73 63 *L 0.00456 *D OAI22X1
*I *627:A1 I *C 121.11 63 *L 0.00456 *D OAI22X1
*I *624:A1 I *C 124.41 57.96 *L 0.00456 *D OAI22X1
*I *447:Q O *C 129.03 46.76 *L 0 *D DFFRX1

*CAP
1 *710:B0 0.000139844
2 *628:A1 0.000139844
3 *627:A1 6.32915e-05
4 *624:A1 0.000139844
5 *447:Q 0.000139844
6 *204:5 0.00030539
7 *204:6 0.000129552
8 *204:7 0.000105977
9 *204:8 0.000221991
10 *204:9 0.000181732
11 *204:10 0.000224462
12 *204:11 0.000283931
13 *204:12 0.00072603
14 *204:13 0.000507263
15 *204:14 0.000275633
16 *204:15 0.000168438
17 *204:16 0.00018305
18 *204:17 0.000120601
19 *204:18 0.000283931

*RES
1 *204:7 *627:A1 6.4000001
2 *204:17 *447:Q 3.2
3 *204:7 *204:9 0.367676
4 *204:16 *628:A1 3.2
5 *204:18 *204:17 3.2
6 *204:8 *204:9 0.467969
7 *204:15 *204:16 0.467969
8 *204:11 *204:18 1.28701
9 *204:8 *204:14 0.551562
10 *204:14 *204:15 0.367676
11 *204:10 *204:11 3.2
12 *204:13 *624:A1 3.2
13 *204:13 *204:14 0.624023
14 *204:6 *710:B0 3.2
15 *204:10 *204:12 0.624023
16 *204:12 *204:13 2.02803
17 *204:5 *204:6 0.467969
18 *204:5 *204:12 0.919238
*END

*D_NET *205 0.00382499

*CONN
*I *659:Y O *C 122.43 84.28 *L 0 *D AOI21X1
*I *628:B0 I *C 123.75 63.56 *L 0.00457 *D OAI22X1
*I *627:A0 I *C 120.45 63 *L 0.00456 *D OAI22X1
*I *477:B0 I *C 120.45 73.64 *L 0.00319 *D AOI21XL

*CAP
1 *659:Y 0.000139843
2 *628:B0 7.97275e-05
3 *627:A0 0.000139843
4 *477:B0 6.33001e-05
5 *205:4 0.000343909
6 *205:5 0.000384169
7 *205:6 0.000141927
8 *205:7 0.000141927
9 *205:8 0.000123664
10 *205:9 0.00031373
11 *205:10 0.000204688
12 *205:11 0.000270291
13 *205:12 0.000387952148
14 *205:13 0.000102862
15 *205:14 0.000191599
16 *205:15 0.000222625
17 *205:16 0.000250258
18 *205:17 0.000250258
19 *205:18 7.24225e-05

*RES
1 *205:18 *659:Y 3.2
2 *205:17 *205:18 0.183887
3 *205:16 *205:17 1.09199
4 *205:4 *205:16 0.183887
5 *205:14 *628:B0 0.447656
6 *205:13 *477:B0 6.4000001
7 *205:5 *205:4 1.55996
8 *205:8 *627:A0 3.2
9 *205:15 *205:14 3.2
10 *205:12 *205:13 0.312012
11 *205:12 *205:5 0.367676
12 *205:8 *205:9 0.155957
13 *205:9 *205:15 0.551562
14 *205:11 *205:12 0.936035
15 *205:9 *205:10 0.77998
16 *205:7 *205:11 0.183887
17 *205:6 *205:10 0.183887
18 *205:6 *205:7 0.77998
*END

*D_NET *206 0.00454317

*CONN
*I *655:Y O *C 76.23 107.24 *L 0 *D AOI21X1
*I *626:A0 I *C 74.25 83.16 *L 0.00456 *D OAI22X1
*I *625:B0 I *C 76.89 83.72 *L 0.00457 *D OAI22X1
*I *475:B0 I *C 74.91 97.72 *L 0.00319 *D AOI21XL

*CAP
1 *655:Y 0.000139841
2 *626:A0 0.000139841
3 *625:B0 3.98674e-05
4 *475:B0 6.33028e-05
5 *206:4 0.00088777
6 *206:5 6.97374e-05
7 *206:6 0.000114996
8 *206:7 0.000114996
9 *206:8 0.000872788
10 *206:9 8.49637e-05
11 *206:10 8.49637e-05
12 *206:11 0.000142225
13 *206:12 7.51831e-05
14 *206:13 0.000106232
15 *206:14 0.000742917
16 *206:15 0.000742917
17 *206:16 0.000120605

*RES
1 *206:16 *655:Y 3.2
2 *206:9 *206:16 3.2
3 *206:10 *206:9 0.183887
4 *206:15 *206:10 3.2
5 *206:14 *206:15 3.27598
6 *206:6 *206:14 3.2
7 *206:12 *625:B0 0.223828
8 *206:7 *206:6 0.367676
9 *206:13 *206:12 6.4000001
10 *206:8 *475:B0 6.4000001
11 *206:8 *206:7 3.2
12 *206:4 *206:13 0.367676
13 *206:4 *206:8 3.9
14 *206:5 *206:4 0.155957
15 *206:11 *206:5 0.183887
16 *626:A0 *206:11 3.2
*END

*D_NET *207 0.0036211

*CONN
*I *649:Y O *C 65.67 94.36 *L 0 *D AOI21X1
*I *626:B0 I *C 72.93 83.72 *L 0.00457 *D OAI22X1
*I *625:A0 I *C 78.21 83.16 *L 0.00456 *D OAI22X1
*I *474:B0 I *C 69.63 83.72 *L 0.00319 *D AOI21XL

*CAP
1 *649:Y 8.23949e-05
2 *626:B0 0.000125569
3 *625:A0 0.000139842
4 *474:B0 6.32985e-05
5 *207:4 7.1073e-05
6 *207:5 0.000133095
7 *207:6 7.00535e-05
8 *207:7 9.89634e-05
9 *207:8 0.000191321
10 *207:9 0.000150932
11 *207:10 0.000372713
12 *207:11 0.000358349
13 *207:12 0.000156526
14 *207:13 0.000119701
15 *207:14 0.000112556
16 *207:15 0.00054318
17 *207:16 0.000237438
18 *207:17 0.000120596
19 *207:18 0.000473499

*RES
1 *207:17 *625:A0 3.2
2 *207:18 *207:17 3.2
3 *207:16 *626:B0 0.671484
4 *207:15 *207:18 2.02246
5 *207:4 *207:16 3.2
6 *207:5 *207:15 3.2
7 *207:5 *207:4 0.155957
8 *207:14 *207:5 0.367676
9 *207:7 *474:B0 6.4000001
10 *207:14 *207:7 0.155957
11 *207:7 *207:6 0.155957
12 *207:9 *207:6 0.183887
13 *207:9 *207:8 0.624023
14 *207:11 *207:8 0.367676
15 *207:11 *207:10 1.404
16 *207:12 *207:10 3.2
17 *207:12 *207:13 0.189941
18 *649:Y *207:13 0.447656
*END

*D_NET *208 0.00237429

*CONN
*I *656:Y O *C 128.37 56.84 *L 0 *D AOI21X1
*I *638:A I *C 120.45 57.96 *L 0.00403 *D NAND2X1
*I *624:B0 I *C 122.43 57.4 *L 0.00457 *D OAI22X1
*I *482:B0 I *C 126.39 53.48 *L 0.00319 *D AOI21XL

*CAP
1 *656:Y 6.33003e-05
2 *638:A 0.000139842
3 *624:B0 4.17205e-05
4 *482:B0 6.33003e-05
5 *208:4 0.000255612
6 *208:5 0.000185932
7 *208:6 0.000142097
8 *208:7 7.20433e-05
9 *208:8 7.20433e-05
10 *208:9 0.000110927
11 *208:10 0.000326112
12 *208:11 7.70461e-05
13 *208:12 0.000132429
14 *208:13 0.00034045
15 *208:14 0.00012366
16 *208:15 0.0001671
17 *208:16 6.06768e-05

*RES
1 *208:16 *656:Y 6.4000001
2 *208:5 *482:B0 6.4000001
3 *208:14 *208:16 0.155957
4 *208:5 *208:4 0.77998
5 *208:15 *208:14 3.2
6 *208:13 *208:4 3.2
7 *208:13 *208:15 0.551562
8 *208:10 *208:13 1.28701
9 *208:11 *624:B0 0.223828
10 *208:9 *208:10 3.2
11 *208:12 *208:11 6.4000001
12 *208:9 *208:12 0.312012
13 *208:7 *208:12 0.183887
14 *208:7 *208:8 0.155957
15 *208:6 *208:8 0.183887
16 *638:A *208:6 3.2
*END

*D_NET *209 0.0060801

*CONN
*I *657:Y O *C 123.09 94.36 *L 0 *D AOI21X1
*I *638:B I *C 119.79 57.4 *L 0.00375 *D NAND2X1
*I *624:A0 I *C 123.75 57.96 *L 0.00456 *D OAI22X1
*I *488:B0 I *C 121.77 67.48 *L 0.00319 *D AOI21XL

*CAP
1 *657:Y 0.000139823
2 *638:B 0.000139823
3 *624:A0 0.000139823
4 *488:B0 6.32929e-05
5 *209:4 0.000338461
6 *209:5 0.000408138
7 *209:6 0.000151304
8 *209:7 8.16523e-05
9 *209:8 0.000186885
10 *209:9 0.000207347
11 *209:10 0.000173202
12 *209:11 0.00162154
13 *209:12 0.000676625
14 *209:13 0.000120598
15 *209:14 0.000120598
16 *209:15 0.000120598
17 *209:16 0.000146356
18 *209:17 0.00109765
19 *209:18 0.000146356

*RES
1 *209:4 *657:Y 3.2
2 *209:5 *209:4 1.55996
3 *209:18 *209:5 3.2
4 *209:14 *488:B0 6.4000001
5 *209:16 *209:18 0.551562
6 *209:6 *624:A0 3.2
7 *209:15 *209:14 3.2
8 *209:17 *209:16 3.2
9 *209:7 *209:6 0.155957
10 *209:11 *209:15 3.2
11 *209:11 *209:17 5.304
12 *209:8 *209:7 3.2
13 *209:12 *209:11 2.80801
14 *209:9 *209:8 0.551562
15 *209:9 *209:12 3.2
16 *209:10 *209:9 0.551562
17 *209:13 *209:10 3.2
18 *638:B *209:13 3.2
*END

*D_NET *210 0.00371937

*CONN
*I *653:Y O *C 90.75 97.16 *L 0 *D AOI21X1
*I *645:A I *C 85.47 83.16 *L 0.00319 *D AND2X2
*I *623:B0 I *C 81.51 83.72 *L 0.00457 *D OAI22X1
*I *487:B0 I *C 86.13 87.64 *L 0.00319 *D AOI21XL

*CAP
1 *653:Y 3.72977e-05
2 *645:A 0.000139842
3 *623:B0 3.98515e-05
4 *487:B0 6.32991e-05
5 *210:4 7.51892e-05
6 *210:5 0.0001206
7 *210:6 0.000255406
8 *210:7 7.23503e-05
9 *210:8 0.00019453
10 *210:9 0.000214557
11 *210:10 6.35485e-05
12 *210:11 0.00015981
13 *210:12 7.14119e-05
14 *210:13 0.000349612
15 *210:14 0.000142087
16 *210:15 0.00077844
17 *210:16 0.000616872
18 *210:17 9.02389e-05
19 *210:18 0.00014223
20 *210:19 9.22107e-05

*RES
1 *210:19 *653:Y 0.189941
2 *210:17 *210:19 0.223828
3 *210:18 *210:17 3.2
4 *210:16 *210:18 0.183887
5 *210:14 *487:B0 6.4000001
6 *210:15 *210:16 2.96396
7 *210:13 *210:14 0.467969
8 *210:13 *210:15 0.919238
9 *210:12 *210:13 0.155957
10 *210:11 *210:12 0.183887
11 *210:9 *645:A 3.2
12 *210:9 *210:11 0.624023
13 *210:10 *210:9 3.2
14 *210:7 *210:10 0.183887
15 *210:7 *210:8 0.155957
16 *210:6 *210:8 0.735449
17 *210:5 *210:6 3.2
18 *210:4 *210:5 3.2
19 *623:B0 *210:4 0.223828
*END

*D_NET *211 0.00715825

*CONN
*I *708:B1 I *C 69.63 77.56 *L 0.00307 *D AOI22XL
*I *626:A1 I *C 74.91 83.16 *L 0.00456 *D OAI22X1
*I *625:A1 I *C 78.87 83.16 *L 0.00456 *D OAI22X1
*I *623:A1 I *C 83.49 83.16 *L 0.00456 *D OAI22X1
*I *533:D I *C 85.47 68.6 *L 0.00407 *D OR4X2
*I *445:Q O *C 82.17 87.08 *L 0 *D DFFRX1

*CAP
1 *708:B1 0.000139838
2 *626:A1 6.33017e-05
3 *625:A1 0.000139838
4 *623:A1 6.33017e-05
5 *533:D 0.000139838
6 *445:Q 0.000139838
7 *211:6 6.50844e-05
8 *211:7 5.83866e-05
9 *211:8 0.00012748
10 *211:9 0.00012748
11 *211:10 0.000219456
12 *211:11 0.000219456
13 *211:12 0.000601281
14 *211:13 0.000338465
15 *211:14 0.000285024
16 *211:15 6.68772e-05
17 *211:16 0.000157816
18 *211:17 0.000285971
19 *211:18 0.000141087
20 *211:19 0.000252723
21 *211:20 0.000110982
22 *211:21 0.000178856
23 *211:22 0.000248533
24 *211:23 0.000413722
25 *211:24 0.000413722
26 *211:25 0.00066006
27 *211:26 0.00066006
28 *211:27 0.000120601
29 *211:28 0.000196925
30 *211:29 0.000142044
31 *211:30 0.000137199
32 *211:31 0.000192081
33 *211:32 5.09234e-05

*RES
1 *211:8 *533:D 3.2
2 *211:9 *211:8 0.155957
3 *211:10 *211:9 3.2
4 *211:11 *211:10 0.735449
5 *211:28 *211:11 3.2
6 *211:28 *211:29 0.467969
7 *211:26 *211:29 0.183887
8 *211:26 *211:25 3.12002
9 *211:21 *445:Q 3.2
10 *211:25 *211:30 0.183887
11 *211:32 *623:A1 6.4000001
12 *211:22 *211:21 0.624023
13 *211:30 *211:31 0.467969
14 *211:15 *211:32 6.4000001
15 *211:18 *211:22 3.2
16 *211:16 *211:31 3.2
17 *211:16 *211:15 0.183887
18 *211:19 *211:18 0.367676
19 *211:27 *625:A1 3.2
20 *211:17 *211:16 0.551562
21 *211:17 *211:19 0.624023
22 *211:6 *626:A1 6.4000001
23 *211:20 *211:27 3.2
24 *211:20 *211:17 0.551562
25 *211:7 *211:6 0.155957
26 *211:14 *211:20 0.155957
27 *211:12 *211:7 6.4000001
28 *211:12 *211:14 1.10312
29 *211:13 *211:12 1.4709
30 *211:23 *211:13 3.2
31 *211:24 *211:23 1.24805
32 *708:B1 *211:24 3.2
*END

*D_NET *212 0.00568176

*CONN
*I *654:Y O *C 81.51 107.24 *L 0 *D AOI21X1
*I *645:B I *C 86.13 82.04 *L 0.00323 *D AND2X2
*I *623:A0 I *C 82.83 83.16 *L 0.00456 *D OAI22X1
*I *486:B0 I *C 86.13 97.72 *L 0.00319 *D AOI21XL

*CAP
1 *654:Y 6.32987e-05
2 *645:B 8.23991e-05
3 *623:A0 0.000139841
4 *486:B0 6.32987e-05
5 *212:4 0.00057631
6 *212:5 0.000521559
7 *212:6 0.000548512
8 *212:7 0.00049319
9 *212:8 0.000477097
10 *212:9 0.000462736
11 *212:10 0.000119738
12 *212:11 0.000113046
13 *212:12 0.000455983
14 *212:13 0.000142224
15 *212:14 0.000221255
16 *212:15 9.91163e-05
17 *212:16 9.91163e-05
18 *212:17 0.000117733
19 *212:18 0.000142224
20 *212:19 6.58489e-05
21 *212:20 0.000290929
22 *212:21 0.0003863

*RES
1 *212:17 *645:B 0.447656
2 *212:18 *212:17 3.2
3 *212:15 *212:18 0.183887
4 *212:13 *623:A0 3.2
5 *212:15 *212:16 0.312012
6 *212:13 *212:9 0.183887
7 *212:9 *212:16 0.183887
8 *212:9 *212:8 2.18398
9 *212:14 *212:8 3.2
10 *212:14 *212:20 0.919238
11 *212:7 *212:20 3.2
12 *212:19 *486:B0 6.4000001
13 *212:7 *212:6 1.87197
14 *212:19 *212:6 0.183887
15 *212:6 *212:5 0.183887
16 *212:5 *212:4 2.34004
17 *212:21 *212:4 3.2
18 *212:12 *212:21 1.4709
19 *212:10 *654:Y 6.4000001
20 *212:11 *212:12 3.2
21 *212:11 *212:10 0.312012
*END

*D_NET *213 0.00743462

*CONN
*I *711:B0 I *C 83.49 52.92 *L 0.00433 *D AOI22X1
*I *620:A1 I *C 65.67 63 *L 0.00456 *D OAI22X1
*I *619:A1 I *C 71.61 57.96 *L 0.00456 *D OAI22X1
*I *473:Q O *C 81.51 43.96 *L 0 *D DFFRX1

*CAP
1 *711:B0 0.00013984
2 *620:A1 0.00013984
3 *619:A1 0.00013984
4 *473:Q 0.00013984
5 *213:4 0.000138629
6 *213:5 6.89523e-05
7 *213:6 0.000352086
8 *213:7 0.000406843
9 *213:8 0.000202216
10 *213:9 0.000132539
11 *213:10 0.00074188
12 *213:11 0.000562645
13 *213:12 0.000183265
14 *213:13 0.00012852
15 *213:14 0.000139365
16 *213:15 0.00019411
17 *213:16 0.000314446
18 *213:17 0.000384123
19 *213:18 0.000194008
20 *213:19 0.00020894
21 *213:20 0.000492628
22 *213:21 0.000492628
23 *213:22 0.000432415
24 *213:23 0.000377545
25 *213:24 0.000136286
26 *213:25 0.000191156
27 *213:26 0.000192627
28 *213:10 *357:7 0.00010371
29 *213:11 *357:5 0.000103709999

*RES
1 *213:18 *711:B0 3.20000005
2 *213:19 *213:18 0.624023
3 *213:19 *213:6 0.183838
4 *213:7 *213:6 1.404
5 *213:9 *473:Q 3.20000005
6 *213:26 *213:7 3.20000005
7 *213:9 *213:8 0.468018
8 *213:10 *213:26 0.735449
9 *213:10 *213:8 3.20000005
10 *213:11 *213:10 2.9417
11 *213:22 *213:11 3.20000005
12 *213:22 *213:23 1.71602
13 *213:15 *619:A1 3.20000005
14 *213:20 *213:23 0.183838
15 *213:15 *213:14 0.468018
16 *213:20 *213:21 2.33999
17 *213:13 *213:14 0.183838
18 *213:21 *213:24 0.183838
19 *213:13 *213:12 0.468018
20 *213:24 *213:25 0.468018
21 *213:16 *213:12 3.20000005
22 *213:16 *213:25 3.20000005
23 *213:4 *620:A1 3.20000005
24 *213:17 *213:16 1.47085
25 *213:5 *213:4 0.156006
26 *213:5 *213:17 3.20000005
*END

*D_NET *214 0.00440755

*CONN
*I *662:Y O *C 70.95 36.68 *L 0 *D AOI21X1
*I *619:B0 I *C 69.63 57.4 *L 0.00457 *D OAI22X1
*I *618:B0 I *C 68.97 62.44 *L 0.00302 *D OAI21XL
*I *485:B0 I *C 73.59 53.48 *L 0.00319 *D AOI21XL

*CAP
1 *662:Y 0.000123601
2 *619:B0 0.000139842
3 *618:B0 0.000139842
4 *485:B0 6.33002e-05
5 *214:4 0.00060305
6 *214:5 0.000445577
7 *214:6 0.000252483
8 *214:7 0.000130014
9 *214:8 0.000226055
10 *214:9 0.000161899
11 *214:10 0.000182134
12 *214:11 0.000236877
13 *214:12 0.000246097
14 *214:13 0.000246097
15 *214:14 0.000158936
16 *214:15 0.000520389
17 *214:16 0.000465508
18 *214:17 6.58492e-05

*RES
1 *662:Y *214:14 0.671484
2 *214:15 *214:14 3.2
3 *214:15 *214:16 2.02803
4 *214:5 *214:16 0.183887
5 *214:17 *485:B0 6.4000001
6 *214:5 *214:4 2.02803
7 *214:4 *214:17 0.183887
8 *214:4 *214:6 0.77998
9 *214:13 *214:6 3.2
10 *214:12 *214:13 0.919238
11 *214:9 *214:12 3.2
12 *214:8 *619:B0 3.2
13 *214:9 *214:8 0.312012
14 *214:11 *618:B0 3.2
15 *214:8 *214:7 0.624023
16 *214:10 *214:11 0.77998
17 *214:10 *214:7 0.183887
*END

*D_NET *215 0.0032105

*CONN
*I *677:Y O *C 61.05 66.92 *L 0 *D AOI21X1
*I *620:A0 I *C 65.01 63 *L 0.00456 *D OAI22X1
*I *618:A0 I *C 68.31 63.56 *L 0.00336 *D OAI21XL
*I *469:B0 I *C 64.35 53.48 *L 0.00319 *D AOI21XL

*CAP
1 *677:Y 8.0656e-05
2 *620:A0 0.000139837
3 *618:A0 6.33049e-05
4 *469:B0 6.33049e-05
5 *215:4 0.000269177
6 *215:5 0.000115987
7 *215:6 0.000243133
8 *215:7 6.58522e-05
9 *215:8 0.000677883
10 *215:9 0.00074859
11 *215:10 0.000396724
12 *215:11 8.47797e-05
13 *215:12 0.000261284

*RES
1 *215:7 *469:B0 6.4000001
2 *215:7 *215:8 0.183887
3 *215:11 *618:A0 6.4000001
4 *215:9 *620:A0 3.2
5 *215:8 *215:9 2.65195
6 *215:11 *215:12 0.312012
7 *215:9 *215:10 0.467969
8 *215:10 *215:12 0.919238
9 *215:4 *215:10 0.551562
10 *215:4 *215:6 0.77998
11 *215:5 *215:6 3.2
12 *677:Y *215:5 0.447656
*END

*D_NET *216 0.00907404

*CONN
*I *660:Y O *C 45.87 46.76 *L 0 *D AOI21X1
*I *620:B0 I *C 63.69 63.56 *L 0.00457 *D OAI22X1
*I *617:B0 I *C 67.65 58.52 *L 0.00302 *D OAI21XL
*I *481:B0 I *C 64.35 47.32 *L 0.00319 *D AOI21XL

*CAP
1 *660:Y 4.12119e-05
2 *620:B0 0.000107293
3 *617:B0 0.000126241
4 *481:B0 6.33006e-05
5 *216:4 0.000517805
6 *216:5 0.000573133
7 *216:6 0.00060543
8 *216:7 0.000562509
9 *216:8 0.000445035
10 *216:9 0.000418281
11 *216:10 0.000388377
12 *216:11 0.000333326
13 *216:12 0.000239715
14 *216:13 0.000279975
15 *216:14 7.1458e-05
16 *216:15 0.000126343
17 *216:16 0.000143581
18 *216:17 7.85068e-05
19 *216:18 7.99942e-05
20 *216:19 0.000152284
21 *216:20 0.000332467
22 *216:21 0.000441774
23 *216:22 0.000332578
24 *216:23 0.000349844
25 *216:24 0.000432961
26 *216:25 0.00014262
27 *216:26 0.000349844
28 *216:27 0.000283744
29 *216:28 0.000337215
30 *216:29 0.000122195
31 *216:30 0.000238107
32 *216:8 *383:2 5.18e-05
33 *216:9 *383:3 5.18e-05
34 *216:8 *383:7 9.545e-05
35 *216:9 *383:6 9.545e-05
36 *216:6 *383:7 3.12e-05
37 *216:7 *383:6 3.11999974e-05

*RES
1 *216:25 *620:B0 0.895312
2 *216:26 *216:25 3.2
3 *216:30 *617:B0 0.671484
4 *216:23 *216:26 1.24805
5 *216:4 *216:30 3.2
6 *216:24 *216:23 3.2
7 *216:5 *216:4 2.02803
8 *216:21 *216:24 2.02246
9 *216:27 *481:B0 6.4000001
10 *216:29 *216:5 0.367676
11 *216:21 *216:22 0.155957
12 *216:27 *216:28 0.936035
13 *216:28 *216:29 0.155957
14 *216:20 *216:22 1.4709
15 *216:8 *216:28 3.2
16 *216:19 *216:20 0.155957
17 *216:9 *216:8 2.02246
18 *216:16 *216:19 0.551562
19 *216:6 *216:9 0.312012
20 *660:Y *216:17 0.223828
21 *216:15 *216:16 3.2
22 *216:7 *216:6 2.75781
23 *216:17 *216:18 0.189941
24 *216:14 *216:15 0.155957
25 *216:11 *216:7 6.4000001
26 *216:11 *216:18 6.4000001
27 *216:12 *216:14 0.183887
28 *216:11 *216:10 1.404
29 *216:13 *216:12 1.09199
30 *216:13 *216:10 0.367676
*END

*D_NET *217 0.00319353

*CONN
*I *661:Y O *C 60.39 54.04 *L 0 *D AOI21X1
*I *619:A0 I *C 70.95 57.96 *L 0.00456 *D OAI22X1
*I *617:A0 I *C 66.99 57.4 *L 0.00336 *D OAI21XL
*I *468:B0 I *C 68.31 53.48 *L 0.00319 *D AOI21XL

*CAP
1 *661:Y 3.98559e-05
2 *619:A0 0.000139845
3 *617:A0 0.000139845
4 *468:B0 6.33037e-05
5 *217:4 0.000492357773
6 *217:5 0.000492357773
7 *217:6 0.00015173
8 *217:7 0.000120605
9 *217:8 0.000184171
10 *217:9 0.000198528
11 *217:10 0.000113723
12 *217:11 0.000330613
13 *217:12 0.000289502
14 *217:13 0.000223073
15 *217:4 *383:2 0.00010702
16 *217:5 *383:3 0.000107019999

*RES
1 *217:9 *617:A0 3.2
2 *217:13 *619:A0 3.2
3 *217:8 *217:9 0.624023
4 *217:12 *217:13 0.77998
5 *217:8 *217:11 0.367676
6 *217:11 *217:12 0.735449
7 *217:10 *468:B0 6.4000001
8 *217:10 *217:11 0.467969
9 *217:4 *217:10 3.2
10 *217:5 *217:4 1.83857
11 *217:7 *217:5 3.2
12 *217:6 *217:7 3.2
13 *661:Y *217:6 0.223828
*END

*D_NET *218 0.00658154

*CONN
*I *651:Y O *C 130.35 104.44 *L 0 *D AOI21X1
*I *621:B0 I *C 107.91 93.8 *L 0.00457 *D OAI22X1
*I *616:B0 I *C 98.67 92.68 *L 0.00302 *D OAI21XL
*I *484:B0 I *C 118.47 97.72 *L 0.00319 *D AOI21XL

*CAP
1 *651:Y 0.000139835
2 *621:B0 0.000139835
3 *616:B0 3.9871e-05
4 *484:B0 6.33093e-05
5 *218:4 0.00121138
6 *218:5 0.000621929
7 *218:6 0.000157247
8 *218:7 0.000157247
9 *218:8 0.000611651
10 *218:9 0.000418119
11 *218:10 0.000598878
12 *218:11 0.00033017
13 *218:12 0.000149428
14 *218:13 0.000334809
15 *218:14 0.000218745
16 *218:15 0.000213939
17 *218:16 0.000151721
18 *218:17 0.000120611
19 *218:18 6.64332e-05
20 *218:19 0.00019832
21 *218:20 0.00014344
22 *218:21 0.000282166
23 *218:22 0.000212479

*RES
1 *218:22 *651:Y 3.2
2 *218:21 *218:22 0.624023
3 *218:9 *218:21 3.2
4 *218:10 *218:9 1.83857
5 *218:11 *218:10 1.10312
6 *218:12 *218:11 0.551562
7 *218:15 *218:12 3.2
8 *218:13 *484:B0 6.4000001
9 *218:13 *218:15 0.624023
10 *218:14 *218:13 0.77998
11 *218:20 *218:14 0.183887
12 *218:16 *616:B0 0.223828
13 *218:6 *621:B0 3.2
14 *218:19 *218:20 0.77998
15 *218:17 *218:16 3.2
16 *218:7 *218:6 0.467969
17 *218:8 *218:19 3.2
18 *218:18 *218:17 3.2
19 *218:4 *218:7 3.2
20 *218:4 *218:8 2.75781
21 *218:5 *218:18 0.155957
22 *218:5 *218:4 2.75781
*END

*D_NET *219 0.00542112

*CONN
*I *740:Y O *C 101.31 83.16 *L 0 *D INVX1
*I *709:B0 I *C 96.69 83.72 *L 0.00457 *D OAI22X1
*I *622:B1 I *C 101.31 93.24 *L 0.00419 *D OAI22X1
*I *621:B1 I *C 107.25 93.24 *L 0.00419 *D OAI22X1
*I *616:A1 I *C 97.35 93.8 *L 0.00324 *D OAI21XL
*I *615:A1 I *C 104.61 97.72 *L 0.00324 *D OAI21XL

*CAP
1 *740:Y 0.000139845
2 *709:B0 0.000139845
3 *622:B1 3.98352e-05
4 *621:B1 8.42407e-05
5 *616:A1 0.000139845
6 *615:A1 0.000139845
7 *219:6 0.00060754
8 *219:7 0.000552687
9 *219:8 0.00035148
10 *219:9 0.00035148
11 *219:10 0.000180885
12 *219:11 0.000235739
13 *219:12 0.00011957
14 *219:13 0.000120599
15 *219:14 0.000120599
16 *219:15 0.000297415
17 *219:16 7.51649e-05
18 *219:17 0.000539133
19 *219:18 0.00025071
20 *219:19 0.00026533
21 *219:20 0.000179587
22 *219:21 0.0003248
23 *219:22 0.000164959

*RES
1 *219:19 *615:A1 3.20000005
2 *219:18 *219:19 0.624023
3 *219:12 *621:B1 0.447656
4 *219:18 *219:22 0.367725
5 *219:14 *616:A1 3.20000005
6 *219:20 *219:12 3.20000005
7 *219:20 *219:22 0.624023
8 *219:15 *219:14 3.20000005
9 *219:21 *219:20 3.20000005
10 *219:16 *622:B1 0.223828
11 *219:15 *219:17 0.919287
12 *219:17 *219:21 1.47085
13 *219:6 *219:16 3.20000005
14 *219:6 *219:17 3.20000005
15 *219:7 *219:6 2.18398
16 *219:7 *219:10 0.183838
17 *219:11 *219:10 0.468018
18 *219:11 *740:Y 3.20000005
19 *219:8 *219:11 3.20000005
20 *219:9 *219:8 1.28701
21 *219:13 *219:9 3.20000005
22 *709:B0 *219:13 3.20000005
*END

*D_NET *220 0.00330214

*CONN
*I *652:Y O *C 101.97 107.24 *L 0 *D AOI21X1
*I *622:A0 I *C 103.29 93.24 *L 0.00456 *D OAI22X1
*I *616:A0 I *C 98.01 93.8 *L 0.00336 *D OAI21XL
*I *471:B0 I *C 101.97 97.72 *L 0.00319 *D AOI21XL

*CAP
1 *652:Y 0.00013984
2 *622:A0 0.00013984
3 *616:A0 6.32967e-05
4 *471:B0 6.32967e-05
5 *220:4 0.00014664
6 *220:5 0.000180496
7 *220:6 0.000180253
8 *220:7 0.000375376
9 *220:8 0.00072343
10 *220:9 0.000552262
11 *220:10 0.000148229
12 *220:11 0.000203115
13 *220:12 0.000200344
14 *220:13 0.000185717

*RES
1 *220:11 *652:Y 3.2
2 *220:10 *220:11 0.467969
3 *220:12 *622:A0 3.2
4 *220:9 *220:10 0.183887
5 *220:12 *220:13 0.467969
6 *220:8 *471:B0 6.4000001
7 *220:8 *220:9 2.18398
8 *220:7 *220:13 0.367676
9 *220:7 *220:8 0.77998
10 *220:6 *220:7 0.551562
11 *220:5 *220:6 0.312012
12 *220:4 *220:5 0.551562
13 *616:A0 *220:4 6.4000001
*END

*D_NET *221 0.00678332

*CONN
*I *678:Y O *C 110.55 114.52 *L 0 *D AOI21X1
*I *622:B0 I *C 101.97 93.8 *L 0.00457 *D OAI22X1
*I *615:B0 I *C 105.93 98.84 *L 0.00302 *D OAI21XL
*I *480:B0 I *C 111.87 97.72 *L 0.00319 *D AOI21XL

*CAP
1 *678:Y 6.46456e-05
2 *622:B0 0.000139842
3 *615:B0 0.000119588
4 *480:B0 6.33046e-05
5 *221:4 0.00082907
6 *221:5 0.00038337
7 *221:6 0.000543579
8 *221:7 0.000726599
9 *221:8 0.000215266
10 *221:9 0.00052473
11 *221:10 0.0001206
12 *221:11 0.000231459
13 *221:12 0.000142094
14 *221:13 0.000565655
15 *221:14 0.000337953
16 *221:15 0.000268273
17 *221:16 9.99792e-05
18 *221:17 0.000142094
19 *221:18 0.000307541
20 *221:19 0.000635323
21 *221:20 0.000322342

*RES
1 *678:Y *221:16 0.447656
2 *221:17 *221:16 3.2
3 *221:17 *221:20 0.183887
4 *221:18 *221:20 1.404
5 *221:19 *221:18 3.2
6 *221:13 *221:19 2.39014
7 *221:12 *221:13 3.2
8 *221:15 *480:B0 6.4000001
9 *221:11 *615:B0 0.671484
10 *221:6 *221:12 0.183887
11 *221:14 *221:15 1.09199
12 *221:4 *221:11 3.2
13 *221:4 *221:6 2.34004
14 *221:9 *221:14 3.2
15 *221:5 *221:4 1.404
16 *221:7 *221:9 2.20625
17 *221:7 *221:5 3.2
18 *221:8 *221:7 0.551562
19 *221:10 *221:8 3.2
20 *622:B0 *221:10 3.2
*END

*D_NET *222 0.00470814

*CONN
*I *650:Y O *C 123.09 97.16 *L 0 *D AOI21X1
*I *621:A0 I *C 109.23 93.24 *L 0.00456 *D OAI22X1
*I *615:A0 I *C 105.27 97.72 *L 0.00336 *D OAI21XL
*I *470:B0 I *C 115.17 97.72 *L 0.00319 *D AOI21XL

*CAP
1 *650:Y 0.000139843
2 *621:A0 0.000139843
3 *615:A0 0.000139843
4 *470:B0 6.33007e-05
5 *222:4 0.000179388
6 *222:5 0.000325807
7 *222:6 0.000225133
8 *222:7 0.000442894
9 *222:8 0.000377858
10 *222:9 0.000314317
11 *222:10 0.00049251
12 *222:11 5.72359e-05
13 *222:12 0.000129608
14 *222:13 5.99339e-05
15 *222:14 0.000443789
16 *222:15 0.000120604
17 *222:16 0.000436446
18 *222:6 *364:13 9.456e-05
19 *222:7 *364:14 9.456e-05
20 *222:7 *364:13 0.00021533
21 *222:8 *364:14 0.000215330005

*RES
1 *222:15 *650:Y 3.2
2 *222:16 *222:15 3.2
3 *222:13 *470:B0 6.4000001
4 *222:14 *222:16 1.4709
5 *222:12 *222:13 0.155957
6 *222:6 *222:14 0.467969
7 *222:7 *222:12 3.2
8 *222:7 *222:6 0.919238
9 *222:8 *222:7 1.65469
10 *222:9 *621:A0 3.2
11 *222:11 *222:8 3.2
12 *222:4 *615:A0 3.2
13 *222:9 *222:10 0.936035
14 *222:10 *222:11 0.155957
15 *222:5 *222:4 0.312012
16 *222:5 *222:10 1.10312
*END

*D_NET *223 0.00193024

*CONN
*I *625:Y O *C 77.55 82.04 *L 0 *D OAI22X1
*I *614:B0 I *C 81.51 78.68 *L 0.00406 *D AOI2BB1X1
*I *602:A0 I *C 78.21 77 *L 0.00465 *D AOI21X1

*CAP
1 *625:Y 0.000139839
2 *614:B0 0.000139839
3 *602:A0 0.000139839
4 *223:3 0.000224028
5 *223:4 0.00029371
6 *223:5 0.000157788
7 *223:6 0.000157788
8 *223:7 0.000128159
9 *223:8 0.000203251
10 *223:9 0.000173102
11 *223:10 7.89815e-05
12 *223:11 9.39101e-05

*RES
1 *223:6 *614:B0 3.20000005
2 *223:6 *223:5 0.312012
3 *223:3 *223:5 3.20000005
4 *223:9 *602:A0 3.20000005
5 *223:4 *223:3 0.919287
6 *223:9 *223:8 0.468018
7 *223:8 *223:4 3.20000005
8 *223:8 *223:7 0.312012
9 *223:10 *625:Y 3.20000005
10 *223:11 *223:7 0.183838
11 *223:11 *223:10 0.312012
*END

*D_NET *224 0.00223439

*CONN
*I *645:Y O *C 87.45 82.6 *L 0 *D AND2X2
*I *614:A0N I *C 80.19 78.12 *L 0.00236 *D AOI2BB1X1
*I *596:C I *C 84.15 78.68 *L 0.00444 *D NAND3BX1

*CAP
1 *645:Y 0.000139841
2 *614:A0N 0.000139841
3 *596:C 0.000139841
4 *224:3 7.00476e-05
5 *224:4 0.000191233
6 *224:5 0.000206747
7 *224:6 0.000206747
8 *224:7 0.000128779
9 *224:8 5.90978e-05
10 *224:9 0.000216308
11 *224:10 0.00028274
12 *224:11 7.25499e-05
13 *224:5 *242:7 0.00019031
14 *224:6 *242:8 0.000190309994

*RES
1 *224:11 *645:Y 3.20000005
2 *224:3 *224:11 0.183838
3 *224:4 *224:3 0.156006
4 *224:10 *224:4 0.735449
5 *224:9 *596:C 3.20000005
6 *224:9 *224:10 0.624023
7 *224:5 *224:9 3.20000005
8 *224:6 *224:5 1.10312
9 *224:7 *224:6 3.20000005
10 *224:8 *224:7 0.156006
11 *614:A0N *224:8 3.20000005
*END

*D_NET *225 0.00220192

*CONN
*I *628:Y O *C 124.41 61.88 *L 0 *D OAI22X1
*I *613:B0 I *C 116.49 63.56 *L 0.00441 *D AOI21X1
*I *601:A0 I *C 113.19 64.12 *L 0.00465 *D AOI21X1

*CAP
1 *628:Y 0.000139842
2 *613:B0 6.32977e-05
3 *601:A0 6.32977e-05
4 *225:3 0.000139287
5 *225:4 9.75724e-05
6 *225:5 0.000190872
7 *225:6 0.00025185
8 *225:7 0.000334443
9 *225:8 0.000343139531
10 *225:9 0.00022676
11 *225:10 0.000230959
12 *225:11 0.0001206

*RES
1 *225:11 *628:Y 3.2
2 *225:7 *225:11 3.2
3 *225:8 *225:7 1.4709
4 *225:8 *225:5 0.155957
5 *225:6 *225:5 0.735449
6 *225:4 *225:6 3.2
7 *225:3 *613:B0 6.4000001
8 *225:4 *225:3 0.312012
9 *225:3 *225:10 0.155957
10 *225:9 *225:10 0.919238
11 *601:A0 *225:9 6.4000001
*END

*D_NET *226 0.00254887

*CONN
*I *638:Y O *C 120.45 58.52 *L 0 *D NAND2X1
*I *613:A0 I *C 115.83 64.12 *L 0.00465 *D AOI21X1
*I *595:C I *C 116.49 57.96 *L 0.00425 *D NOR3X1

*CAP
1 *638:Y 7.97309e-05
2 *613:A0 6.33042e-05
3 *595:C 3.98415e-05
4 *226:3 0.000122659
5 *226:4 0.000122659
6 *226:5 0.000166169
7 *226:6 0.000166169
8 *226:7 0.000448550547
9 *226:8 0.000378874
10 *226:9 0.000192158
11 *226:10 0.000283339
12 *226:11 0.000151707
13 *226:12 0.000142097
14 *226:13 0.000191596

*RES
1 *226:13 *638:Y 0.447656
2 *226:4 *226:13 3.2
3 *226:4 *226:3 0.467969
4 *226:7 *226:3 3.2
5 *226:9 *613:A0 6.4000001
6 *226:8 *226:7 0.919238
7 *226:11 *595:C 0.223828
8 *226:10 *226:9 0.77998
9 *226:10 *226:8 3.2
10 *226:12 *226:11 3.2
11 *226:5 *226:10 0.183887
12 *226:6 *226:12 0.183887
13 *226:6 *226:5 0.624023
*END

*D_NET *227 0.00192719

*CONN
*I *620:Y O *C 64.35 61.88 *L 0 *D OAI22X1
*I *612:B I *C 71.61 63 *L 0.00385 *D NOR2X1
*I *599:A1N I *C 76.23 62.44 *L 0.00148 *D OAI2BB1X1

*CAP
1 *620:Y 3.98381e-05
2 *612:B 0.000139842
3 *599:A1N 6.3301e-05
4 *227:3 0.000222642
5 *227:4 0.000231447
6 *227:5 7.51706e-05
7 *227:6 0.000120597
8 *227:7 0.000365054
9 *227:8 0.000120597
10 *227:9 0.00038547
11 *227:10 0.000112309
12 *227:11 5.09196e-05

*RES
1 *227:11 *599:A1N 6.4000001
2 *227:3 *227:11 6.4000001
3 *227:4 *227:3 0.919238
4 *227:8 *612:B 3.2
5 *227:4 *227:10 0.155957
6 *227:9 *227:8 3.2
7 *227:9 *227:10 0.367676
8 *227:7 *227:9 1.28701
9 *227:6 *227:7 3.2
10 *227:5 *227:6 3.2
11 *620:Y *227:5 0.223828
*END

*D_NET *228 0.00165242

*CONN
*I *619:Y O *C 70.29 59.08 *L 0 *D OAI22X1
*I *612:A I *C 72.27 63.56 *L 0.0043 *D NOR2X1
*I *610:A I *C 74.25 63 *L 0.00403 *D NAND2X1

*CAP
1 *619:Y 0.000139841
2 *612:A 6.3301e-05
3 *610:A 0.000139841
4 *228:3 0.000131459
5 *228:4 0.000201141
6 *228:5 0.000202742
7 *228:6 0.000202742
8 *228:7 0.000142949
9 *228:8 0.00027898002
10 *228:9 0.000149432

*RES
1 *228:5 *610:A 3.2
2 *228:6 *228:5 0.467969
3 *228:3 *228:6 3.2
4 *228:4 *228:3 0.551562
5 *228:7 *612:A 6.4000001
6 *228:8 *228:4 3.2
7 *228:8 *228:7 0.624023
8 *228:9 *228:8 0.624023
9 *619:Y *228:9 3.2
*END

*D_NET *229 0.00163567

*CONN
*I *622:Y O *C 102.63 92.12 *L 0 *D OAI22X1
*I *611:B I *C 104.61 88.2 *L 0.00385 *D NOR2X1
*I *608:A0 I *C 105.27 83.72 *L 0.00465 *D AOI22X1

*CAP
1 *622:Y 0.000139836
2 *611:B 0.000139836
3 *608:A0 6.32985e-05
4 *229:3 0.000119177
5 *229:4 0.00041813
6 *229:5 0.000327148
7 *229:6 0.00020672
8 *229:7 0.000221522

*RES
1 *229:6 *608:A0 6.4000001
2 *229:5 *622:Y 3.2
3 *229:6 *229:7 0.77998
4 *229:4 *611:B 3.2
5 *229:4 *229:5 1.09199
6 *229:3 *229:7 0.183887
7 *229:3 *229:4 0.467969
*END

*D_NET *230 0.00278125

*CONN
*I *621:Y O *C 108.57 92.12 *L 0 *D OAI22X1
*I *611:A I *C 105.27 87.64 *L 0.0043 *D NOR2X1
*I *608:B0 I *C 104.61 83.16 *L 0.00433 *D AOI22X1

*CAP
1 *621:Y 0.000141078
2 *611:A 6.32963e-05
3 *608:B0 0.000139843
4 *230:3 0.000234761
5 *230:4 0.00017988
6 *230:5 0.000224552
7 *230:6 0.000209755
8 *230:7 0.00043527
9 *230:8 0.000420651
10 *230:9 0.000221537
11 *230:10 0.000151865
12 *230:11 0.000182364
13 *230:12 0.000176413

*RES
1 *230:12 *621:Y 0.895312
2 *230:3 *230:12 3.2
3 *230:4 *230:3 0.624023
4 *230:5 *230:4 0.183887
5 *230:6 *611:A 6.4000001
6 *230:6 *230:5 0.624023
7 *230:9 *230:6 3.2
8 *230:10 *230:9 0.551562
9 *230:11 *608:B0 3.2
10 *230:7 *230:10 3.2
11 *230:8 *230:11 0.367676
12 *230:8 *230:7 1.24805
*END

*D_NET *231 0.00312168

*CONN
*I *624:Y O *C 123.09 59.08 *L 0 *D OAI22X1
*I *609:B0 I *C 111.87 57.96 *L 0.00433 *D AOI22X1
*I *601:B0 I *C 113.85 63.56 *L 0.00441 *D AOI21X1

*CAP
1 *624:Y 0.000165631
2 *609:B0 0.000139841
3 *601:B0 6.32968e-05
4 *231:3 0.000200957
5 *231:4 4.80623e-05
6 *231:5 8.97756e-05
7 *231:6 0.0005068
8 *231:7 6.99242e-05
9 *231:8 0.000188754
10 *231:9 0.000188754
11 *231:10 0.000115349
12 *231:11 0.000115349
13 *231:12 6.57173e-05
14 *231:13 0.000445815
15 *231:14 7.18344e-05
16 *231:15 0.0001206
17 *231:16 6.31267e-05
18 *231:13 *243:15 0.00012344
19 *231:6 *243:16 0.00012344
20 *231:11 *243:6 8.86e-06
21 *231:10 *243:7 8.86e-06
22 *231:9 *243:7 7.786e-05
23 *231:8 *243:8 7.786e-05
24 *231:5 *243:9 2.089e-05
25 *231:4 *243:10 2.08900048e-05

*RES
1 *231:12 *601:B0 6.4000001
2 *231:3 *624:Y 0.895312
3 *231:11 *231:12 0.183887
4 *231:15 *231:3 3.2
5 *231:10 *231:11 0.467969
6 *231:16 *231:15 3.2
7 *231:9 *231:10 0.183887
8 *231:14 *231:16 0.183887
9 *231:8 *231:9 0.77998
10 *231:13 *231:14 0.155957
11 *231:7 *231:8 0.183887
12 *231:6 *231:13 2.20625
13 *231:5 *231:7 0.155957
14 *231:5 *231:6 3.2
15 *231:4 *231:5 0.155957
16 *609:B0 *231:4 3.2
*END

*D_NET *232 0.00241529

*CONN
*I *627:Y O *C 119.79 61.88 *L 0 *D OAI22X1
*I *609:A0 I *C 112.53 57.4 *L 0.00465 *D AOI22X1
*I *595:B I *C 117.15 57.4 *L 0.00439 *D NOR3X1

*CAP
1 *627:Y 8.24002e-05
2 *609:A0 6.33023e-05
3 *595:B 0.000139838
4 *232:3 0.000113187
5 *232:4 0.000113187
6 *232:5 0.00030787
7 *232:6 0.00037755
8 *232:7 0.000100651
9 *232:8 0.000155531
10 *232:9 0.000106378
11 *232:10 9.96833e-05
12 *232:11 0.000150352
13 *232:12 0.000150352
14 *232:13 0.000141203
15 *232:14 0.000117727
16 *232:15 0.000196077

*RES
1 *232:14 *627:Y 0.447656
2 *232:15 *232:14 3.2
3 *232:13 *232:15 0.467969
4 *232:12 *232:13 0.183887
5 *232:11 *232:12 0.467969
6 *232:10 *232:11 0.183887
7 *232:9 *595:B 3.2
8 *232:9 *232:10 0.312012
9 *232:7 *232:9 0.183887
10 *232:8 *232:7 0.312012
11 *232:5 *232:8 3.2
12 *232:3 *609:A0 6.4000001
13 *232:6 *232:5 1.10312
14 *232:4 *232:3 0.312012
15 *232:4 *232:6 3.2
*END

*D_NET *233 0.00533584

*CONN
*I *709:A1 I *C 98.67 83.16 *L 0.00456 *D OAI22X1
*I *608:B1 I *C 103.95 83.72 *L 0.00434 *D AOI22X1
*I *600:B1 I *C 98.01 87.64 *L 0.00434 *D AOI22X1
*I *444:Q O *C 121.11 87.08 *L 0 *D DFFRX1

*CAP
1 *709:A1 0.000139843
2 *608:B1 6.32979e-05
3 *600:B1 6.32979e-05
4 *444:Q 0.000139843
5 *233:4 0.000140752
6 *233:5 7.77715e-05
7 *233:6 0.000550962
8 *233:7 0.00090336
9 *233:8 0.000342335
10 *233:9 0.00016777
11 *233:10 0.000146142
12 *233:11 0.000212872
13 *233:12 0.000221115
14 *233:13 0.000130221
15 *233:14 0.000225664
16 *233:15 0.000121523
17 *233:16 0.000170775
18 *233:17 7.24094e-05
19 *233:6 *128:7 0.00025944
20 *233:7 *128:8 0.00025944
21 *233:7 *128:7 9.176e-05
22 *233:8 *128:8 9.176e-05
23 *233:15 *128:7 2.131e-05
24 *233:13 *128:8 2.131e-05
25 *233:16 *128:11 6.24e-05
26 *233:14 *128:12 6.23999768e-05
27 *233:6 *95:35 9.539e-05
28 *233:7 *95:32 9.539e-05
29 *233:6 *95:32 0.00011505
30 *233:7 *95:28 0.00011505
31 *233:6 *95:28 1.263e-05
32 *233:7 *95:26 1.263e-05
33 *233:7 *95:25 2.54e-05
34 *233:8 *95:23 2.54e-05
35 *233:9 *95:7 1.625e-05
36 *233:10 *95:8 1.625e-05
37 *233:11 *95:7 2.332e-05
38 *233:12 *95:8 2.33199885e-05

*RES
1 *233:17 *444:Q 3.2
2 *233:16 *233:17 0.183887
3 *233:14 *233:16 0.936035
4 *233:15 *233:14 3.2
5 *233:5 *608:B1 6.4000001
6 *233:13 *233:15 0.551562
7 *233:5 *233:4 0.155957
8 *233:13 *233:6 0.155957
9 *233:7 *233:4 3.2
10 *233:7 *233:6 4.04482
11 *233:10 *709:A1 3.2
12 *233:8 *233:7 1.4709
13 *233:11 *600:B1 6.4000001
14 *233:10 *233:9 0.312012
15 *233:9 *233:8 3.2
16 *233:12 *233:11 0.936035
17 *233:12 *233:9 0.183887
*END

*D_NET *234 0.00069667

*CONN
*I *607:Y O *C 73.59 57.96 *L 0 *D INVX1
*I *598:A I *C 75.57 58.52 *L 0.0047 *D NOR3X1

*CAP
1 *607:Y 0.00013984
2 *598:A 3.98596e-05
3 *234:2 0.00018262
4 *234:3 0.000151731
5 *234:4 0.00018262

*RES
1 *234:3 *598:A 0.223828
2 *234:4 *234:3 3.20000005
3 *234:2 *234:4 0.367725
4 *607:Y *234:2 3.20000005
*END

*D_NET *235 0.000611701

*CONN
*I *606:Y O *C 115.17 57.96 *L 0 *D INVX1
*I *595:A I *C 117.81 58.52 *L 0.0047 *D NOR3X1

*CAP
1 *606:Y 3.73004e-05
2 *595:A 4.17003e-05
3 *235:2 7.85106e-05
4 *235:3 7.65402e-05
5 *235:4 0.00011268
6 *235:5 7.90007e-05
7 *235:6 7.99893e-05
8 *235:7 0.00010598

*RES
1 *235:5 *595:A 0.223828
2 *235:5 *235:6 0.189941
3 *235:7 *235:6 6.4000001
4 *235:4 *235:7 0.367676
5 *235:3 *235:4 6.4000001
6 *235:2 *235:3 0.223828
7 *606:Y *235:2 0.189941
*END

*D_NET *236 0.000829658

*CONN
*I *605:Y O *C 92.73 88.2 *L 0 *D INVX1
*I *597:A I *C 96.03 88.76 *L 0.0047 *D NOR3X1

*CAP
1 *605:Y 3.98596e-05
2 *597:A 3.72987e-05
3 *236:2 7.7161e-05
4 *236:3 7.85097e-05
5 *236:4 7.65396e-05
6 *236:5 0.00018262
7 *236:6 7.65396e-05
8 *236:7 0.00018262
9 *236:8 7.85097e-05

*RES
1 *597:A *236:8 0.189893
2 *236:6 *236:8 0.223828
3 *236:7 *236:6 3.20000005
4 *236:5 *236:7 0.367725
5 *236:4 *236:5 3.20000005
6 *236:3 *236:4 0.223828
7 *236:2 *236:3 0.189893
8 *605:Y *236:2 0.223828
*END

*D_NET *237 0.00246624

*CONN
*I *623:Y O *C 82.17 82.04 *L 0 *D OAI22X1
*I *604:B0 I *C 74.25 78.12 *L 0.00433 *D AOI22X1
*I *602:B0 I *C 78.87 77.56 *L 0.00441 *D AOI21X1

*CAP
1 *623:Y 8.859e-05
2 *604:B0 0.000139841
3 *602:B0 6.32986e-05
4 *237:3 0.000142251
5 *237:4 7.25682e-05
6 *237:5 0.00025943
7 *237:6 0.00025943
8 *237:7 9.01309e-05
9 *237:8 0.000262299863
10 *237:9 0.000200498
11 *237:10 9.0239e-05
12 *237:11 0.000142227
13 *237:12 9.22082e-05
14 *237:13 0.000125889
15 *237:5 *242:7 6.262e-05
16 *237:6 *242:8 6.262e-05
17 *237:5 *242:8 0.00015605
18 *237:6 *242:12 0.000156050009

*RES
1 *237:13 *623:Y 0.671484
2 *237:12 *237:13 0.189941
3 *237:10 *237:12 0.223828
4 *237:11 *237:10 3.2
5 *237:7 *602:B0 6.4000001
6 *237:9 *237:11 0.183887
7 *237:7 *237:8 0.312012
8 *237:8 *237:9 0.77998
9 *237:5 *237:8 3.2
10 *237:6 *237:5 1.28701
11 *237:3 *237:6 3.2
12 *237:4 *237:3 0.155957
13 *604:B0 *237:4 3.2
*END

*D_NET *238 0.00291996

*CONN
*I *626:Y O *C 73.59 82.04 *L 0 *D OAI22X1
*I *604:A0 I *C 74.91 77.56 *L 0.00465 *D AOI22X1
*I *596:AN I *C 83.49 77.56 *L 0.0024 *D NAND3BX1

*CAP
1 *626:Y 0.000139842
2 *604:A0 6.33006e-05
3 *596:AN 6.33006e-05
4 *238:3 0.000239997
5 *238:4 0.000294751
6 *238:5 0.0004747
7 *238:6 0.0004747
8 *238:7 0.000125862
9 *238:8 0.000110926
10 *238:9 0.000120596
11 *238:5 *242:7 0.00027897
12 *238:6 *242:8 0.00027897
13 *238:5 *242:8 0.00012702
14 *238:6 *242:12 0.000127020011

*RES
1 *238:9 *596:AN 6.4000001
2 *238:8 *626:Y 3.2
3 *238:5 *238:9 3.2
4 *238:7 *238:8 0.312012
5 *238:6 *238:5 2.39014
6 *238:3 *238:7 0.183887
7 *238:4 *238:6 3.2
8 *238:4 *238:3 0.936035
9 *604:A0 *238:4 6.4000001
*END

*D_NET *239 0.00533961

*CONN
*I *711:B1 I *C 82.83 53.48 *L 0.00434 *D AOI22X1
*I *610:B I *C 73.59 63.56 *L 0.00375 *D NAND2X1
*I *603:B1 I *C 77.55 57.4 *L 0.00434 *D AOI22X1
*I *583:A2 I *C 79.53 63 *L 0.00459 *D OAI31X1
*I *446:Q O *C 81.51 46.76 *L 0 *D DFFRX1

*CAP
1 *711:B1 0.000139839
2 *610:B 0.000139839
3 *603:B1 7.99884e-05
4 *583:A2 0.000139839
5 *446:Q 8.24043e-05
6 *239:5 0.000174728
7 *239:6 0.000174728
8 *239:7 0.000394449
9 *239:8 0.000324231
10 *239:9 0.000222976
11 *239:10 0.000138994
12 *239:11 6.93086e-05
13 *239:12 0.000246168
14 *239:13 0.000254397
15 *239:14 9.58127e-05
16 *239:15 0.00015879
17 *239:16 0.00013763
18 *239:17 0.000128818
19 *239:18 0.000223402
20 *239:19 0.000232206
21 *239:20 0.000465669375
22 *239:21 0.000402443
23 *239:22 0.000215991
24 *239:23 0.000120597
25 *239:24 7.7139e-05
26 *239:25 7.99884e-05
27 *239:26 6.58481e-05
28 *239:27 7.7139e-05
29 *239:28 0.000119702
30 *239:29 0.000156531

*RES
1 *446:Q *239:28 0.447656
2 *239:28 *239:29 0.189941
3 *239:8 *239:29 3.2
4 *239:7 *711:B1 3.2
5 *239:8 *239:7 1.09199
6 *239:7 *239:9 0.624023
7 *239:18 *239:9 3.2
8 *239:19 *239:18 0.919238
9 *239:19 *239:16 0.155957
10 *239:17 *239:16 0.551562
11 *239:15 *239:17 3.2
12 *239:15 *239:14 0.312012
13 *603:B1 *239:14 6.4000001
14 *603:B1 *239:27 0.189941
15 *239:24 *239:27 0.223828
16 *239:24 *239:25 0.189941
17 *239:26 *239:25 6.4000001
18 *239:26 *239:6 0.183887
19 *239:11 *583:A2 3.2
20 *239:6 *239:5 0.624023
21 *239:11 *239:10 0.155957
22 *239:5 *239:13 0.183887
23 *239:22 *239:10 3.2
24 *239:13 *239:12 0.77998
25 *239:20 *239:22 0.367676
26 *239:20 *239:12 6.4000001
27 *239:21 *239:20 1.28701
28 *239:23 *239:21 3.2
29 *610:B *239:23 3.2
*END

*D_NET *240 0.00216584

*CONN
*I *618:Y O *C 68.97 61.88 *L 0 *D OAI21XL
*I *603:B0 I *C 78.21 57.96 *L 0.00433 *D AOI22X1
*I *598:B I *C 74.91 57.4 *L 0.00439 *D NOR3X1

*CAP
1 *618:Y 0.000351312
2 *603:B0 0.000139843
3 *598:B 6.33007e-05
4 *240:3 6.58505e-05
5 *240:4 9.32937e-05
6 *240:5 0.00038861
7 *240:6 7.21717e-05
8 *240:7 0.00036747
9 *240:8 9.1325e-05
10 *240:9 0.000269261
11 *240:10 0.000263408

*RES
1 *240:3 *598:B 6.4000001
2 *240:3 *240:6 0.183887
3 *240:10 *603:B0 3.2
4 *240:6 *240:7 0.155957
5 *240:7 *240:10 0.735449
6 *240:7 *240:9 0.936035
7 *240:8 *240:9 3.2
8 *240:4 *240:8 0.223828
9 *240:4 *240:5 0.189941
10 *618:Y *240:5 1.79062
*END

*D_NET *241 0.00231619

*CONN
*I *617:Y O *C 67.65 59.08 *L 0 *D OAI21XL
*I *603:A0 I *C 78.87 57.4 *L 0.00465 *D AOI22X1
*I *598:C I *C 74.25 57.96 *L 0.00425 *D NOR3X1

*CAP
1 *617:Y 0.000139838
2 *603:A0 6.32988e-05
3 *598:C 6.32988e-05
4 *241:3 6.66197e-05
5 *241:4 0.000129595
6 *241:5 0.00057273
7 *241:6 0.000381575
8 *241:7 0.000120602
9 *241:8 0.000120602
10 *241:9 0.000311757
11 *241:9 *100:31 8.288e-05
12 *241:5 *100:32 8.288e-05
13 *241:5 *100:31 9.026e-05
14 *241:6 *100:32 9.02600063e-05

*RES
1 *241:3 *598:C 6.4000001
2 *241:8 *603:A0 6.4000001
3 *241:4 *241:3 0.155957
4 *241:9 *241:8 3.2
5 *241:5 *241:4 3.2
6 *241:5 *241:9 1.28701
7 *241:6 *241:5 1.65469
8 *241:7 *241:6 3.2
9 *617:Y *241:7 3.2
*END

*D_NET *242 0.00555968

*CONN
*I *708:B0 I *C 70.29 78.12 *L 0.00325 *D AOI22XL
*I *604:B1 I *C 73.59 77.56 *L 0.00434 *D AOI22X1
*I *602:A1 I *C 77.55 77.56 *L 0.00443 *D AOI21X1
*I *522:B0 I *C 88.77 77.56 *L 0.00441 *D AOI21X1
*I *478:Q O *C 66.99 77 *L 0 *D DFFRX1

*CAP
1 *708:B0 0.000233635
2 *604:B1 0.000139843
3 *602:A1 0.000139843
4 *522:B0 6.32977e-05
5 *478:Q 0.000344967
6 *242:5 0.000427003
7 *242:6 0.000341356
8 *242:7 0.000639118
9 *242:8 0.00068793
10 *242:9 7.56844e-05
11 *242:10 0.000128779
12 *242:11 5.90989e-05
13 *242:12 0.000140704
14 *242:13 0.000146666
15 *242:14 0.000120602
16 *242:15 0.000120602
17 *242:16 0.000120602
18 *242:7 *224:5 0.00019031
19 *242:8 *224:6 0.000190309994
20 *242:7 *237:5 6.262e-05
21 *242:8 *237:6 6.262e-05
22 *242:8 *237:5 0.00015605
23 *242:12 *237:6 0.000156050009
24 *242:7 *238:5 0.00027897
25 *242:8 *238:6 0.00027897
26 *242:8 *238:5 0.00012702
27 *242:12 *238:6 0.000127020011

*RES
1 *242:11 *522:B0 6.4000001
2 *242:11 *242:10 0.155957
3 *242:16 *602:A1 3.2
4 *242:7 *242:10 3.2
5 *242:8 *242:16 3.2
6 *242:8 *242:7 3.12559
7 *242:12 *242:8 0.919238
8 *242:15 *604:B1 3.2
9 *242:9 *242:12 0.155957
10 *242:5 *242:15 3.2
11 *242:5 *242:9 0.183887
12 *242:6 *242:5 1.4709
13 *242:14 *242:6 3.2
14 *478:Q *708:B0 1.11914
15 *242:13 *242:14 3.2
16 *478:Q *242:13 0.447656
*END

*D_NET *243 0.00855537

*CONN
*I *710:B1 I *C 120.45 53.48 *L 0.00434 *D AOI22X1
*I *613:A1 I *C 115.17 63.56 *L 0.00443 *D AOI21X1
*I *609:B1 I *C 111.21 57.4 *L 0.00434 *D AOI22X1
*I *601:A1 I *C 112.53 63.56 *L 0.00443 *D AOI21X1
*I *520:B0 I *C 107.91 67.48 *L 0.00441 *D AOI21X1
*I *472:Q O *C 128.37 36.68 *L 0 *D DFFRX1

*CAP
1 *710:B1 0.000139838
2 *613:A1 6.33023e-05
3 *609:B1 0.000139838
4 *601:A1 3.98581e-05
5 *520:B0 6.33023e-05
6 *472:Q 0.000139838
7 *243:6 0.00027126
8 *243:7 0.00024758
9 *243:8 0.00019256
10 *243:9 0.00015996
11 *243:10 0.00014516
12 *243:11 0.000397408
13 *243:12 0.000397408
14 *243:13 0.00037383
15 *243:14 0.000246258
16 *243:15 0.000461372
17 *243:16 0.000488193
18 *243:17 0.000272937
19 *243:18 0.000203258
20 *243:19 0.00051592
21 *243:20 0.00051592
22 *243:21 0.00034053
23 *243:22 0.00034053
24 *243:23 0.000120606
25 *243:24 0.000226088
26 *243:25 0.000151733
27 *243:26 0.000303278
28 *243:27 0.000226088
29 *243:28 0.000120606
30 *243:29 0.000127864
31 *243:30 0.000202692
32 *243:31 0.000147813
33 *243:32 0.000225451
34 *243:33 8.49987e-05
35 *243:15 *231:13 0.00012344
36 *243:16 *231:6 0.00012344
37 *243:6 *231:11 8.86e-06
38 *243:7 *231:10 8.86e-06
39 *243:7 *231:9 7.786e-05
40 *243:8 *231:8 7.786e-05
41 *243:9 *231:5 2.089e-05
42 *243:10 *231:4 2.08900048e-05

*RES
1 *243:18 *472:Q 3.2
2 *243:18 *243:17 0.77998
3 *243:19 *243:17 3.2
4 *243:20 *243:19 2.68594
5 *243:30 *243:20 3.2
6 *243:30 *243:31 0.467969
7 *243:31 *243:12 0.183887
8 *243:12 *243:11 1.71602
9 *243:14 *243:11 0.183887
10 *243:13 *710:B1 3.2
11 *243:14 *243:13 1.09199
12 *243:13 *243:32 0.77998
13 *243:33 *243:32 3.2
14 *243:29 *243:33 0.367676
15 *243:29 *243:15 0.312012
16 *243:16 *243:15 2.20625
17 *243:28 *613:A1 6.4000001
18 *243:10 *609:B1 3.2
19 *243:10 *243:16 3.2
20 *243:21 *243:28 3.2
21 *243:10 *243:9 0.624023
22 *243:22 *243:21 0.919238
23 *243:9 *243:8 0.183887
24 *243:25 *601:A1 0.223828
25 *243:7 *243:22 3.2
26 *243:8 *243:7 0.936035
27 *243:6 *243:25 3.2
28 *243:7 *243:6 0.155957
29 *243:6 *243:26 1.09199
30 *243:27 *243:26 3.2
31 *243:24 *243:27 1.10312
32 *243:23 *243:24 3.2
33 *520:B0 *243:23 6.4000001
*END

*D_NET *244 0.00130304

*CONN
*I *616:Y O *C 98.67 92.12 *L 0 *D OAI21XL
*I *600:B0 I *C 98.67 88.2 *L 0.00433 *D AOI22X1
*I *597:B I *C 95.37 87.64 *L 0.00439 *D NOR3X1

*CAP
1 *616:Y 0.00013984
2 *600:B0 0.00013984
3 *597:B 6.32977e-05
4 *244:3 0.00010624
5 *244:4 0.00011044
6 *244:5 0.000150842
7 *244:6 0.00034748
8 *244:7 0.000245057

*RES
1 *244:7 *616:Y 3.2
2 *244:6 *600:B0 3.2
3 *244:6 *244:7 1.09199
4 *244:5 *244:6 0.551562
5 *244:4 *244:5 0.155957
6 *244:3 *244:4 0.367676
7 *597:B *244:3 6.4000001
*END

*D_NET *245 0.0035556

*CONN
*I *615:Y O *C 105.93 99.4 *L 0 *D OAI21XL
*I *600:A0 I *C 99.33 87.64 *L 0.00465 *D AOI22X1
*I *597:C I *C 94.71 88.2 *L 0.00425 *D NOR3X1

*CAP
1 *615:Y 0.000139837
2 *600:A0 6.32994e-05
3 *597:C 0.000139837
4 *245:3 0.000189167
5 *245:4 0.000250041
6 *245:5 0.000151955
7 *245:6 0.000160771
8 *245:7 0.000120598
9 *245:8 0.000120598
10 *245:9 0.0006384
11 *245:10 0.000411046
12 *245:11 0.0006384
13 *245:12 0.000120598
14 *245:13 0.000411046

*RES
1 *245:12 *615:Y 3.2
2 *245:13 *245:12 3.2
3 *245:10 *245:13 2.02246
4 *245:11 *245:10 3.2
5 *245:8 *600:A0 6.4000001
6 *245:9 *245:11 2.80801
7 *245:5 *245:8 3.2
8 *245:5 *245:9 3.2
9 *245:6 *245:5 0.551562
10 *245:6 *245:3 0.155957
11 *245:4 *245:3 0.735449
12 *245:7 *245:4 3.2
13 *597:C *245:7 3.2
*END

*D_NET *246 0.00177858

*CONN
*I *610:Y O *C 74.25 62.44 *L 0 *D NAND2X1
*I *599:B0 I *C 77.55 63 *L 0.00343 *D OAI2BB1X1
*I *583:B0 I *C 82.17 63.56 *L 0.00401 *D OAI31X1

*CAP
1 *610:Y 3.98373e-05
2 *599:B0 6.33007e-05
3 *583:B0 0.000139839
4 *246:3 0.000151711
5 *246:4 0.000223018
6 *246:5 0.000223018
7 *246:6 0.00040863
8 *246:7 0.000120603
9 *246:8 0.00040863

*RES
1 *246:7 *583:B0 3.2
2 *246:8 *246:7 3.2
3 *246:6 *246:8 1.28701
4 *246:5 *599:B0 6.4000001
5 *246:5 *246:6 3.2
6 *246:4 *246:5 0.551562
7 *246:3 *246:4 3.2
8 *610:Y *246:3 0.223828
*END

*D_NET *247 7.968e-05

*CONN
*I *594:Y O *C 84.81 64.12 *L 0 *D INVXL
*I *541:A1 I *C 85.47 63.56 *L 0.00342 *D AOI211XL

*CAP
1 *594:Y 3.984e-05
2 *541:A1 3.984e-05

*RES
1 *594:Y *541:A1 0.223826
*END

*D_NET *248 0.00352685

*CONN
*I *613:Y O *C 116.49 64.12 *L 0 *D AOI21X1
*I *606:A I *C 114.51 57.4 *L 0.00346 *D INVX1
*I *593:AN I *C 104.61 59.64 *L 0.0021 *D NAND2BX1
*I *534:D I *C 104.61 63.56 *L 0.00447 *D NAND4X1

*CAP
1 *613:Y 0.000139837
2 *606:A 0.000139837
3 *593:AN 0.000139837
4 *534:D 0.000139837
5 *248:4 0.000204339
6 *248:5 0.000204339
7 *248:6 0.000130713
8 *248:7 0.000137407
9 *248:8 0.00091005
10 *248:9 0.000696865
11 *248:10 0.000209825
12 *248:11 0.000279507
13 *248:12 0.000194438

*RES
1 *248:6 *613:Y 3.2
2 *248:5 *606:A 3.2
3 *248:7 *248:6 0.624023
4 *248:5 *248:4 0.624023
5 *248:12 *248:7 6.4000001
6 *248:8 *248:4 3.2
7 *248:8 *248:12 0.735449
8 *248:10 *534:D 3.2
9 *248:9 *248:8 2.75781
10 *248:11 *248:10 0.936035
11 *248:11 *248:9 3.2
12 *593:AN *248:11 3.2
*END

*D_NET *249 0.0057652

*CONN
*I *611:Y O *C 105.93 88.2 *L 0 *D NOR2X1
*I *605:A I *C 92.07 87.64 *L 0.00346 *D INVX1
*I *592:B I *C 110.55 78.12 *L 0.0041 *D NOR2BX1
*I *544:C I *C 101.97 77.56 *L 0.00437 *D NAND3X1

*CAP
1 *611:Y 0.000245695
2 *605:A 0.000139837
3 *592:B 0.000139837
4 *544:C 0.000139837
5 *249:4 0.000222271
6 *249:5 0.000152592
7 *249:6 0.000486326
8 *249:7 0.000432431
9 *249:8 0.000111048
10 *249:9 0.000281023
11 *249:10 0.00061046
12 *249:11 0.00068014
13 *249:12 7.16516e-05
14 *249:13 0.000141331
15 *249:14 0.000606641
16 *249:15 0.000606641
17 *249:16 0.000202459
18 *249:6 *289:7 0.00022166
19 *249:7 *289:8 0.00022166
20 *249:7 *289:8 2.034e-05
21 *249:8 *289:9 2.034e-05
22 *611:Y *289:11 5.5e-06
23 *249:9 *600:Y 5.50000709e-06

*RES
1 *249:5 *592:B 3.20000005
2 *249:5 *249:4 0.624023
3 *249:10 *249:4 3.20000005
4 *249:8 *544:C 3.20000005
5 *249:11 *249:10 2.39014
6 *249:9 *611:Y 1.34297
7 *249:8 *249:7 0.77998
8 *249:7 *249:11 3.20000005
9 *249:16 *249:9 3.20000005
10 *249:7 *249:6 1.71602
11 *249:6 *249:16 0.624023
12 *249:14 *249:6 3.20000005
13 *249:12 *605:A 3.20000005
14 *249:15 *249:14 2.75786
15 *249:13 *249:12 0.312012
16 *249:13 *249:15 3.20000005
*END

*D_NET *250 0.00354159

*CONN
*I *612:Y O *C 72.93 63 *L 0 *D NOR2X1
*I *607:A I *C 72.93 57.4 *L 0.00346 *D INVX1
*I *591:AN I *C 81.51 59.64 *L 0.0021 *D NAND2BX1
*I *543:C I *C 88.11 57.4 *L 0.00437 *D NAND3X1

*CAP
1 *612:Y 6.32976e-05
2 *607:A 0.000139834
3 *591:AN 0.000139834
4 *543:C 5.56498e-05
5 *250:4 0.000130179
6 *250:5 6.05068e-05
7 *250:6 0.000279071
8 *250:7 0.000120044
9 *250:8 0.000491408
10 *250:9 0.000172423
11 *250:10 0.000120592
12 *250:11 0.00064174
13 *250:12 0.000167547
14 *250:13 0.000231128
15 *250:14 0.00023341
16 *250:14 *100:31 9.417e-05
17 *250:11 *100:32 9.417e-05
18 *250:11 *100:31 0.00015329
19 *250:8 *100:32 0.000153289998

*RES
1 *250:12 *543:C 0.223828
2 *250:12 *250:13 0.569727
3 *250:5 *250:13 3.2
4 *250:5 *250:4 0.155957
5 *250:10 *591:AN 3.2
6 *250:14 *250:4 3.2
7 *250:11 *250:10 3.2
8 *250:11 *250:14 1.65469
9 *250:8 *250:11 2.39014
10 *250:9 *612:Y 6.4000001
11 *250:6 *250:8 3.2
12 *250:6 *250:9 0.77998
13 *250:7 *250:6 0.624023
14 *607:A *250:7 3.2
*END

*D_NET *251 0.00216516

*CONN
*I *602:Y O *C 78.87 77 *L 0 *D AOI21X1
*I *590:B I *C 80.19 73.64 *L 0.00375 *D NAND2X1
*I *589:B I *C 78.21 73.64 *L 0.00391 *D NAND2BX1
*I *537:AN I *C 87.45 73.64 *L 0.0024 *D NAND3BX1

*CAP
1 *602:Y 6.32938e-05
2 *590:B 6.32938e-05
3 *589:B 0.000139837
4 *537:AN 6.32938e-05
5 *251:4 0.0005373
6 *251:5 0.0005373
7 *251:6 0.000112937
8 *251:7 0.000275221
9 *251:8 0.00017951
10 *251:9 7.25501e-05
11 *251:10 0.000120602

*RES
1 *251:10 *537:AN 6.4000001
2 *251:4 *251:10 3.2
3 *251:5 *251:4 2.02246
4 *251:9 *590:B 6.4000001
5 *251:9 *251:5 3.2
6 *251:8 *602:Y 6.4000001
7 *251:7 *251:9 0.183887
8 *251:7 *251:8 0.936035
9 *251:6 *251:7 0.367676
10 *589:B *251:6 3.2
*END

*D_NET *252 0.00111176

*CONN
*I *589:Y O *C 78.87 74.2 *L 0 *D NAND2BX1
*I *527:A0 I *C 78.87 67.48 *L 0.00341 *D AOI211XL

*CAP
1 *589:Y 3.98614e-05
2 *527:A0 0.000139841
3 *252:2 0.000344301
4 *252:3 0.00039962
5 *252:4 7.51921e-05
6 *252:5 0.000112944

*RES
1 *589:Y *252:4 0.223828
2 *252:5 *252:4 3.20000005
3 *252:3 *252:5 0.367725
4 *252:2 *252:3 1.404
5 *527:A0 *252:2 3.20000005
*END

*D_NET *253 0.00182412

*CONN
*I *592:Y O *C 110.55 77 *L 0 *D NOR2BX1
*I *588:A I *C 107.25 73.64 *L 0.00346 *D INVX1
*I *536:B I *C 110.55 73.08 *L 0.00465 *D NAND4X1

*CAP
1 *592:Y 0.00013984
2 *588:A 0.00013984
3 *536:B 6.32968e-05
4 *253:3 0.000138979
5 *253:4 0.0002343
6 *253:5 0.000164274
7 *253:6 8.37532e-05
8 *253:7 0.000305878
9 *253:8 0.000346141367
10 *253:9 6.57212e-05
11 *253:10 0.000142101

*RES
1 *253:9 *536:B 6.4000001
2 *253:7 *253:9 0.183887
3 *253:10 *592:Y 3.2
4 *253:7 *253:8 1.09199
5 *253:8 *253:10 0.183887
6 *253:6 *253:8 0.183887
7 *253:5 *253:6 0.155957
8 *253:4 *253:5 0.551562
9 *253:3 *253:4 0.77998
10 *588:A *253:3 3.2
*END

*D_NET *254 0.000839192

*CONN
*I *588:Y O *C 107.91 73.08 *L 0 *D INVX1
*I *542:A0 I *C 104.61 74.2 *L 0.00465 *D AOI21X1

*CAP
1 *588:Y 7.97308e-05
2 *542:A0 0.000139841
3 *254:2 0.00018236
4 *254:3 6.99193e-05
5 *254:4 0.000110181
6 *254:5 0.000115059
7 *254:6 0.000142101

*RES
1 *254:5 *588:Y 0.447656
2 *254:6 *254:5 3.20000005
3 *254:3 *254:6 0.183838
4 *254:3 *254:4 0.156006
5 *254:2 *254:4 0.367725
6 *542:A0 *254:2 3.20000005
*END

*D_NET *255 0.00637323

*CONN
*I *597:Y O *C 95.37 87.08 *L 0 *D NOR3X1
*I *587:A I *C 96.69 43.4 *L 0.00346 *D INVX1
*I *586:B0 I *C 94.71 42.84 *L 0.00343 *D OAI2BB1X1

*CAP
1 *597:Y 6.32864e-05
2 *587:A 0.000139831
3 *586:B0 0.000139831
4 *255:3 0.000101461
5 *255:4 0.000148028
6 *255:5 0.000112302
7 *255:6 0.00020573
8 *255:7 0.000199035
9 *255:8 0.000182348
10 *255:9 0.000120597
11 *255:10 0.000120597
12 *255:11 5.1661e-05
13 *255:12 0.000120597
14 *255:13 5.43061e-05
15 *255:14 5.43061e-05
16 *255:15 0.000172846
17 *255:16 0.00203255
18 *255:17 7.17442e-05
19 *255:18 0.00214008
20 *255:19 0.000142084

*RES
1 *255:6 *597:Y 6.4000001
2 *255:7 *255:6 0.77998
3 *255:9 *255:7 3.2
4 *255:10 *255:9 3.2
5 *255:11 *255:10 3.2
6 *255:11 *255:17 0.183887
7 *255:18 *255:17 1.27002
8 *255:16 *255:18 3.11563
9 *255:15 *255:16 1.27002
10 *255:14 *255:15 3.2
11 *255:13 *255:14 0.155957
12 *255:12 *255:13 3.2
13 *255:19 *587:A 3.2
14 *255:3 *255:12 3.2
15 *255:4 *255:19 0.183887
16 *255:4 *255:3 0.624023
17 *255:5 *255:4 0.155957
18 *255:8 *255:5 0.367676
19 *586:B0 *255:8 3.2
*END

*D_NET *256 0.000762998

*CONN
*I *587:Y O *C 97.35 42.84 *L 0 *D INVX1
*I *582:A0 I *C 99.33 43.4 *L 0.00465 *D AOI22X1

*CAP
1 *587:Y 0.000139841
2 *582:A0 6.32991e-05
3 *256:2 0.000142099
4 *256:3 7.31796e-05
5 *256:4 0.00011344
6 *256:5 8.80387e-05
7 *256:6 0.000143099229

*RES
1 *256:5 *582:A0 6.4000001
2 *256:5 *256:6 0.312012
3 *256:4 *256:6 0.367676
4 *256:3 *256:4 0.155957
5 *256:2 *256:3 0.183887
6 *587:Y *256:2 3.2
*END

*D_NET *257 0.0075341

*CONN
*I *596:Y O *C 84.81 79.24 *L 0 *D NAND3BX1
*I *586:A1N I *C 93.39 42.28 *L 0.00148 *D OAI2BB1X1
*I *582:B0 I *C 98.67 42.84 *L 0.00433 *D AOI22X1

*CAP
1 *596:Y 0.000139843
2 *586:A1N 0.000139843
3 *582:B0 0.000139843
4 *257:3 0.000478323
5 *257:4 0.000405768
6 *257:5 0.000379744
7 *257:6 0.000379744
8 *257:7 0.000484689
9 *257:8 0.000499496
10 *257:9 0.00118192
11 *257:10 0.00118192
12 *257:11 0.000199178
13 *257:12 0.000144298
14 *257:13 0.0001206
15 *257:14 0.0001206
16 *257:15 0.0001206
17 *257:16 9.46474e-05
18 *257:17 0.000214129
19 *257:18 0.0001206
20 *257:19 0.000275123
21 *257:19 *355:12 0.00018729
22 *257:17 *355:13 0.00018729
23 *257:16 *355:12 2.366e-05
24 *257:3 *355:13 2.366e-05
25 *257:3 *355:12 0.00014564
26 *257:4 *355:13 0.000145639987

*RES
1 *257:18 *582:B0 3.19999
2 *257:19 *257:18 3.19999
3 *257:13 *596:Y 3.19999
4 *257:17 *257:19 1.10318
5 *257:14 *257:13 3.19999
6 *257:15 *586:A1N 3.19999
7 *257:16 *257:17 0.156033
8 *257:7 *257:14 3.19999
9 *257:3 *257:15 3.19999
10 *257:3 *257:16 0.367696
11 *257:8 *257:7 2.18401
12 *257:4 *257:3 2.20627
13 *257:5 *257:8 0.183893
14 *257:11 *257:4 3.19999
15 *257:6 *257:5 1.716
16 *257:11 *257:12 0.46801
17 *257:10 *257:6 0.183893
18 *257:9 *257:12 0.183893
19 *257:9 *257:10 5.92799997
*END

*D_NET *258 0.00684506

*CONN
*I *595:Y O *C 117.15 56.84 *L 0 *D NOR3X1
*I *585:B0 I *C 101.31 33.32 *L 0.00457 *D OAI22X1
*I *584:B0 I *C 94.71 32.2 *L 0.00302 *D OAI21XL

*CAP
1 *595:Y 0.000139839
2 *585:B0 0.000139839
3 *584:B0 6.33032e-05
4 *258:3 0.000873965
5 *258:4 0.00120109273
6 *258:5 0.000487218
7 *258:6 0.00015626
8 *258:7 0.00015626
9 *258:8 0.000265089
10 *258:9 0.000342101
11 *258:10 0.000252608
12 *258:11 0.000252608
13 *258:12 0.000108224
14 *258:13 0.000123014
15 *258:14 0.000120595
16 *258:15 0.000988365
17 *258:16 0.000933493
18 *258:17 0.000120595
19 *258:18 0.000120595

*RES
1 *258:17 *595:Y 3.2
2 *258:18 *258:17 3.2
3 *258:12 *258:18 3.2
4 *258:13 *258:12 0.624023
5 *258:13 *258:10 0.183887
6 *258:11 *258:10 1.24805
7 *258:16 *258:11 0.183887
8 *258:15 *258:16 4.52402
9 *258:8 *258:15 3.2
10 *258:6 *585:B0 3.2
11 *258:9 *258:8 1.10312
12 *258:7 *258:6 0.312012
13 *258:3 *258:9 0.467969
14 *258:4 *258:7 3.2
15 *258:4 *258:3 3.49326
16 *258:5 *258:4 1.83857
17 *258:14 *258:5 3.2
18 *584:B0 *258:14 6.4000001
*END

*D_NET *259 0.00686711

*CONN
*I *598:Y O *C 74.91 56.84 *L 0 *D NOR3X1
*I *585:A0 I *C 102.63 32.76 *L 0.00456 *D OAI22X1
*I *584:A0 I *C 94.05 33.32 *L 0.00336 *D OAI21XL

*CAP
1 *598:Y 0.000139826
2 *585:A0 0.000139826
3 *584:A0 0.000139826
4 *259:3 0.00044567
5 *259:4 0.00141042
6 *259:5 0.000978158
7 *259:6 0.000188034
8 *259:7 0.000188034
9 *259:8 0.000222469
10 *259:9 0.000222469
11 *259:10 5.72475e-05
12 *259:11 5.72475e-05
13 *259:12 0.000298247
14 *259:13 0.000298247
15 *259:14 0.000846919
16 *259:15 0.000792039
17 *259:16 0.000168278
18 *259:17 0.000120586
19 *259:18 0.000153492

*RES
1 *259:7 *585:A0 3.2
2 *259:9 *584:A0 3.2
3 *259:7 *259:6 0.624002
4 *259:10 *598:Y 3.2
5 *259:9 *259:8 0.467964
6 *259:3 *259:6 3.2
7 *259:11 *259:10 0.155963
8 *259:4 *259:8 3.2
9 *259:4 *259:3 2.39011
10 *259:17 *259:11 3.2
11 *259:5 *259:4 4.9641428
12 *259:18 *259:17 3.2
13 *259:14 *259:5 3.2
14 *259:16 *259:18 0.624002
15 *259:14 *259:15 3.89998
16 *259:12 *259:16 0.183838
17 *259:13 *259:15 0.183838
18 *259:13 *259:12 1.40397
*END

*D_NET *260 0.00542529

*CONN
*I *751:A I *C 92.07 33.32 *L 0.0026 *D MXI2XL
*I *585:B1 I *C 100.65 32.76 *L 0.00419 *D OAI22X1
*I *584:A1 I *C 93.39 33.32 *L 0.00324 *D OAI21XL
*I *582:B1 I *C 98.01 43.4 *L 0.00434 *D AOI22X1
*I *558:Q O *C 109.89 36.68 *L 0 *D DFFRX1

*CAP
1 *751:A 8.85957e-05
2 *585:B1 0.000139836
3 *584:A1 0.000200462
4 *582:B1 6.32957e-05
5 *558:Q 0.000139836
6 *260:5 0.000300655
7 *260:6 0.00023098
8 *260:7 0.000198676
9 *260:8 0.000319454
10 *260:9 0.000224907
11 *260:10 0.000197913
12 *260:11 0.000428299
13 *260:12 0.000442917
14 *260:13 7.93332e-05
15 *260:14 8.74359e-05
16 *260:15 0.000148656
17 *260:16 0.00041217
18 *260:17 0.00100002
19 *260:18 0.000120594
20 *260:19 0.000601248

*RES
1 *260:6 *585:B1 3.2
2 *260:18 *558:Q 3.2
3 *260:13 *582:B1 6.4000001
4 *260:6 *260:5 1.09199
5 *260:19 *260:18 3.2
6 *260:14 *260:13 0.312012
7 *260:17 *260:5 3.2
8 *260:17 *260:19 2.57402
9 *260:7 *260:14 0.183887
10 *260:16 *260:17 1.65469
11 *260:8 *260:7 0.77998
12 *260:15 *260:16 3.2
13 *260:9 *260:8 0.735449
14 *260:15 *260:10 0.312012
15 *260:10 *260:9 0.467969
16 *260:11 *260:10 0.367676
17 *260:12 *260:11 1.24805
18 *584:A1 *260:12 3.2
19 *751:A *584:A1 0.447656
*END

*D_NET *261 0.0019439

*CONN
*I *599:Y O *C 78.87 61.88 *L 0 *D OAI2BB1X1
*I *594:A I *C 84.15 63.56 *L 0.0026 *D INVXL
*I *583:A1 I *C 80.19 63.56 *L 0.00469 *D OAI31X1
*I *545:C I *C 84.15 57.96 *L 0.00425 *D NOR3X1

*CAP
1 *599:Y 8.06611e-05
2 *594:A 0.000139846
3 *583:A1 7.45866e-05
4 *545:C 0.000139846
5 *261:4 0.000195114
6 *261:5 7.26365e-05
7 *261:6 0.000227419
8 *261:7 7.71591e-05
9 *261:8 0.000269227
10 *261:9 0.00054384
11 *261:10 0.000123572

*RES
1 *261:8 *545:C 3.2
2 *261:10 *594:A 3.2
3 *261:8 *261:9 1.09199
4 *261:9 *261:10 0.467969
5 *261:6 *261:9 0.919238
6 *261:5 *261:6 6.4000001
7 *261:5 *261:7 0.189941
8 *261:4 *261:7 0.223828
9 *261:4 *583:A1 0.379785
10 *599:Y *261:4 0.447656
*END

*D_NET *262 0.00272505

*CONN
*I *591:Y O *C 82.83 56.84 *L 0 *D NAND2BX1
*I *583:A0 I *C 80.85 63 *L 0.00482 *D OAI31X1
*I *541:A0 I *C 86.13 63.56 *L 0.00341 *D AOI211XL

*CAP
1 *591:Y 0.000139842
2 *583:A0 0.000139842
3 *541:A0 0.000139842
4 *262:3 0.000227961
5 *262:4 0.000282708
6 *262:5 0.00044753
7 *262:6 0.000304718
8 *262:7 0.00017962
9 *262:8 0.000300805
10 *262:9 0.000138865
11 *262:10 0.000138865
12 *262:11 0.000142232
13 *262:12 0.000142232

*RES
1 *262:12 *541:A0 3.20000005
2 *262:3 *262:12 0.183838
3 *262:4 *262:3 0.77998
4 *262:9 *262:4 3.20000005
5 *262:11 *583:A0 3.20000005
6 *262:10 *262:9 0.735449
7 *262:6 *591:Y 3.20000005
8 *262:7 *262:11 0.183838
9 *262:5 *262:10 3.20000005
10 *262:6 *262:5 1.09199
11 *262:8 *262:7 0.624023
12 *262:8 *262:5 0.735449
*END

*D_NET *263 0.00237621

*CONN
*I *583:Y O *C 82.83 64.12 *L 0 *D OAI31X1
*I *516:A1 I *C 97.35 63 *L 0.00472 *D AOI22X1

*CAP
1 *583:Y 3.98409e-05
2 *516:A1 6.33038e-05
3 *263:2 0.000250834
4 *263:3 0.000250834
5 *263:4 0.00047138
6 *263:5 0.000410507
7 *263:6 0.00015171
8 *263:7 0.000120602
9 *263:8 0.000171383
10 *263:9 0.00011051
11 *263:10 0.000120602
12 *263:4 *305:4 0.00010736
13 *263:5 *305:5 0.00010736

*RES
1 *263:10 *516:A1 6.4000001
2 *263:4 *263:10 3.2
3 *263:5 *263:4 2.02246
4 *263:2 *263:5 0.155957
5 *263:3 *263:2 1.4709
6 *263:3 *263:9 0.155957
7 *263:8 *263:9 0.367676
8 *263:7 *263:8 3.2
9 *263:6 *263:7 3.2
10 *583:Y *263:6 0.223828
*END

*D_NET *264 0.00222108

*CONN
*I *585:Y O *C 101.97 31.64 *L 0 *D OAI22X1
*I *581:A I *C 103.29 22.68 *L 0.00403 *D NAND2X1
*I *579:AN I *C 100.65 29.4 *L 0.0021 *D NAND2BX1

*CAP
1 *585:Y 0.000222239
2 *581:A 0.000139841
3 *579:AN 0.000139841
4 *264:3 0.00062111
5 *264:4 0.000551431
6 *264:5 0.000179599
7 *264:6 0.000249278
8 *264:7 0.00011773

*RES
1 *264:4 *581:A 3.2
2 *264:4 *264:3 2.496
3 *585:Y *264:3 3.2
4 *264:7 *585:Y 0.447656
5 *264:5 *264:7 6.4000001
6 *264:6 *264:5 0.624023
7 *579:AN *264:6 3.2
*END

*D_NET *265 0.00205807

*CONN
*I *696:Y O *C 85.47 32.76 *L 0 *D INVX1
*I *580:B I *C 86.13 28.84 *L 0.00323 *D AND2X2
*I *575:A I *C 88.11 23.24 *L 0.00377 *D MXI2X1

*CAP
1 *696:Y 0.00013984
2 *580:B 4.12087e-05
3 *575:A 6.33056e-05
4 *265:3 6.99165e-05
5 *265:4 0.000153076
6 *265:5 0.000289291
7 *265:6 0.000215406
8 *265:7 0.00047714
9 *265:8 0.000396623
10 *265:9 0.000150441
11 *265:10 6.18203e-05

*RES
1 *265:10 *575:A 6.4000001
2 *265:9 *265:10 0.155957
3 *265:7 *265:9 0.551562
4 *265:4 *580:B 0.223828
5 *265:6 *696:Y 3.2
6 *265:7 *265:8 1.55996
7 *265:5 *265:4 3.2
8 *265:5 *265:6 0.936035
9 *265:3 *265:8 0.183887
10 *265:3 *265:5 0.155957
*END

*D_NET *266 0.00298013

*CONN
*I *584:Y O *C 94.71 31.64 *L 0 *D OAI21XL
*I *580:A I *C 85.47 27.72 *L 0.00319 *D AND2X2
*I *576:B I *C 94.05 27.16 *L 0.00439 *D NOR3X1

*CAP
1 *584:Y 0.000139845
2 *580:A 6.32982e-05
3 *576:B 0.000139845
4 *266:3 0.000116865
5 *266:4 0.000110175
6 *266:5 0.000158708
7 *266:6 0.000144085
8 *266:7 0.000207691
9 *266:8 0.000194355
10 *266:9 5.51182e-05
11 *266:10 0.00057767
12 *266:11 0.00057767
13 *266:10 *269:7 0.00012341
14 *266:11 *269:8 0.00012341
15 *266:7 *269:9 0.0001031
16 *266:8 *269:5 0.0001031
17 *266:7 *269:5 2.089e-05
18 *266:8 *269:6 2.08899905e-05

*RES
1 *266:5 *584:Y 3.2
2 *266:6 *266:5 0.312012
3 *266:7 *266:6 0.367676
4 *266:8 *576:B 3.2
5 *266:8 *266:7 0.936035
6 *266:9 *266:8 0.155957
7 *266:10 *266:9 3.2
8 *266:3 *580:A 6.4000001
9 *266:11 *266:10 2.39014
10 *266:4 *266:3 0.312012
11 *266:4 *266:11 3.2
*END

*D_NET *267 0.00292189

*CONN
*I *582:Y O *C 99.99 42.28 *L 0 *D AOI22X1
*I *579:B I *C 99.99 27.16 *L 0.00391 *D NAND2BX1
*I *577:A0 I *C 99.99 23.24 *L 0.00336 *D OAI21XL

*CAP
1 *582:Y 6.32971e-05
2 *579:B 0.000139839
3 *577:A0 6.32971e-05
4 *267:3 0.00056584
5 *267:4 0.00056584
6 *267:5 0.000256875
7 *267:6 0.00033251
8 *267:7 0.000103826
9 *267:8 0.000419327
10 *267:9 0.000411228

*RES
1 *267:5 *577:A0 6.4000001
2 *267:9 *582:Y 6.4000001
3 *267:6 *579:B 3.2
4 *267:5 *267:6 1.09199
5 *267:8 *267:9 1.55996
6 *267:6 *267:7 0.312012
7 *267:3 *267:8 0.183887
8 *267:4 *267:7 0.183887
9 *267:4 *267:3 2.34004
*END

*D_NET *268 0.00139057

*CONN
*I *580:Y O *C 87.45 28.28 *L 0 *D AND2X2
*I *578:B0 I *C 91.41 27.16 *L 0.00441 *D AOI21X1
*I *569:B0 I *C 90.75 23.24 *L 0.00441 *D AOI21X1

*CAP
1 *580:Y 0.00016937
2 *578:B0 6.33013e-05
3 *569:B0 6.33013e-05
4 *268:3 0.000142111
5 *268:4 0.00014758
6 *268:5 0.0002047
7 *268:6 0.000182361
8 *268:7 0.00015716
9 *268:8 0.000171959
10 *268:9 8.87299e-05

*RES
1 *268:7 *569:B0 6.4000001
2 *268:7 *268:8 0.77998
3 *268:8 *268:9 0.183887
4 *268:4 *578:B0 6.4000001
5 *268:9 *268:4 0.312012
6 *268:4 *268:3 0.467969
7 *268:6 *268:3 0.367676
8 *268:5 *268:6 3.2
9 *580:Y *268:5 0.895312
*END

*D_NET *269 0.00377079

*CONN
*I *586:Y O *C 96.03 41.72 *L 0 *D OAI2BB1X1
*I *578:A0 I *C 90.75 26.6 *L 0.00465 *D AOI21X1
*I *576:C I *C 93.39 27.72 *L 0.00425 *D NOR3X1

*CAP
1 *586:Y 0.000139846
2 *578:A0 0.000139846
3 *576:C 0.000139846
4 *269:3 0.0007624
5 *269:4 0.000681873
6 *269:5 0.000204389
7 *269:6 4.80579e-05
8 *269:7 0.000205808
9 *269:8 0.000205808
10 *269:9 0.00018453
11 *269:10 0.000120604
12 *269:11 0.000150444
13 *269:12 0.000110181
14 *269:13 0.000182366
15 *269:7 *266:10 0.00012341
16 *269:8 *266:11 0.00012341
17 *269:9 *266:7 0.0001031
18 *269:5 *266:8 0.0001031
19 *269:5 *266:7 2.089e-05
20 *269:6 *266:8 2.08899905e-05

*RES
1 *269:13 *586:Y 3.20000005
2 *269:12 *269:13 0.367725
3 *269:11 *269:12 0.156006
4 *269:3 *269:11 0.551562
5 *269:4 *269:3 2.652
6 *269:4 *269:9 0.183838
7 *269:5 *576:C 3.20000005
8 *269:5 *269:9 1.09199
9 *269:6 *269:5 0.156006
10 *269:7 *269:6 3.20000005
11 *269:8 *269:7 0.735449
12 *269:10 *269:8 3.20000005
13 *578:A0 *269:10 3.20000005
*END

*D_NET *270 0.00119458

*CONN
*I *581:Y O *C 103.29 22.12 *L 0 *D NAND2X1
*I *577:B0 I *C 100.65 22.12 *L 0.00302 *D OAI21XL
*I *566:B0 I *C 98.01 22.12 *L 0.00302 *D OAI21XL

*CAP
1 *581:Y 6.22111e-05
2 *577:B0 7.97284e-05
3 *566:B0 0.000139842
4 *270:3 0.000182361
5 *270:4 0.00011506
6 *270:5 0.000254962
7 *270:6 9.75426e-05
8 *270:7 0.00026288

*RES
1 *270:6 *581:Y 0.447656
2 *270:4 *577:B0 0.447656
3 *270:7 *270:6 3.20000005
4 *270:5 *270:4 3.20000005
5 *270:5 *270:7 0.735449
6 *270:3 *270:5 0.367725
7 *566:B0 *270:3 3.20000005
*END

*D_NET *271 0.00427147

*CONN
*I *579:Y O *C 99.33 26.6 *L 0 *D NAND2BX1
*I *576:A I *C 94.71 28.28 *L 0.0047 *D NOR3X1
*I *575:S0 I *C 84.81 22.68 *L 0.00672 *D MXI2X1
*I *572:A1 I *C 93.39 23.24 *L 0.00443 *D AOI21X1

*CAP
1 *579:Y 0.000221173
2 *576:A 0.000139846
3 *575:S0 0.000139846
4 *572:A1 0.000139846
5 *271:4 0.000120807
6 *271:5 0.000120807
7 *271:6 0.000182876
8 *271:7 0.000182876
9 *271:8 0.000225534
10 *271:9 0.000225534
11 *271:10 7.53066e-05
12 *271:11 7.53066e-05
13 *271:12 0.00084305
14 *271:13 0.000624514
15 *271:14 0.000301625
16 *271:15 0.000142097
17 *271:16 0.000243672
18 *271:17 0.000142097
19 *271:18 0.000124705

*RES
1 *271:15 *576:A 3.20000005
2 *271:15 *271:10 0.183838
3 *271:11 *271:10 0.156006
4 *271:11 *271:17 0.183838
5 *271:16 *271:17 3.20000005
6 *271:16 *579:Y 0.895312
7 *271:18 *579:Y 0.447656
8 *271:8 *271:18 3.20000005
9 *271:7 *572:A1 3.20000005
10 *271:9 *271:8 0.624023
11 *271:7 *271:6 0.312012
12 *271:14 *271:9 3.20000005
13 *271:12 *271:6 3.20000005
14 *271:12 *271:14 1.10312
15 *271:13 *271:12 2.39014
16 *271:4 *271:13 3.20000005
17 *271:5 *271:4 0.468018
18 *575:S0 *271:5 3.20000005
*END

*D_NET *272 0.0004026

*CONN
*I *575:Y O *C 86.79 23.8 *L 0 *D MXI2X1
*I *569:A0 I *C 90.09 23.8 *L 0.00465 *D AOI21X1

*CAP
1 *272:2 0.0002013
2 *272:3 0.0002013

*RES
1 *272:3 *569:A0 3.20000005
2 *272:2 *272:3 0.919287
3 *575:Y *272:2 3.20000005
*END

*D_NET *273 0.00313377

*CONN
*I *576:Y O *C 94.05 26.6 *L 0 *D NOR3X1
*I *574:AN I *C 105.27 29.4 *L 0.0021 *D NAND2BX1
*I *573:B I *C 110.55 27.72 *L 0.00277 *D NAND2XL

*CAP
1 *576:Y 0.000131957
2 *574:AN 0.000112385
3 *573:B 0.00013984
4 *273:3 0.000243823
5 *273:4 0.000120604
6 *273:5 0.000319831
7 *273:6 7.99858e-05
8 *273:7 0.000120604
9 *273:8 0.00066665
10 *273:9 0.000149687
11 *273:10 8.58553e-05
12 *273:11 0.000155526
13 *273:12 0.000328061
14 *273:12 *73:5 4.933e-05
15 *273:8 *73:6 4.933e-05
16 *273:12 *73:6 7.045e-05
17 *273:8 *73:7 7.045e-05
18 *273:8 *73:6 0.00011971
19 *273:5 *73:7 0.000119710006

*RES
1 *273:9 *574:AN 0.447656
2 *273:10 *573:B 3.20000005
3 *273:6 *273:9 0.189893
4 *273:10 *273:11 0.312012
5 *273:7 *273:6 3.20000005
6 *273:12 *273:11 3.20000005
7 *273:8 *273:7 3.20000005
8 *273:8 *273:12 1.83857
9 *273:5 *273:8 1.83857
10 *273:4 *273:5 3.20000005
11 *273:3 *273:4 3.20000005
12 *576:Y *273:3 0.671484
*END

*D_NET *274 0.000721389

*CONN
*I *573:Y O *C 111.87 26.6 *L 0 *D NAND2XL
*I *570:D I *C 115.83 26.6 *L 0.00184 *D DFFRHQX1

*CAP
1 *573:Y 0.000123599
2 *570:D 6.3299e-05
3 *274:2 0.00015893
4 *274:3 0.00022262
5 *274:4 0.000152941

*RES
1 *274:4 *570:D 6.4000001
2 *274:3 *274:4 0.551562
3 *274:2 *274:3 3.2
4 *573:Y *274:2 0.671484
*END

*D_NET *275 0.00131005

*CONN
*I *577:Y O *C 100.65 21.56 *L 0 *D OAI21XL
*I *572:B0 I *C 94.71 23.24 *L 0.00441 *D AOI21X1
*I *566:A1 I *C 96.69 23.24 *L 0.00324 *D OAI21XL

*CAP
1 *577:Y 6.32984e-05
2 *572:B0 6.32984e-05
3 *566:A1 3.98599e-05
4 *275:3 0.000112682
5 *275:4 0.000181941
6 *275:5 0.00023958
7 *275:6 7.51906e-05
8 *275:7 0.0002437
9 *275:8 5.09191e-05
10 *275:9 0.00023958

*RES
1 *275:8 *577:Y 6.4000001
2 *275:9 *275:8 6.4000001
3 *275:5 *275:9 1.28701
4 *275:6 *566:A1 0.223828
5 *275:4 *275:5 3.2
6 *275:7 *275:6 3.2
7 *275:4 *275:7 0.467969
8 *275:3 *275:7 0.367676
9 *572:B0 *275:3 6.4000001
*END

*D_NET *276 0.00211414

*CONN
*I *578:Y O *C 91.41 26.6 *L 0 *D AOI21X1
*I *572:A0 I *C 94.05 23.8 *L 0.00465 *D AOI21X1
*I *569:A1 I *C 89.43 23.24 *L 0.00443 *D AOI21X1

*CAP
1 *578:Y 0.000139841
2 *572:A0 0.000139841
3 *569:A1 0.000139841
4 *276:3 0.000102943
5 *276:4 0.000143201
6 *276:5 0.000243669
7 *276:6 0.00025829
8 *276:7 0.000120604
9 *276:8 0.000341908
10 *276:9 7.242e-05
11 *276:10 0.00041159

*RES
1 *276:9 *578:Y 3.20000005
2 *276:9 *276:3 0.183838
3 *276:4 *276:3 0.312012
4 *276:4 *276:5 0.367725
5 *276:6 *572:A0 3.20000005
6 *276:6 *276:5 0.77998
7 *276:10 *276:6 3.20000005
8 *276:8 *276:10 1.28701
9 *276:7 *276:8 3.20000005
10 *569:A1 *276:7 3.20000005
*END

*D_NET *277 0.00135975

*CONN
*I *569:Y O *C 90.75 23.8 *L 0 *D AOI21X1
*I *566:A0 I *C 97.35 23.24 *L 0.00336 *D OAI21XL

*CAP
1 *569:Y 3.98621e-05
2 *566:A0 6.33019e-05
3 *277:2 0.000431834
4 *277:3 0.00050151
5 *277:4 0.000151727
6 *277:5 0.000120597
7 *277:6 5.09201e-05

*RES
1 *277:6 *566:A0 6.4000001
2 *277:2 *277:6 6.4000001
3 *277:3 *277:2 1.4709
4 *277:5 *277:3 3.2
5 *277:4 *277:5 3.2
6 *569:Y *277:4 0.223828
*END

*D_NET *278 0.00200082

*CONN
*I *572:Y O *C 94.71 23.8 *L 0 *D AOI21X1
*I *568:B0 I *C 98.67 33.32 *L 0.00464 *D OAI2BB2X1
*I *568:A1N I *C 96.69 32.76 *L 0.00219 *D OAI2BB2X1

*CAP
1 *572:Y 6.32981e-05
2 *568:B0 0.000139838
3 *568:A1N 6.32981e-05
4 *278:3 0.000119759
5 *278:4 0.00016812
6 *278:5 0.000422734
7 *278:6 0.00052656
8 *278:7 8.90335e-05
9 *278:8 0.000251754
10 *278:9 0.000156429

*RES
1 *278:9 *568:B0 3.2
2 *278:8 *278:9 0.467969
3 *278:7 *568:A1N 6.4000001
4 *278:6 *278:8 0.551562
5 *278:6 *278:7 0.312012
6 *278:5 *278:6 1.71602
7 *278:4 *278:5 0.367676
8 *278:3 *278:4 0.467969
9 *572:Y *278:3 6.4000001
*END

*D_NET *279 0.00166019

*CONN
*I *564:Y O *C 103.29 41.72 *L 0 *D OAI22XL
*I *558:D I *C 96.69 38.36 *L 0.00206 *D DFFRX1

*CAP
1 *564:Y 0.0001044
2 *558:D 6.33019e-05
3 *279:2 0.000144057
4 *279:3 0.000213739
5 *279:4 0.000141699
6 *279:5 5.99309e-05
7 *279:6 0.000114991
8 *279:7 0.000105982
9 *279:8 0.000316051289
10 *279:9 0.000316051289
11 *279:10 7.99882e-05

*RES
1 *279:4 *564:Y 0.671484
2 *279:10 *279:4 0.189941
3 *279:2 *279:10 6.4000001
4 *279:3 *279:2 0.624023
5 *279:9 *279:3 3.2
6 *279:8 *279:9 0.919238
7 *279:5 *279:8 6.4000001
8 *279:6 *279:5 0.155957
9 *279:7 *279:6 0.367676
10 *558:D *279:7 6.4000001
*END

*D_NET *280 0.00589173

*CONN
*I *733:Y O *C 109.23 26.6 *L 0 *D NAND2BX1
*I *574:B I *C 105.93 27.16 *L 0.00391 *D NAND2BX1
*I *573:A I *C 111.21 27.16 *L 0.0031 *D NAND2XL
*I *562:B I *C 105.27 47.32 *L 0.00375 *D NAND2X1
*I *556:B I *C 110.55 53.48 *L 0.00375 *D NAND2X1

*CAP
1 *733:Y 0.000117737
2 *574:B 0.000139839
3 *573:A 3.73169e-05
4 *562:B 0.000111888
5 *556:B 7.45922e-05
6 *280:5 0.000228459
7 *280:6 5.77756e-05
8 *280:7 0.000256306
9 *280:8 0.000330878
10 *280:9 0.000166708
11 *280:10 0.000248918
12 *280:11 0.000318598
13 *280:12 8.8599e-05
14 *280:13 8.8599e-05
15 *280:14 0.00129427
16 *280:15 0.00136395
17 *280:16 0.000148206
18 *280:17 0.000124813
19 *280:18 0.000124813
20 *280:19 0.000120609
21 *280:20 0.000146229
22 *280:21 0.000117279
23 *280:22 6.57052e-05
24 *280:23 0.000119693

*RES
1 *280:23 *573:A 0.189941
2 *280:12 *574:B 3.2
3 *733:Y *280:23 0.447656
4 *280:13 *280:12 0.312012
5 *280:18 *733:Y 3.2
6 *280:11 *280:13 3.2
7 *280:17 *280:18 0.155957
8 *280:11 *280:10 1.10312
9 *280:10 *280:17 3.2
10 *280:15 *280:10 3.2
11 *280:15 *280:14 6.396
12 *280:21 *556:B 0.379785
13 *280:19 *280:14 3.2
14 *280:22 *280:21 6.4000001
15 *280:6 *280:19 3.2
16 *280:9 *280:22 0.183887
17 *280:6 *280:5 0.155957
18 *280:5 *280:9 0.77998
19 *280:20 *280:5 3.2
20 *280:16 *280:20 0.447656
21 *280:7 *280:16 0.189941
22 *280:8 *280:7 1.11914
23 *562:B *280:8 0.569727
*END

*D_NET *281 0.00135918

*CONN
*I *561:Y O *C 135.63 37.24 *L 0 *D OAI2BB2X1
*I *546:D I *C 131.01 33.88 *L 0.00184 *D DFFRHQX1

*CAP
1 *561:Y 0.00013984
2 *546:D 6.3299e-05
3 *281:2 0.000299559492
4 *281:3 0.000299559492
5 *281:4 0.000120601
6 *281:5 0.000252999
7 *281:6 0.000183319

*RES
1 *281:6 *561:Y 3.2
2 *281:5 *281:6 0.77998
3 *281:2 *281:5 3.2
4 *281:3 *281:2 1.28701
5 *281:4 *281:3 3.2
6 *546:D *281:4 6.4000001
*END

*D_NET *282 0.0116116

*CONN
*I *566:Y O *C 98.01 21.56 *L 0 *D OAI21XL
*I *565:A I *C 113.19 53.48 *L 0.00346 *D INVX1
*I *563:A I *C 104.61 53.48 *L 0.0043 *D NOR2X1
*I *562:A I *C 105.93 47.88 *L 0.00403 *D NAND2X1
*I *560:A I *C 94.71 53.48 *L 0.0043 *D NOR2X1
*I *559:A I *C 96.03 47.88 *L 0.00403 *D NAND2X1
*I *555:A0 I *C 109.89 33.32 *L 0.00465 *D AOI22X1

*CAP
1 *566:Y 0.000139841
2 *565:A 0.000139841
3 *563:A 6.32952e-05
4 *562:A 0.000139841
5 *560:A 6.32952e-05
6 *559:A 6.32952e-05
7 *555:A0 6.32952e-05
8 *282:7 0.000559616
9 *282:8 0.000449038
10 *282:9 0.000699906
11 *282:10 0.000699906
12 *282:11 0.000124794
13 *282:12 0.000409496
14 *282:13 0.000493692
15 *282:14 0.000342317
16 *282:15 0.000412006
17 *282:16 0.000686682
18 *282:17 0.000817116
19 *282:18 0.000723739
20 *282:19 0.000625487
21 *282:20 0.000167268
22 *282:21 0.00013749
23 *282:22 6.78002e-05
24 *282:23 0.000796124
25 *282:24 0.0008658
26 *282:25 0.000146645
27 *282:26 6.57128e-05
28 *282:27 0.000120592
29 *282:28 0.000105122
30 *282:29 0.000352609
31 *282:30 0.000120592
32 *282:31 0.000120592
33 *282:32 0.000330559
34 *282:33 5.64253e-05
35 *282:34 0.000126101
36 *282:12 *347:4 0.00015784
37 *282:13 *347:3 0.000157840003

*RES
1 *282:27 *566:Y 3.2
2 *282:15 *282:27 3.2
3 *282:15 *282:14 1.65469
4 *282:10 *282:14 3.2
5 *282:10 *282:9 2.65195
6 *282:31 *555:A0 6.4000001
7 *282:28 *282:9 3.2
8 *282:32 *282:31 3.2
9 *282:28 *282:29 0.367676
10 *282:29 *282:32 1.10312
11 *282:24 *282:29 3.2
12 *282:24 *282:23 3.74404
13 *282:30 *282:23 3.2
14 *282:33 *565:A 3.2
15 *282:20 *282:30 3.2
16 *282:33 *282:34 0.155957
17 *282:13 *562:A 3.2
18 *282:20 *282:13 0.312012
19 *282:22 *563:A 6.4000001
20 *282:16 *282:34 3.2
21 *282:13 *282:12 1.71602
22 *282:22 *282:21 0.155957
23 *282:17 *282:16 2.02246
24 *282:17 *282:12 3.2
25 *282:18 *282:21 3.2
26 *282:18 *282:17 0.367676
27 *282:26 *559:A 6.4000001
28 *282:19 *282:18 2.20625
29 *282:26 *282:8 0.183887
30 *282:11 *282:19 3.2
31 *282:8 *282:7 1.55996
32 *282:7 *282:11 0.155957
33 *282:25 *282:7 0.551562
34 *560:A *282:25 6.4000001
*END

*D_NET *283 0.00110609

*CONN
*I *565:Y O *C 113.85 52.92 *L 0 *D INVX1
*I *557:A I *C 109.23 53.48 *L 0.0043 *D NOR2X1
*I *556:A I *C 111.21 52.92 *L 0.00403 *D NAND2X1

*CAP
1 *565:Y 7.97295e-05
2 *557:A 6.32993e-05
3 *556:A 6.32993e-05
4 *283:3 6.57211e-05
5 *283:4 0.000109041
6 *283:5 6.87784e-05
7 *283:6 0.000117729
8 *283:7 0.00015484
9 *283:8 0.00014692
10 *283:9 0.000119699
11 *283:10 0.00011703

*RES
1 *283:10 *565:Y 0.447656
2 *283:9 *283:10 0.189941
3 *283:6 *283:9 0.447656
4 *283:7 *283:6 3.2
5 *283:8 *556:A 6.4000001
6 *283:7 *283:8 0.312012
7 *283:4 *283:8 0.367676
8 *283:4 *283:5 0.155957
9 *283:3 *283:5 0.183887
10 *557:A *283:3 6.4000001
*END

*D_NET *284 0.0002658

*CONN
*I *555:Y O *C 110.55 32.2 *L 0 *D AOI22X1
*I *548:A I *C 113.19 33.32 *L 0.0026 *D INVXL

*CAP
1 *555:Y 0.0001329
2 *548:A 0.0001329

*RES
1 *555:Y *548:A 0.671478
*END

*D_NET *285 0.0095003

*CONN
*I *571:Y O *C 106.59 32.76 *L 0 *D INVX1
*I *564:B0 I *C 102.63 43.4 *L 0.00339 *D OAI22XL
*I *555:A1 I *C 110.55 32.76 *L 0.00472 *D AOI22X1
*I *551:B I *C 107.25 57.4 *L 0.00375 *D NAND2X1
*I *550:B I *C 88.11 53.48 *L 0.00375 *D NAND2X1

*CAP
1 *571:Y 6.43172e-05
2 *564:B0 0.000139836
3 *555:A1 6.33068e-05
4 *551:B 6.33068e-05
5 *550:B 0.000139836
6 *285:5 0.0008175
7 *285:6 0.0008175
8 *285:7 0.00057389
9 *285:8 0.000493369
10 *285:9 7.26001e-05
11 *285:10 0.000153121
12 *285:11 0.000176186
13 *285:12 0.000144502
14 *285:13 0.000210154
15 *285:14 0.000189172
16 *285:15 0.000273598
17 *285:16 0.000354119
18 *285:17 0.000226882
19 *285:18 0.000226882
20 *285:19 0.000114988
21 *285:20 0.000473373
22 *285:21 0.000380602
23 *285:22 0.000731565
24 *285:23 0.000740372
25 *285:24 0.00023393
26 *285:25 0.00023393
27 *285:26 0.000166194
28 *285:27 0.000398665
29 *285:28 0.00018311
30 *285:29 0.000113428
31 *285:30 0.000142094
32 *285:31 7.24255e-05
33 *285:32 0.000315549

*RES
1 *571:Y *285:11 0.447656
2 *285:30 *285:11 3.2
3 *285:30 *285:9 0.183887
4 *285:10 *285:9 0.155957
5 *285:10 *285:14 0.551562
6 *285:13 *555:A1 6.4000001
7 *285:14 *285:13 0.312012
8 *285:13 *285:12 0.467969
9 *285:12 *285:8 0.183887
10 *285:8 *285:7 1.87197
11 *285:16 *285:7 0.551562
12 *285:24 *564:B0 3.2
13 *285:16 *285:15 1.24805
14 *285:24 *285:25 0.624023
15 *285:31 *285:15 0.183887
16 *285:26 *285:25 3.2
17 *285:32 *285:31 3.2
18 *285:29 *551:B 6.4000001
19 *285:26 *285:27 0.735449
20 *285:27 *285:32 0.919238
21 *285:28 *285:29 0.312012
22 *285:6 *285:27 3.2
23 *285:19 *285:28 3.2
24 *285:6 *285:5 2.96396
25 *285:20 *285:19 0.551562
26 *285:20 *285:5 3.2
27 *285:21 *285:20 1.65469
28 *285:23 *285:21 0.155957
29 *285:22 *285:23 3.12559
30 *285:17 *285:22 3.2
31 *285:18 *285:17 0.624023
32 *550:B *285:18 3.2
*END

*D_NET *286 0.00024156

*CONN
*I *548:Y O *C 113.85 33.88 *L 0 *D INVXL
*I *530:D I *C 115.83 33.88 *L 0.00184 *D DFFRHQX1

*CAP
1 *286:2 0.00012078
2 *286:3 0.00012078

*RES
1 *286:3 *530:D 6.4000001
2 *286:2 *286:3 0.551562
3 *548:Y *286:2 3.2
*END

*D_NET *287 0.00195564

*CONN
*I *603:Y O *C 79.53 58.52 *L 0 *D AOI22X1
*I *591:B I *C 82.17 57.4 *L 0.00391 *D NAND2BX1
*I *545:B I *C 84.81 57.4 *L 0.00439 *D NOR3X1
*I *543:B I *C 88.77 57.96 *L 0.00455 *D NAND3X1

*CAP
1 *603:Y 3.9859e-05
2 *591:B 0.000139839
3 *545:B 6.33007e-05
4 *543:B 7.45876e-05
5 *287:4 5.80816e-05
6 *287:5 5.80816e-05
7 *287:6 7.51893e-05
8 *287:7 0.000182618
9 *287:8 0.000112939
10 *287:9 0.000263229
11 *287:10 0.000120603
12 *287:11 0.00041509
13 *287:12 0.000117278
14 *287:13 0.000234936

*RES
1 *287:12 *543:B 0.379785
2 *287:5 *287:12 6.4000001
3 *287:5 *287:4 0.155957
4 *287:10 *545:B 6.4000001
5 *287:13 *287:4 6.4000001
6 *287:11 *287:10 3.2
7 *287:11 *287:13 1.10312
8 *287:9 *287:11 0.735449
9 *287:8 *591:B 3.2
10 *287:8 *287:9 3.2
11 *287:7 *287:8 0.367676
12 *287:6 *287:7 3.2
13 *603:Y *287:6 0.223828
*END

*D_NET *288 0.00547771

*CONN
*I *559:Y O *C 96.03 48.44 *L 0 *D NAND2X1
*I *552:A I *C 90.75 57.4 *L 0.00346 *D INVX1
*I *549:A I *C 86.79 47.32 *L 0.0043 *D NOR2X1
*I *545:A I *C 85.47 58.52 *L 0.0047 *D NOR3X1
*I *541:B0 I *C 87.45 63.56 *L 0.00352 *D AOI211XL

*CAP
1 *559:Y 6.33053e-05
2 *552:A 6.33053e-05
3 *549:A 6.33053e-05
4 *545:A 0.000139841
5 *541:B0 6.33053e-05
6 *288:5 0.000161629
7 *288:6 0.00039094
8 *288:7 0.00031009
9 *288:8 0.000142228
10 *288:9 0.000296156
11 *288:10 0.00037465
12 *288:11 0.000103965
13 *288:12 7.25471e-05
14 *288:13 0.0006685
15 *288:14 0.000328757
16 *288:15 0.00019266
17 *288:16 0.000173595
18 *288:17 0.000213989
19 *288:18 7.00479e-05
20 *288:19 7.00479e-05
21 *288:20 7.21696e-05
22 *288:21 7.21696e-05
23 *288:22 6.58452e-05
24 *288:23 0.000321443
25 *288:24 0.000314741
26 *288:25 0.0006685

*RES
1 *288:22 *552:A 6.4000001
2 *288:23 *559:Y 6.4000001
3 *288:20 *288:22 0.183887
4 *288:23 *288:24 0.77998
5 *288:20 *288:21 0.155957
6 *288:25 *288:24 3.2
7 *288:18 *288:21 0.183887
8 *288:13 *288:25 2.39014
9 *288:18 *288:19 0.155957
10 *288:9 *549:A 6.4000001
11 *288:12 *288:13 3.2
12 *288:16 *288:19 0.183887
13 *288:9 *288:10 1.09199
14 *288:10 *288:12 0.183887
15 *288:16 *288:17 0.624023
16 *288:15 *541:B0 6.4000001
17 *288:10 *288:11 0.312012
18 *288:14 *288:17 0.367676
19 *288:14 *288:15 0.77998
20 *288:7 *288:11 0.183887
21 *288:5 *288:14 0.367676
22 *288:7 *288:6 1.71602
23 *288:6 *288:5 0.624023
24 *288:8 *288:6 0.183887
25 *545:A *288:8 3.2
*END

*D_NET *289 0.00357546

*CONN
*I *600:Y O *C 99.99 88.76 *L 0 *D AOI22X1
*I *592:AN I *C 109.23 78.12 *L 0.00218 *D NOR2BX1
*I *544:B I *C 102.63 78.12 *L 0.00455 *D NAND3X1
*I *539:AN I *C 105.27 77.56 *L 0.0024 *D NAND3BX1

*CAP
1 *600:Y 8.71576e-05
2 *592:AN 0.000139838
3 *544:B 0.000139838
4 *539:AN 4.17148e-05
5 *289:4 0.000164275
6 *289:5 0.000123355
7 *289:6 6.78106e-05
8 *289:7 0.000524316
9 *289:8 0.00057216
10 *289:9 0.000117348
11 *289:10 7.99898e-05
12 *289:11 0.000124463
13 *289:12 0.000153589
14 *289:13 0.000346841
15 *289:14 0.000120605
16 *289:15 0.000277162
17 *289:7 *249:6 0.00022166
18 *289:8 *249:7 0.00022166
19 *289:8 *249:7 2.034e-05
20 *289:9 *249:8 2.034e-05
21 *289:11 *611:Y 5.5e-06
22 *600:Y *249:9 5.50000709e-06

*RES
1 *289:14 *592:AN 3.20000005
2 *289:12 *539:AN 0.223828
3 *289:15 *289:14 3.20000005
4 *289:6 *289:12 3.20000005
5 *289:13 *289:15 1.28701
6 *289:6 *289:5 0.156006
7 *289:5 *289:13 3.20000005
8 *289:9 *544:B 3.20000005
9 *289:5 *289:4 0.156006
10 *289:9 *289:8 0.156006
11 *289:8 *289:4 0.551562
12 *289:8 *289:7 2.18398
13 *289:10 *289:7 3.20000005
14 *289:10 *289:11 0.189893
15 *600:Y *289:11 0.671484
*END

*D_NET *290 0.0024799

*CONN
*I *552:Y O *C 91.41 57.96 *L 0 *D INVX1
*I *543:A I *C 89.43 56.84 *L 0.00477 *D NAND3X1
*I *516:A0 I *C 96.69 63.56 *L 0.00465 *D AOI22X1

*CAP
1 *552:Y 0.000139842
2 *543:A 0.000139842
3 *516:A0 6.33012e-05
4 *290:3 0.00021581
5 *290:4 0.00024855
6 *290:5 0.000375849
7 *290:6 0.000375849
8 *290:7 0.000223024
9 *290:8 0.00038376
10 *290:9 0.000314082

*RES
1 *290:9 *516:A0 6.4000001
2 *290:8 *290:9 1.09199
3 *290:5 *290:8 3.2
4 *290:6 *290:5 1.4709
5 *290:3 *290:6 3.2
6 *290:4 *290:3 0.77998
7 *290:4 *552:Y 3.2
8 *290:7 *290:4 0.551562
9 *543:A *290:7 3.2
*END

*D_NET *291 0.00141556

*CONN
*I *553:Y O *C 103.29 73.08 *L 0 *D INVX1
*I *542:B0 I *C 105.27 73.64 *L 0.00441 *D AOI21X1
*I *526:A0 I *C 99.33 72.52 *L 0.00508 *D OAI33X1

*CAP
1 *553:Y 7.97276e-05
2 *542:B0 6.32986e-05
3 *526:A0 3.98616e-05
4 *291:3 7.51892e-05
5 *291:4 0.000146402
6 *291:5 0.00011506
7 *291:6 0.000257881
8 *291:7 8.60213e-05
9 *291:8 0.000285438438
10 *291:9 5.09203e-05
11 *291:10 0.000215759

*RES
1 *291:9 *542:B0 6.4000001
2 *291:10 *291:9 6.4000001
3 *291:8 *291:10 0.919238
4 *291:7 *291:8 3.2
5 *291:5 *553:Y 0.447656
6 *291:6 *291:7 0.312012
7 *291:6 *291:5 3.2
8 *291:4 *291:6 0.551562
9 *291:3 *291:4 6.4000001
10 *526:A0 *291:3 0.223828
*END

*D_NET *292 0.00199685

*CONN
*I *542:Y O *C 105.27 74.2 *L 0 *D AOI21X1
*I *504:A0 I *C 99.33 66.92 *L 0.00483 *D AOI211X1

*CAP
1 *542:Y 6.32997e-05
2 *504:A0 6.32997e-05
3 *292:2 0.000113112
4 *292:3 0.000174091
5 *292:4 0.0001206
6 *292:5 0.000230932
7 *292:6 0.00028474
8 *292:7 0.000291911055
9 *292:8 0.000291439
10 *292:7 *328:6 0.00015794
11 *292:5 *328:4 0.00015794
12 *292:2 *328:4 2.377e-05
13 *292:3 *328:5 2.3770004e-05

*RES
1 *292:8 *542:Y 6.4000001
2 *292:6 *292:8 1.24805
3 *292:7 *292:6 3.2
4 *292:5 *292:7 1.28701
5 *292:2 *292:5 0.155957
6 *292:3 *292:2 0.551562
7 *292:4 *292:3 3.2
8 *504:A0 *292:4 6.4000001
*END

*D_NET *293 0.00247832

*CONN
*I *541:Y O *C 88.11 62.44 *L 0 *D AOI211XL
*I *504:C0 I *C 99.99 68.04 *L 0.00438 *D AOI211X1

*CAP
1 *541:Y 0.000139836
2 *504:C0 6.33038e-05
3 *293:2 0.000204062
4 *293:3 0.000134377
5 *293:4 0.000144583
6 *293:5 0.00021426
7 *293:6 0.0005983
8 *293:7 0.0005983
9 *293:6 *316:6 0.00019065
10 *293:7 *316:7 0.000190650003

*RES
1 *293:4 *504:C0 6.4000001
2 *293:5 *293:4 0.624023
3 *293:6 *293:5 3.2
4 *293:7 *293:6 3.30947
5 *293:2 *293:7 3.2
6 *293:3 *293:2 0.467969
7 *541:Y *293:3 3.2
*END

*D_NET *294 0.00101605

*CONN
*I *540:Y O *C 88.77 47.88 *L 0 *D INVX1
*I *519:B0 I *C 91.41 43.4 *L 0.00352 *D AOI211XL

*CAP
1 *540:Y 8.34312e-05
2 *519:B0 6.33007e-05
3 *294:2 8.06108e-05
4 *294:3 0.000120731
5 *294:4 8.279e-05
6 *294:5 0.000155181
7 *294:6 6.79898e-05
8 *294:7 0.00017361
9 *294:8 0.000188410098

*RES
1 *294:7 *519:B0 6.4000001
2 *294:7 *294:8 0.77998
3 *294:4 *294:8 0.183887
4 *294:4 *294:6 0.155957
5 *294:5 *294:6 3.2
6 *294:2 *294:5 0.223828
7 *294:2 *294:3 0.189941
8 *540:Y *294:3 0.447656
*END

*D_NET *295 0.00646715

*CONN
*I *563:Y O *C 105.27 52.92 *L 0 *D NOR2X1
*I *553:A I *C 102.63 73.64 *L 0.00346 *D INVX1
*I *551:A I *C 107.91 57.96 *L 0.00403 *D NAND2X1
*I *544:A I *C 103.29 77 *L 0.00477 *D NAND3X1
*I *539:B I *C 106.59 77.56 *L 0.00444 *D NAND3BX1
*I *536:A I *C 109.89 73.64 *L 0.00478 *D NAND4X1

*CAP
1 *563:Y 9.16738e-05
2 *553:A 0.000139839
3 *551:A 0.000139839
4 *544:A 3.72968e-05
5 *539:B 6.33e-05
6 *536:A 6.33e-05
7 *295:6 0.000184442
8 *295:7 0.00019114
9 *295:8 7.52987e-05
10 *295:9 0.000144981
11 *295:10 0.000124801
12 *295:11 0.000289439
13 *295:12 0.000302775
14 *295:13 0.000112292
15 *295:14 5.72338e-05
16 *295:15 0.000104207
17 *295:16 0.000104207
18 *295:17 0.000215964
19 *295:18 0.00048002
20 *295:19 0.000286145
21 *295:20 0.000214931
22 *295:21 0.000145248
23 *295:22 0.000741803
24 *295:23 0.00079669
25 *295:24 0.000127001
26 *295:25 9.02393e-05
27 *295:26 9.22087e-05
28 *295:27 0.000259667
29 *295:28 0.000259667
30 *295:29 0.000137201
31 *295:30 0.000192076
32 *295:31 7.06062e-05
33 *295:32 0.000131572

*RES
1 *563:Y *295:24 0.447656
2 *295:14 *295:24 6.4000001
3 *295:14 *295:13 0.155957
4 *295:13 *295:12 0.367676
5 *295:11 *551:A 3.2
6 *295:12 *295:11 0.936035
7 *295:11 *295:10 0.155957
8 *295:15 *295:10 3.2
9 *295:16 *295:15 0.367676
10 *295:23 *295:16 3.2
11 *295:7 *536:A 6.4000001
12 *295:23 *295:22 3.27598
13 *295:7 *295:6 0.624023
14 *295:27 *295:22 0.183887
15 *295:32 *295:6 3.2
16 *295:27 *295:28 1.24805
17 *295:8 *539:B 6.4000001
18 *295:31 *295:32 0.183887
19 *295:28 *295:29 0.183887
20 *295:9 *295:8 0.312012
21 *295:31 *295:17 0.155957
22 *295:29 *295:30 0.467969
23 *295:26 *544:A 0.189941
24 *295:18 *295:9 3.2
25 *295:18 *295:17 0.919238
26 *295:18 *295:30 3.2
27 *295:25 *295:26 0.223828
28 *295:19 *295:18 1.10312
29 *295:20 *295:25 3.2
30 *295:20 *295:19 3.2
31 *295:21 *295:20 0.77998
32 *553:A *295:21 3.2
*END

*D_NET *296 0.00411983

*CONN
*I *614:Y O *C 82.17 77 *L 0 *D AOI2BB1X1
*I *596:B I *C 84.81 77.56 *L 0.00444 *D NAND3BX1
*I *589:AN I *C 77.55 71.4 *L 0.0021 *D NAND2BX1
*I *538:C I *C 84.81 72.52 *L 0.00444 *D NAND3BX1
*I *533:C I *C 84.15 68.04 *L 0.004 *D OR4X2

*CAP
1 *614:Y 0.000139837
2 *596:B 6.32964e-05
3 *589:AN 0.000139837
4 *538:C 0.000139837
5 *533:C 0.000139837
6 *296:5 0.000220126
7 *296:6 0.000220126
8 *296:7 0.000266961
9 *296:8 0.000214085
10 *296:9 7.00128e-05
11 *296:10 0.00056071
12 *296:11 0.000491031
13 *296:12 0.000219142
14 *296:13 0.00016382
15 *296:14 0.000215728
16 *296:15 0.000142233
17 *296:16 0.00020683
18 *296:17 0.0001919
19 *296:7 *298:5 9.77e-05
20 *296:8 *298:3 9.77e-05
21 *296:8 *298:5 5.954e-05
22 *296:9 *298:3 5.95399949e-05

*RES
1 *296:13 *614:Y 3.2
2 *296:17 *596:B 6.4000001
3 *296:12 *296:13 0.624023
4 *296:16 *296:17 0.77998
5 *296:15 *538:C 3.2
6 *296:12 *296:14 0.367676
7 *296:14 *296:16 0.183887
8 *296:9 *533:C 3.2
9 *296:7 *296:15 0.183887
10 *296:7 *296:14 0.624023
11 *296:9 *296:8 0.467969
12 *296:8 *296:7 0.77998
13 *296:10 *296:8 3.2
14 *296:5 *589:AN 3.2
15 *296:11 *296:10 1.83857
16 *296:6 *296:5 0.467969
17 *296:6 *296:11 3.2
*END

*D_NET *297 0.00609244

*CONN
*I *560:Y O *C 95.37 52.92 *L 0 *D NOR2X1
*I *554:A I *C 90.75 73.64 *L 0.00346 *D INVX1
*I *550:A I *C 88.77 52.92 *L 0.00403 *D NAND2X1
*I *538:B I *C 85.47 73.64 *L 0.00444 *D NAND3BX1
*I *537:B I *C 88.77 73.64 *L 0.00444 *D NAND3BX1

*CAP
1 *560:Y 7.75195e-05
2 *554:A 6.33034e-05
3 *550:A 0.000139845
4 *538:B 6.33034e-05
5 *537:B 6.33034e-05
6 *297:5 0.000102446
7 *297:6 0.000117363
8 *297:7 0.000182728
9 *297:8 0.000113049
10 *297:9 0.000166153
11 *297:10 9.64744e-05
12 *297:11 0.000291038
13 *297:12 0.000238168
14 *297:13 0.000114367
15 *297:14 0.000131154
16 *297:15 0.000319683
17 *297:16 0.000317728
18 *297:17 0.00139261
19 *297:18 0.00139261
20 *297:19 0.000109054
21 *297:20 0.0001571
22 *297:21 0.000142225
23 *297:22 0.000120593
24 *297:23 6.58533e-05
25 *297:24 0.000114813

*RES
1 *297:24 *560:Y 0.447656
2 *297:15 *297:24 0.189941
3 *297:16 *297:15 1.5668
4 *297:21 *550:A 3.2
5 *297:20 *297:16 3.2
6 *297:23 *554:A 6.4000001
7 *297:21 *297:19 0.183887
8 *297:20 *297:19 0.312012
9 *297:6 *297:23 0.183887
10 *297:22 *297:19 3.2
11 *297:6 *297:5 0.312012
12 *297:18 *297:22 3.2
13 *297:8 *537:B 6.4000001
14 *297:14 *297:5 3.2
15 *297:18 *297:17 6.08398
16 *297:8 *297:7 0.312012
17 *297:13 *297:14 0.183887
18 *297:13 *297:17 3.2
19 *297:11 *297:7 3.2
20 *297:11 *297:13 0.183887
21 *297:12 *297:11 0.919238
22 *297:9 *297:12 3.2
23 *297:10 *297:9 0.312012
24 *538:B *297:10 6.4000001
*END

*D_NET *298 0.00157152

*CONN
*I *590:Y O *C 80.85 72.52 *L 0 *D NAND2X1
*I *538:AN I *C 84.15 73.64 *L 0.0024 *D NAND3BX1
*I *533:B I *C 83.49 66.36 *L 0.00412 *D OR4X2

*CAP
1 *590:Y 0.000120508
2 *538:AN 3.9861e-05
3 *533:B 0.000139839
4 *298:3 0.00039112
5 *298:4 0.000244269
6 *298:5 0.000321442
7 *298:5 *296:7 9.77e-05
8 *298:3 *296:8 9.77e-05
9 *298:5 *296:8 5.954e-05
10 *298:3 *296:9 5.95399949e-05

*RES
1 *298:3 *533:B 3.20000005
2 *298:3 *298:5 2.02798
3 *298:4 *298:5 3.20000005
4 *298:4 *538:AN 0.223828
5 *590:Y *298:4 0.671484
*END

*D_NET *299 0.0037902

*CONN
*I *608:Y O *C 105.93 82.6 *L 0 *D AOI22X1
*I *542:A1 I *C 103.95 73.64 *L 0.00443 *D AOI21X1
*I *539:C I *C 105.93 78.68 *L 0.00444 *D NAND3BX1
*I *536:C I *C 109.23 73.64 *L 0.00463 *D NAND4X1
*I *526:A1 I *C 99.99 73.08 *L 0.00487 *D OAI33X1

*CAP
1 *608:Y 6.33042e-05
2 *542:A1 0.000139844
3 *539:C 0.000139844
4 *536:C 0.000139844
5 *526:A1 6.33042e-05
6 *299:5 0.000182113
7 *299:6 0.000112435
8 *299:7 0.000144217
9 *299:8 0.000199993
10 *299:9 0.000161745
11 *299:10 0.00059089
12 *299:11 0.000266534
13 *299:12 0.000171519
14 *299:13 0.000108539
15 *299:14 0.000231379
16 *299:15 0.000191121
17 *299:16 0.000280311
18 *299:17 0.000265506
19 *299:18 0.000337763

*RES
1 *299:17 *608:Y 6.4000001
2 *299:16 *539:C 3.2
3 *299:16 *299:17 1.09199
4 *299:15 *299:16 0.183887
5 *299:6 *536:C 3.2
6 *299:14 *299:15 0.77998
7 *299:6 *299:5 0.312012
8 *299:9 *542:A1 3.2
9 *299:7 *299:14 0.367676
10 *299:18 *299:5 3.2
11 *299:9 *299:8 0.312012
12 *299:8 *299:7 0.312012
13 *299:10 *299:18 1.4709
14 *299:10 *299:8 3.2
15 *299:11 *299:10 1.10312
16 *299:12 *299:11 3.2
17 *299:13 *299:12 0.467969
18 *526:A1 *299:13 6.4000001
*END

*D_NET *300 0.00223937

*CONN
*I *536:Y O *C 111.21 74.76 *L 0 *D NAND4X1
*I *518:B0 I *C 103.95 68.6 *L 0.00302 *D OAI21XL

*CAP
1 *536:Y 0.000139838
2 *518:B0 7.97352e-05
3 *300:2 0.00057284
4 *300:3 0.00057284
5 *300:4 0.000178543
6 *300:5 0.000178543
7 *300:6 0.000191602
8 *300:7 0.000197555
9 *300:8 0.000127881

*RES
1 *300:8 *536:Y 3.20000005
2 *300:7 *300:8 0.624023
3 *300:2 *300:7 3.20000005
4 *300:3 *300:2 2.39014
5 *300:4 *300:3 3.20000005
6 *300:5 *300:4 0.468018
7 *300:6 *518:B0 0.447656
8 *300:6 *300:5 3.20000005
*END

*D_NET *301 0.00360782

*CONN
*I *601:Y O *C 113.85 64.12 *L 0 *D AOI21X1
*I *593:B I *C 105.27 57.4 *L 0.00391 *D NAND2BX1
*I *534:B I *C 106.59 63 *L 0.00465 *D NAND4X1
*I *529:AN I *C 108.57 63.56 *L 0.0024 *D NAND3BX1

*CAP
1 *601:Y 3.7299e-05
2 *593:B 6.33023e-05
3 *534:B 6.33023e-05
4 *529:AN 3.98622e-05
5 *301:4 0.000349259
6 *301:5 0.000287972
7 *301:6 0.000262667
8 *301:7 0.000262667
9 *301:8 0.000112392
10 *301:9 0.000116873
11 *301:10 0.000216661
12 *301:11 6.93921e-05
13 *301:12 8.4188e-05
14 *301:13 0.000172212
15 *301:14 7.51903e-05
16 *301:15 7.24238e-05
17 *301:16 0.00057924
18 *301:17 9.02425e-05
19 *301:18 5.09194e-05
20 *301:19 0.000509556
21 *301:20 9.22046e-05

*RES
1 *601:Y *301:20 0.189941
2 *301:17 *301:20 0.223828
3 *301:18 *301:17 6.4000001
4 *301:19 *301:18 6.4000001
5 *301:16 *301:19 1.28701
6 *301:15 *301:16 3.2
7 *301:14 *529:AN 0.223828
8 *301:8 *301:15 0.183887
9 *301:4 *301:14 3.2
10 *301:4 *301:8 0.312012
11 *301:5 *301:4 0.77998
12 *301:13 *301:5 0.367676
13 *301:9 *534:B 6.4000001
14 *301:13 *301:10 0.312012
15 *301:10 *301:9 0.312012
16 *301:6 *301:10 0.183887
17 *301:7 *301:6 0.936035
18 *301:12 *301:7 0.183887
19 *301:11 *301:12 0.312012
20 *593:B *301:11 6.4000001
*END

*D_NET *302 0.00200112

*CONN
*I *533:Y O *C 86.13 66.36 *L 0 *D OR4X2
*I *510:C I *C 92.07 63.56 *L 0.00463 *D NAND4X1

*CAP
1 *533:Y 0.000139843
2 *510:C 0.000139843
3 *302:2 0.000236731
4 *302:3 0.000236731
5 *302:4 0.00040888
6 *302:5 0.00040888
7 *302:6 0.000120602
8 *302:4 *335:6 0.00015481
9 *302:5 *335:7 0.000154810003

*RES
1 *302:3 *510:C 3.20000005
2 *302:3 *302:2 0.935986
3 *302:4 *302:2 3.20000005
4 *302:5 *302:4 1.65474
5 *302:6 *302:5 3.20000005
6 *533:Y *302:6 3.20000005
*END

*D_NET *303 0.00647468

*CONN
*I *557:Y O *C 109.89 52.92 *L 0 *D NOR2X1
*I *547:A I *C 101.31 53.48 *L 0.00346 *D INVX1
*I *534:A I *C 105.93 63.56 *L 0.00478 *D NAND4X1
*I *532:B I *C 99.99 63.56 *L 0.00339 *D NAND4BXL
*I *529:B I *C 109.89 63.56 *L 0.00444 *D NAND3BX1

*CAP
1 *557:Y 3.87665e-05
2 *547:A 6.33065e-05
3 *534:A 6.33065e-05
4 *532:B 0.00013984
5 *529:B 6.33065e-05
6 *303:5 7.20473e-05
7 *303:6 0.000170853
8 *303:7 0.000109656
9 *303:8 0.000418764
10 *303:9 0.000493335
11 *303:10 0.000140133
12 *303:11 7.04503e-05
13 *303:12 0.000128783
14 *303:13 5.91007e-05
15 *303:14 0.000138987
16 *303:15 7.60092e-05
17 *303:16 0.000155152
18 *303:17 0.000254226
19 *303:18 0.000315289
20 *303:19 0.000248374
21 *303:20 0.00079892
22 *303:21 0.00079892
23 *303:22 0.000220604
24 *303:23 0.000220604
25 *303:24 6.57203e-05
26 *303:25 0.000142107
27 *303:26 7.6058e-05
28 *303:16 *101:26 0.00015545
29 *303:17 *101:27 0.00015545
30 *303:17 *101:26 6.308e-05
31 *303:18 *101:27 6.308e-05
32 *303:18 *101:26 0.00024751
33 *303:19 *101:27 0.000247509988

*RES
1 *303:26 *557:Y 0.223828
2 *303:8 *303:26 0.189941
3 *303:9 *303:8 2.23828
4 *303:25 *303:9 3.2
5 *303:24 *547:A 6.4000001
6 *303:7 *303:25 0.183887
7 *303:24 *303:5 0.183887
8 *303:7 *303:6 0.312012
9 *303:6 *303:5 0.155957
10 *303:11 *529:B 6.4000001
11 *303:23 *303:6 3.2
12 *303:15 *534:A 6.4000001
13 *303:11 *303:10 0.155957
14 *303:23 *303:22 0.919238
15 *303:15 *303:14 0.155957
16 *303:16 *303:10 3.2
17 *303:21 *303:22 3.2
18 *303:17 *303:14 3.2
19 *303:17 *303:16 0.919238
20 *303:21 *303:20 3.12002
21 *303:18 *303:17 0.367676
22 *303:18 *303:20 3.2
23 *303:19 *303:18 1.4709
24 *303:12 *303:19 3.2
25 *303:13 *303:12 0.155957
26 *532:B *303:13 3.2
*END

*D_NET *304 0.00225853

*CONN
*I *593:Y O *C 105.93 56.84 *L 0 *D NAND2BX1
*I *532:AN I *C 101.97 63 *L 0.00234 *D NAND4BXL
*I *524:A0 I *C 101.97 57.4 *L 0.00341 *D AOI211XL

*CAP
1 *593:Y 0.000139842
2 *532:AN 0.000139842
3 *524:A0 0.000139842
4 *304:3 0.000487528594
5 *304:4 0.000417853
6 *304:5 0.000374728
7 *304:6 0.000374728
8 *304:7 5.72373e-05
9 *304:8 0.00012692

*RES
1 *304:8 *593:Y 3.20000005
2 *304:8 *304:7 0.156006
3 *304:5 *304:7 3.20000005
4 *304:3 *532:AN 3.20000005
5 *304:6 *304:5 1.10312
6 *304:4 *304:3 1.56001
7 *304:4 *304:6 3.20000005
8 *524:A0 *304:4 3.20000005
*END

*D_NET *305 0.00166058

*CONN
*I *532:Y O *C 99.33 61.88 *L 0 *D NAND4BXL
*I *510:D I *C 91.41 63.56 *L 0.00447 *D NAND4X1

*CAP
1 *532:Y 0.000139843
2 *510:D 0.000139843
3 *305:2 7.62579e-05
4 *305:3 0.000145941
5 *305:4 0.00044653
6 *305:5 0.000376854
7 *305:6 0.000120601
8 *305:4 *263:4 0.00010736
9 *305:5 *263:5 0.00010736

*RES
1 *305:6 *532:Y 3.20000005
2 *305:4 *305:6 3.20000005
3 *305:2 *510:D 3.20000005
4 *305:5 *305:4 2.2063
5 *305:3 *305:2 0.312012
6 *305:3 *305:5 3.20000005
*END

*D_NET *306 0.00256102

*CONN
*I *543:Y O *C 90.09 56.28 *L 0 *D NAND3X1
*I *531:A I *C 89.43 63.56 *L 0.00346 *D INVX1
*I *523:B0 I *C 99.33 58.52 *L 0.00472 *D OAI32X1

*CAP
1 *543:Y 6.33025e-05
2 *531:A 6.33025e-05
3 *523:B0 6.33025e-05
4 *306:3 0.000333479
5 *306:4 0.000325254
6 *306:5 0.00054665
7 *306:6 0.000476975
8 *306:7 6.58466e-05
9 *306:8 0.000120599
10 *306:5 *321:2 0.00025116
11 *306:6 *321:3 0.000251159997

*RES
1 *306:8 *523:B0 6.4000001
2 *306:5 *306:8 3.2
3 *306:6 *306:5 2.57402
4 *306:4 *306:6 6.4000001
5 *306:4 *543:Y 6.4000001
6 *306:4 *306:3 1.404
7 *306:7 *306:3 0.183887
8 *531:A *306:7 6.4000001
*END

*D_NET *307 0.000974739

*CONN
*I *531:Y O *C 90.09 63 *L 0 *D INVX1
*I *511:A0 I *C 87.45 66.92 *L 0.00483 *D AOI211X1

*CAP
1 *531:Y 6.32998e-05
2 *511:A0 0.000139842
3 *307:2 0.000223018
4 *307:3 0.00020097
5 *307:4 0.00028176
6 *307:5 6.58493e-05

*RES
1 *307:5 *531:Y 6.4000001
2 *307:3 *307:5 0.183887
3 *307:3 *307:4 0.77998
4 *307:2 *307:4 0.551562
5 *511:A0 *307:2 3.2
*END

*D_NET *308 0.00167484

*CONN
*I *544:Y O *C 103.95 76.44 *L 0 *D NAND3X1
*I *528:B I *C 97.35 78.12 *L 0.00302 *D NOR2BXL
*I *521:A0 I *C 99.33 77 *L 0.00465 *D AOI21X1

*CAP
1 *544:Y 6.32986e-05
2 *528:B 0.000139841
3 *521:A0 6.32986e-05
4 *308:3 0.00040558
5 *308:4 0.00040558
6 *308:5 0.00014223
7 *308:6 0.000130929
8 *308:7 9.05415e-05
9 *308:8 0.000112939
10 *308:9 0.0001206

*RES
1 *308:9 *544:Y 6.4000001
2 *308:3 *308:9 3.2
3 *308:4 *308:3 1.28701
4 *308:8 *521:A0 6.4000001
5 *308:8 *308:4 3.2
6 *308:6 *308:8 0.367676
7 *308:6 *308:7 0.312012
8 *308:5 *308:7 0.183887
9 *528:B *308:5 3.2
*END

*D_NET *309 0.00187594

*CONN
*I *709:Y O *C 97.35 82.04 *L 0 *D OAI22X1
*I *528:AN I *C 96.03 77.56 *L 0.0022 *D NOR2BXL
*I *517:C0 I *C 94.05 78.68 *L 0.00387 *D OAI222XL

*CAP
1 *709:Y 0.000206002
2 *528:AN 0.000139839
3 *517:C0 0.000139839
4 *309:3 0.000196212
5 *309:4 0.000283829
6 *309:5 0.000156721
7 *309:6 0.000241328
8 *309:7 0.000208219
9 *309:8 0.000303938691

*RES
1 *309:7 *528:AN 3.20000005
2 *309:6 *709:Y 1.11914
3 *309:7 *309:8 0.624023
4 *309:3 *309:6 3.20000005
5 *309:4 *309:8 0.551562
6 *309:4 *309:3 0.624023
7 *309:5 *309:4 0.312012
8 *517:C0 *309:5 3.20000005
*END

*D_NET *310 0.00169166

*CONN
*I *528:Y O *C 97.35 77 *L 0 *D NOR2BXL
*I *512:D I *C 92.73 73.08 *L 0.00469 *D NOR4X1

*CAP
1 *528:Y 0.00013984
2 *512:D 0.00013984
3 *310:2 0.000342941
4 *310:3 0.000273257
5 *310:4 0.00037243
6 *310:5 0.000302746
7 *310:6 0.000120603

*RES
1 *310:6 *528:Y 3.20000005
2 *310:4 *310:6 3.20000005
3 *310:5 *310:4 1.28701
4 *310:2 *310:5 3.20000005
5 *310:3 *310:2 1.09199
6 *512:D *310:3 3.20000005
*END

*D_NET *311 0.00433432

*CONN
*I *554:Y O *C 91.41 73.08 *L 0 *D INVX1
*I *533:A I *C 82.83 67.48 *L 0.00429 *D OR4X2
*I *527:B0 I *C 80.19 67.48 *L 0.00352 *D AOI211XL
*I *526:B0 I *C 98.01 72.52 *L 0.00507 *D OAI33X1

*CAP
1 *554:Y 0.000139835
2 *533:A 7.97278e-05
3 *527:B0 6.32979e-05
4 *526:B0 6.32979e-05
5 *311:4 0.000325678
6 *311:5 0.000325678
7 *311:6 0.000100537
8 *311:7 0.000217311
9 *311:8 0.000405519
10 *311:9 0.00074155
11 *311:10 0.000112938
12 *311:11 0.000115054
13 *311:12 0.000142234
14 *311:13 0.000488788
15 *311:14 0.000120599
16 *311:15 0.000120599
17 *311:8 *312:13 5.1e-05
18 *311:9 *312:14 5.1e-05
19 *311:8 *312:15 2.527e-05
20 *311:9 *312:16 2.527e-05
21 *311:9 *312:17 6.162e-05
22 *311:13 *312:18 6.162e-05
23 *311:9 *312:10 0.00024794
24 *311:13 *312:11 0.000247939994

*RES
1 *311:15 *526:B0 6.4000001
2 *311:8 *311:15 3.2
3 *311:14 *554:Y 3.2
4 *311:9 *311:8 1.83857
5 *311:9 *311:14 3.2
6 *311:13 *311:9 2.39014
7 *311:12 *311:13 3.2
8 *311:4 *311:12 0.183887
9 *311:5 *311:4 1.09199
10 *311:11 *533:A 0.447656
11 *311:6 *311:5 0.183887
12 *311:7 *311:11 3.2
13 *311:7 *311:6 0.312012
14 *311:10 *311:7 0.367676
15 *527:B0 *311:10 6.4000001
*END

*D_NET *312 0.00605385

*CONN
*I *604:Y O *C 75.57 78.68 *L 0 *D AOI22X1
*I *590:A I *C 80.85 73.08 *L 0.00403 *D NAND2X1
*I *537:C I *C 88.11 72.52 *L 0.00444 *D NAND3BX1
*I *527:A1 I *C 78.21 67.48 *L 0.00342 *D AOI211XL
*I *526:B1 I *C 97.35 73.08 *L 0.00488 *D OAI33X1

*CAP
1 *604:Y 0.000139841
2 *590:A 0.000139841
3 *537:C 0.000139841
4 *527:A1 0.000119536
5 *526:B1 0.000139841
6 *312:5 0.000353661
7 *312:6 0.000534
8 *312:7 9.52457e-05
9 *312:8 0.00014095
10 *312:9 0.000128784
11 *312:10 0.000299011
12 *312:11 0.000307819
13 *312:12 0.000289844
14 *312:13 0.000224608
15 *312:14 0.000224608
16 *312:15 0.000153522
17 *312:16 9.26464e-05
18 *312:17 0.000140721
19 *312:18 0.000201589
20 *312:19 0.0001167
21 *312:20 0.000350956
22 *312:21 0.000224315
23 *312:22 0.000154867
24 *312:23 0.00018262
25 *312:24 6.78103e-05
26 *312:25 0.000137487
27 *312:26 0.000125598
28 *312:27 5.59219e-05
29 *312:13 *311:8 5.1e-05
30 *312:14 *311:9 5.1e-05
31 *312:15 *311:8 2.527e-05
32 *312:16 *311:9 2.527e-05
33 *312:17 *311:9 6.162e-05
34 *312:18 *311:13 6.162e-05
35 *312:10 *311:9 0.00024794
36 *312:11 *311:13 0.000247939994

*RES
1 *312:26 *526:B1 3.20000005
2 *312:26 *312:27 0.156006
3 *312:15 *312:27 3.20000005
4 *312:16 *312:15 0.367725
5 *312:16 *312:13 0.156006
6 *312:14 *312:13 1.28701
7 *312:17 *312:14 0.156006
8 *312:18 *312:17 0.919287
9 *312:7 *312:18 3.20000005
10 *312:8 *537:C 3.20000005
11 *312:8 *312:7 0.312012
12 *312:9 *312:8 0.156006
13 *312:10 *312:9 3.20000005
14 *312:25 *590:A 3.20000005
15 *312:11 *312:10 1.65474
16 *312:24 *312:25 0.156006
17 *312:11 *312:19 0.156006
18 *312:20 *312:24 3.20000005
19 *312:20 *312:19 0.367725
20 *312:21 *312:20 0.919287
21 *312:23 *312:21 3.20000005
22 *312:5 *604:Y 3.20000005
23 *312:6 *312:23 0.367725
24 *312:6 *312:5 1.248
25 *312:12 *312:6 1.248
26 *312:22 *527:A1 0.671484
27 *312:22 *312:12 3.20000005
*END

*D_NET *313 0.00296915

*CONN
*I *527:Y O *C 80.85 68.6 *L 0 *D AOI211XL
*I *513:D I *C 97.35 68.6 *L 0.00407 *D OR4X2

*CAP
1 *527:Y 0.000139843
2 *513:D 0.000139843
3 *313:2 0.000272364
4 *313:3 0.000264046
5 *313:4 0.000120595
6 *313:5 0.000177568
7 *313:6 9.95697e-05
8 *313:7 0.00070157
9 *313:8 0.00070157
10 *313:9 0.000120595
11 *313:8 *100:34 0.00011579
12 *313:7 *100:35 0.000115790003

*RES
1 *313:9 *513:D 3.2
2 *313:2 *313:9 3.2
3 *313:3 *313:2 0.919263
4 *313:3 *313:8 0.0780192
5 *313:7 *313:8 3.30942845
6 *313:6 *313:7 0.0780192
7 *313:5 *313:6 0.367725
8 *313:4 *313:5 3.2
9 *527:Y *313:4 3.2
*END

*D_NET *314 0.00126425

*CONN
*I *526:Y O *C 98.67 71.96 *L 0 *D OAI33X1
*I *512:B I *C 94.05 72.52 *L 0.00501 *D NOR4X1

*CAP
1 *526:Y 4.12116e-05
2 *512:B 7.45899e-05
3 *314:2 0.00024248
4 *314:3 0.00027976
5 *314:4 0.000182622
6 *314:5 9.02395e-05
7 *314:6 0.000182622
8 *314:7 9.22117e-05
9 *314:8 7.85087e-05

*RES
1 *314:8 *526:Y 0.223828
2 *314:7 *314:8 0.189893
3 *314:5 *314:7 0.223828
4 *314:6 *314:5 3.20000005
5 *314:4 *314:6 0.367725
6 *314:3 *314:4 3.20000005
7 *314:2 *512:B 0.379834
8 *314:2 *314:3 0.671484
*END

*D_NET *315 0.00269759

*CONN
*I *529:Y O *C 109.89 61.88 *L 0 *D NAND3BX1
*I *525:A I *C 103.29 63.56 *L 0.00346 *D INVX1
*I *520:A0 I *C 107.25 66.92 *L 0.00465 *D AOI21X1

*CAP
1 *529:Y 0.000139843
2 *525:A 0.000139843
3 *520:A0 0.000139843
4 *315:3 0.000415337
5 *315:4 0.000415337
6 *315:5 8.075e-05
7 *315:6 0.000150432
8 *315:7 0.000288218
9 *315:8 0.00043073
10 *315:9 0.000202131
11 *315:10 8.29123e-05
12 *315:11 9.16078e-05
13 *315:12 0.000120599

*RES
1 *315:3 *520:A0 3.20000005
2 *315:12 *529:Y 3.20000005
3 *315:4 *315:3 1.404
4 *315:7 *315:12 3.20000005
5 *315:8 *315:4 3.20000005
6 *315:8 *315:7 1.10312
7 *315:9 *315:8 0.919287
8 *315:9 *315:11 0.156006
9 *315:5 *525:A 3.20000005
10 *315:10 *315:11 0.183838
11 *315:6 *315:5 0.312012
12 *315:6 *315:10 3.20000005
*END

*D_NET *316 0.00205528

*CONN
*I *525:Y O *C 103.95 63 *L 0 *D INVX1
*I *516:B0 I *C 96.03 63 *L 0.00433 *D AOI22X1

*CAP
1 *525:Y 0.000139842
2 *516:B0 0.000139842
3 *316:2 0.000202201
4 *316:3 0.00013252
5 *316:4 0.000144414
6 *316:5 7.47271e-05
7 *316:6 0.00042022
8 *316:7 0.00042022
9 *316:6 *293:6 0.00019065
10 *316:7 *293:7 0.000190650003

*RES
1 *316:5 *525:Y 3.20000005
2 *316:5 *316:4 0.312012
3 *316:6 *316:4 3.20000005
4 *316:7 *316:6 2.2063
5 *316:2 *316:7 3.20000005
6 *316:3 *316:2 0.624023
7 *516:B0 *316:3 3.20000005
*END

*D_NET *317 0.00328529

*CONN
*I *547:Y O *C 101.97 52.92 *L 0 *D INVX1
*I *535:A I *C 103.29 47.32 *L 0.0043 *D NOR2X1
*I *524:B0 I *C 103.29 57.4 *L 0.00352 *D AOI211XL
*I *523:A0 I *C 98.01 58.52 *L 0.005 *D OAI32X1

*CAP
1 *547:Y 0.000221327
2 *535:A 6.33013e-05
3 *524:B0 6.33013e-05
4 *523:A0 0.00013984
5 *317:4 0.000398819
6 *317:5 0.000398819
7 *317:6 7.25506e-05
8 *317:7 0.000253642
9 *317:8 0.000142233
10 *317:9 0.000394005
11 *317:10 0.00011686
12 *317:11 0.000156534
13 *317:12 0.00062233
14 *317:13 0.000241724

*RES
1 *317:9 *535:A 6.4000001
2 *317:13 *524:B0 6.4000001
3 *317:9 *317:12 1.87197
4 *317:12 *317:13 0.936035
5 *317:11 *317:12 3.2
6 *317:10 *317:11 0.189941
7 *547:Y *317:10 0.447656
8 *317:7 *547:Y 0.895312
9 *317:8 *317:7 3.2
10 *317:5 *317:8 0.183887
11 *317:5 *317:4 1.71602
12 *317:6 *317:4 0.183887
13 *523:A0 *317:6 3.2
*END

*D_NET *318 0.00601904

*CONN
*I *609:Y O *C 113.19 58.52 *L 0 *D AOI22X1
*I *534:C I *C 105.27 63.56 *L 0.00463 *D NAND4X1
*I *532:C I *C 99.33 62.44 *L 0.00326 *D NAND4BXL
*I *529:C I *C 109.23 62.44 *L 0.00444 *D NAND3BX1
*I *524:A1 I *C 101.31 57.4 *L 0.00342 *D AOI211XL
*I *523:A1 I *C 97.35 57.96 *L 0.0049 *D OAI32X1

*CAP
1 *609:Y 6.32995e-05
2 *534:C 6.32995e-05
3 *532:C 3.98601e-05
4 *529:C 0.000139839
5 *524:A1 0.000139839
6 *523:A1 0.000111888
7 *318:6 0.000210553
8 *318:7 0.000265396
9 *318:8 0.0002098
10 *318:9 0.0002098
11 *318:10 0.000242602
12 *318:11 0.000181623
13 *318:12 0.00010226
14 *318:13 0.000163238
15 *318:14 0.000175272
16 *318:15 0.000311279
17 *318:16 0.00037095
18 *318:17 0.00022064
19 *318:18 0.000198876
20 *318:19 8.32692e-05
21 *318:20 5.72486e-05
22 *318:21 0.000126933
23 *318:22 0.000222349
24 *318:23 0.000145788
25 *318:24 0.000121539
26 *318:25 0.00026277
27 *318:26 7.51862e-05
28 *318:27 0.000140654
29 *318:28 0.000181114
30 *318:29 0.000120599
31 *318:30 0.00014641
32 *318:28 *101:26 0.00015423
33 *318:16 *101:27 0.00015423
34 *318:16 *101:26 0.00015233
35 *318:17 *101:27 0.00015233
36 *318:30 *101:26 4.898e-05
37 *318:18 *101:27 4.898e-05
38 *318:18 *101:26 1.263e-05
39 *318:19 *101:27 1.263e-05
40 *318:12 *101:26 2.163e-05
41 *318:13 *101:27 2.163e-05
42 *318:27 *101:18 5.954e-05
43 *318:25 *101:19 5.954e-05
44 *318:25 *101:8 8.09e-06
45 *318:24 *101:9 8.08999065e-06

*RES
1 *318:9 *609:Y 6.4000001
2 *318:9 *318:8 0.936035
3 *318:10 *318:8 3.2
4 *318:11 *318:10 0.551562
5 *318:29 *529:C 3.2
6 *318:11 *318:30 0.155957
7 *318:18 *318:29 3.2
8 *318:18 *318:30 0.735449
9 *318:20 *534:C 6.4000001
10 *318:19 *318:18 0.183887
11 *318:21 *318:20 0.155957
12 *318:19 *318:28 0.155957
13 *318:16 *318:21 3.2
14 *318:16 *318:28 0.919238
15 *318:17 *318:16 0.919238
16 *318:12 *318:17 0.155957
17 *318:7 *524:A1 3.2
18 *318:13 *318:12 0.367676
19 *318:26 *532:C 0.223828
20 *318:7 *318:6 0.624023
21 *318:14 *318:13 3.2
22 *318:27 *318:26 6.4000001
23 *318:15 *318:6 0.183887
24 *318:15 *318:14 0.624023
25 *318:25 *318:27 0.624023
26 *318:25 *318:15 0.551562
27 *318:24 *318:25 0.155957
28 *318:23 *318:24 3.2
29 *318:22 *318:23 0.447656
30 *523:A1 *318:22 0.569727
*END

*D_NET *319 0.00360957

*CONN
*I *524:Y O *C 103.95 58.52 *L 0 *D AOI211XL
*I *513:C I *C 96.03 68.04 *L 0.004 *D OR4X2

*CAP
1 *524:Y 0.000139836
2 *513:C 3.72934e-05
3 *319:2 0.000129609
4 *319:3 5.9928e-05
5 *319:4 0.000325472
6 *319:5 0.000395165
7 *319:6 0.00075643
8 *319:7 0.000686749
9 *319:8 0.000156526
10 *319:9 0.000120595
11 *319:10 0.000120595
12 *319:4 *340:4 0.00021955
13 *319:5 *340:5 0.000219550002
14 *319:4 *328:6 6.317e-05
15 *319:5 *328:4 6.317e-05
16 *319:4 *328:4 5.795e-05
17 *319:5 *328:5 5.79499944e-05

*RES
1 *319:9 *524:Y 3.20000005
2 *319:10 *319:9 3.20000005
3 *319:7 *319:10 3.20000005
4 *319:7 *319:6 2.96401
5 *319:4 *319:6 3.20000005
6 *319:5 *319:4 2.2063
7 *319:2 *319:5 3.20000005
8 *319:3 *319:2 0.156006
9 *319:8 *319:3 3.20000005
10 *513:C *319:8 0.189893
*END

*D_NET *320 0.00444254

*CONN
*I *711:Y O *C 84.81 52.36 *L 0 *D AOI22X1
*I *523:B1 I *C 99.99 57.96 *L 0.00462 *D OAI32X1
*I *508:A1 I *C 92.73 57.96 *L 0.00472 *D AOI211X1

*CAP
1 *711:Y 8.34342e-05
2 *523:B1 0.000139847
3 *508:A1 0.000139847
4 *320:3 0.000362736
5 *320:4 0.000362736
6 *320:5 0.0009893
7 *320:6 0.000476603
8 *320:7 0.000665451
9 *320:8 0.000297915
10 *320:9 0.000367597
11 *320:10 0.000195294
12 *320:11 0.0001206
13 *320:12 0.0001206
14 *320:13 0.0001206

*RES
1 *320:12 *508:A1 3.20000005
2 *320:13 *320:12 3.20000005
3 *320:3 *523:B1 3.20000005
4 *320:8 *320:13 3.20000005
5 *320:4 *320:3 1.248
6 *320:9 *320:8 1.248
7 *320:7 *320:4 3.20000005
8 *320:5 *320:9 3.20000005
9 *320:5 *320:7 2.02241
10 *320:6 *320:5 1.65474
11 *320:11 *320:6 3.20000005
12 *320:10 *320:11 3.20000005
13 *711:Y *320:10 0.447656
*END

*D_NET *321 0.00175402

*CONN
*I *523:Y O *C 98.67 59.08 *L 0 *D OAI32X1
*I *508:C0 I *C 94.05 57.96 *L 0.00438 *D AOI211X1

*CAP
1 *523:Y 0.000139841
2 *508:C0 0.000139841
3 *321:2 0.00036541
4 *321:3 0.00036541
5 *321:4 0.000120599
6 *321:5 0.000120599
7 *321:2 *306:5 0.00025116
8 *321:3 *306:6 0.000251159997

*RES
1 *321:5 *523:Y 3.20000005
2 *321:2 *321:5 3.20000005
3 *321:3 *321:2 1.83857
4 *321:4 *321:3 3.20000005
5 *508:C0 *321:4 3.20000005
*END

*D_NET *322 0.00184465

*CONN
*I *538:Y O *C 85.47 71.96 *L 0 *D NAND3BX1
*I *522:A1 I *C 87.45 77.56 *L 0.00443 *D AOI21X1
*I *517:B0 I *C 90.75 77.56 *L 0.00353 *D OAI222XL

*CAP
1 *538:Y 0.00013984
2 *522:A1 3.98586e-05
3 *517:B0 6.32973e-05
4 *322:3 0.00038459
5 *322:4 0.00038459
6 *322:5 0.000353182
7 *322:6 0.0002835
8 *322:7 7.51868e-05
9 *322:8 0.000120603

*RES
1 *322:8 *517:B0 6.4000001
2 *322:5 *322:8 3.2
3 *322:7 *522:A1 0.223828
4 *322:6 *322:5 1.10312
5 *322:3 *322:7 3.2
6 *322:3 *322:6 3.2
7 *322:4 *322:3 1.404
8 *538:Y *322:4 3.2
*END

*D_NET *323 0.00177411

*CONN
*I *537:Y O *C 88.77 71.96 *L 0 *D NAND3BX1
*I *522:A0 I *C 88.11 77 *L 0.00465 *D AOI21X1
*I *517:A0 I *C 91.41 78.68 *L 0.00365 *D OAI222XL

*CAP
1 *537:Y 4.12077e-05
2 *522:A0 0.00013984
3 *517:A0 6.33023e-05
4 *323:3 0.000249628
5 *323:4 0.000264559
6 *323:5 0.000126931
7 *323:6 0.000126931
8 *323:7 0.00030966
9 *323:8 0.00030966
10 *323:9 7.6542e-05
11 *323:10 6.58491e-05

*RES
1 *537:Y *323:9 0.223828
2 *323:10 *323:9 6.4000001
3 *323:10 *323:4 0.183887
4 *323:3 *517:A0 6.4000001
5 *323:4 *323:3 1.24805
6 *323:7 *323:3 3.2
7 *323:8 *323:7 0.919238
8 *323:5 *323:8 3.2
9 *323:6 *323:5 0.155957
10 *522:A0 *323:6 3.2
*END

*D_NET *324 0.00133399

*CONN
*I *522:Y O *C 88.77 77 *L 0 *D AOI21X1
*I *511:C0 I *C 88.11 68.04 *L 0.00438 *D AOI211X1

*CAP
1 *522:Y 6.33034e-05
2 *511:C0 6.33034e-05
3 *324:2 0.000149102
4 *324:3 0.000204422
5 *324:4 0.00045459
6 *324:5 0.000399271

*RES
1 *324:5 *522:Y 6.4000001
2 *324:4 *324:5 1.71602
3 *324:3 *324:4 0.367676
4 *324:2 *324:3 0.77998
5 *511:C0 *324:2 6.4000001
*END

*D_NET *325 0.00277294

*CONN
*I *539:Y O *C 106.59 79.24 *L 0 *D NAND3BX1
*I *521:A1 I *C 98.67 77.56 *L 0.00443 *D AOI21X1
*I *517:C1 I *C 93.39 78.12 *L 0.00343 *D OAI222XL

*CAP
1 *539:Y 0.000139842
2 *521:A1 6.33033e-05
3 *517:C1 0.000139842
4 *325:3 0.00062179
5 *325:4 0.000412648
6 *325:5 0.000335075
7 *325:6 0.000327893
8 *325:7 0.000370749
9 *325:8 0.000120601
10 *325:9 0.000120601
11 *325:10 0.000120601

*RES
1 *325:10 *539:Y 3.2
2 *325:6 *325:10 3.2
3 *325:7 *325:6 1.28701
4 *325:9 *521:A1 6.4000001
5 *325:5 *325:7 0.312012
6 *325:3 *325:9 3.2
7 *325:3 *325:5 1.28701
8 *325:4 *325:3 1.4709
9 *325:8 *325:4 3.2
10 *517:C1 *325:8 3.2
*END

*D_NET *326 0.00276601

*CONN
*I *521:Y O *C 99.99 77 *L 0 *D AOI21X1
*I *513:A I *C 94.71 67.48 *L 0.00429 *D OR4X2

*CAP
1 *521:Y 0.000139836
2 *513:A 0.000139836
3 *326:2 0.000420941
4 *326:3 0.000351268
5 *326:4 5.09177e-05
6 *326:5 0.000120602
7 *326:6 0.000676155
8 *326:7 0.00074584
9 *326:8 0.000120602

*RES
1 *326:8 *521:Y 3.2
2 *326:2 *326:8 3.2
3 *326:3 *326:2 1.65469
4 *326:7 *326:3 3.2
5 *326:6 *326:7 3.27598
6 *326:5 *326:6 3.2
7 *326:4 *326:5 6.4000001
8 *513:A *326:4 3.2
*END

*D_NET *327 0.00161088

*CONN
*I *534:Y O *C 107.25 64.68 *L 0 *D NAND4X1
*I *520:A1 I *C 106.59 67.48 *L 0.00443 *D AOI21X1
*I *518:A0 I *C 103.29 67.48 *L 0.00336 *D OAI21XL

*CAP
1 *534:Y 0.000165372
2 *520:A1 8.86008e-05
3 *518:A0 0.00013984
4 *327:3 0.000222616
5 *327:4 0.000200702
6 *327:5 0.000245628
7 *327:6 0.000200474
8 *327:7 0.00034765

*RES
1 *327:4 *534:Y 0.671484
2 *327:6 *520:A1 0.447656
3 *327:5 *327:4 3.20000005
4 *327:7 *327:6 3.20000005
5 *327:5 *327:7 0.77998
6 *327:3 *327:7 0.551562
7 *518:A0 *327:3 3.20000005
*END

*D_NET *328 0.00283376

*CONN
*I *520:Y O *C 107.91 66.92 *L 0 *D AOI21X1
*I *513:B I *C 95.37 66.36 *L 0.00412 *D OR4X2

*CAP
1 *520:Y 0.000139843
2 *513:B 0.000139843
3 *328:2 0.00011726
4 *328:3 0.000186943
5 *328:4 0.00044152
6 *328:5 0.000426759
7 *328:6 0.000144061
8 *328:7 0.000251289
9 *328:8 0.000259994
10 *328:9 0.000120602
11 *328:6 *319:4 6.317e-05
12 *328:4 *319:5 6.317e-05
13 *328:4 *319:4 5.795e-05
14 *328:5 *319:5 5.79499944e-05
15 *328:6 *292:7 0.00015794
16 *328:4 *292:5 0.00015794
17 *328:4 *292:2 2.377e-05
18 *328:5 *292:3 2.3770004e-05

*RES
1 *328:9 *520:Y 3.20000005
2 *328:7 *328:9 3.20000005
3 *328:8 *328:7 1.10312
4 *328:6 *328:8 0.156006
5 *328:4 *328:6 1.10312
6 *328:5 *328:4 1.47085
7 *328:2 *328:5 3.20000005
8 *328:3 *328:2 0.468018
9 *513:B *328:3 3.20000005
*END

*D_NET *329 0.0013244

*CONN
*I *519:Y O *C 92.07 42.28 *L 0 *D AOI211XL
*I *515:A I *C 88.11 43.4 *L 0.00346 *D INVX1

*CAP
1 *519:Y 6.32984e-05
2 *515:A 0.000139837
3 *329:2 0.000136548
4 *329:3 7.35708e-05
5 *329:4 9.20689e-05
6 *329:5 0.000161752
7 *329:6 0.000293817
8 *329:7 0.0003635

*RES
1 *329:3 *519:Y 6.4000001
2 *329:3 *329:2 0.155957
3 *329:7 *329:2 3.2
4 *329:6 *329:7 1.10312
5 *329:5 *329:6 3.2
6 *329:4 *329:5 0.312012
7 *515:A *329:4 3.2
*END

*D_NET *330 0.00640293

*CONN
*I *710:Y O *C 122.43 52.36 *L 0 *D AOI22X1
*I *518:A1 I *C 102.63 67.48 *L 0.00324 *D OAI21XL
*I *516:B1 I *C 95.37 63.56 *L 0.00434 *D AOI22X1

*CAP
1 *710:Y 6.33032e-05
2 *518:A1 4.22446e-05
3 *516:B1 0.000139839
4 *330:3 0.000218186
5 *330:4 0.000287857
6 *330:5 0.000426338
7 *330:6 0.000419629
8 *330:7 0.000519403
9 *330:8 0.000511308
10 *330:9 0.00092747
11 *330:10 0.000357303
12 *330:11 0.000570337
13 *330:12 0.000771526
14 *330:13 0.000793462
15 *330:14 7.75828e-05
16 *330:15 0.000142103
17 *330:16 7.18795e-05
18 *330:17 6.31758e-05

*RES
1 *330:6 *710:Y 6.4000001
2 *330:6 *330:5 1.71602
3 *330:17 *330:5 6.4000001
4 *330:14 *518:A1 0.223828
5 *330:16 *330:17 0.183887
6 *330:15 *330:14 3.2
7 *330:16 *330:11 0.155957
8 *330:7 *330:15 0.183887
9 *330:12 *330:11 2.20625
10 *330:8 *330:7 1.87197
11 *330:13 *330:12 1.10312
12 *330:9 *330:8 6.4000001
13 *330:9 *330:13 2.57402
14 *330:3 *516:B1 3.2
15 *330:10 *330:9 1.65469
16 *330:4 *330:3 0.77998
17 *330:4 *330:10 3.2
*END

*D_NET *331 0.0023608

*CONN
*I *518:Y O *C 103.95 69.16 *L 0 *D OAI21XL
*I *512:C I *C 93.39 73.64 *L 0.0049 *D NOR4X1

*CAP
1 *518:Y 0.000139841
2 *512:C 0.000139841
3 *331:2 0.000120052
4 *331:3 0.000189729
5 *331:4 0.000242205
6 *331:5 0.000172527
7 *331:6 0.0006783
8 *331:7 0.0006783

*RES
1 *331:5 *518:Y 3.20000005
2 *331:5 *331:4 0.624023
3 *331:6 *331:4 3.20000005
4 *331:2 *512:C 3.20000005
5 *331:7 *331:6 2.9417
6 *331:3 *331:2 0.624023
7 *331:3 *331:7 3.20000005
*END

*D_NET *332 0.000950029

*CONN
*I *517:Y O *C 91.41 79.24 *L 0 *D OAI222XL
*I *512:A I *C 95.37 73.64 *L 0.0052 *D NOR4X1

*CAP
1 *517:Y 3.98617e-05
2 *512:A 0.000139839
3 *332:2 0.00034757
4 *332:3 7.51888e-05
5 *332:4 0.00034757

*RES
1 *332:2 *512:A 3.20000005
2 *332:2 *332:4 1.09199
3 *332:3 *332:4 3.20000005
4 *517:Y *332:3 0.223828
*END

*D_NET *333 0.00094876

*CONN
*I *516:Y O *C 97.35 62.44 *L 0 *D AOI22X1
*I *510:B I *C 93.39 63 *L 0.00465 *D NAND4X1

*CAP
1 *516:Y 6.32999e-05
2 *510:B 6.32999e-05
3 *333:2 0.000156269
4 *333:3 0.00010152
5 *333:4 0.0002238
6 *333:5 0.0002238
7 *333:6 6.58508e-05
8 *333:7 5.09206e-05

*RES
1 *333:7 *516:Y 6.4000001
2 *333:4 *333:7 6.4000001
3 *333:5 *333:4 1.10312
4 *333:2 *333:5 3.2
5 *333:3 *333:2 0.312012
6 *333:6 *333:3 0.183887
7 *510:B *333:6 6.4000001
*END

*D_NET *334 0.00226152

*CONN
*I *515:Y O *C 88.77 42.84 *L 0 *D INVX1
*I *514:D I *C 78.21 36.68 *L 0.00184 *D DFFRHQX1

*CAP
1 *515:Y 0.000119589
2 *514:D 6.33016e-05
3 *334:2 0.000120598
4 *334:3 0.000565417969
5 *334:4 0.000336136
6 *334:5 0.000565417969
7 *334:6 0.000154919
8 *334:7 0.000336136

*RES
1 *334:6 *515:Y 0.671484
2 *334:7 *334:6 3.2
3 *334:4 *334:7 1.55996
4 *334:5 *334:4 3.2
5 *334:3 *334:5 2.39014
6 *334:2 *334:3 3.2
7 *514:D *334:2 6.4000001
*END

*D_NET *335 0.00211972

*CONN
*I *513:Y O *C 98.01 66.36 *L 0 *D OR4X2
*I *511:B0 I *C 88.77 68.6 *L 0.00492 *D AOI211X1

*CAP
1 *513:Y 0.000139838
2 *511:B0 0.000139838
3 *335:2 0.0001734
4 *335:3 0.000110421
5 *335:4 0.000278671
6 *335:5 0.000287479531
7 *335:6 0.000156762
8 *335:7 0.000147949
9 *335:8 0.000120598
10 *335:6 *100:34 0.00012316
11 *335:7 *100:35 0.00012316
12 *335:2 *100:33 4.41e-06
13 *335:3 *100:20 4.40999266e-06
14 *335:6 *302:4 0.00015481
15 *335:7 *302:5 0.000154810003

*RES
1 *335:8 *513:Y 3.2
2 *335:4 *335:8 3.2
3 *335:5 *335:4 1.28701
4 *335:5 *335:6 0.155957
5 *335:2 *511:B0 3.2
6 *335:7 *335:6 1.28701
7 *335:3 *335:2 0.312012
8 *335:3 *335:7 6.4000001
*END

*D_NET *336 0.00151442

*CONN
*I *512:Y O *C 93.39 74.2 *L 0 *D NOR4X1
*I *510:A I *C 92.73 63.56 *L 0.00478 *D NAND4X1

*CAP
1 *512:Y 0.000139839
2 *510:A 6.33008e-05
3 *336:2 0.000288872
4 *336:3 0.000297100664
5 *336:4 6.89087e-05
6 *336:5 6.89087e-05
7 *336:6 0.000257469
8 *336:7 0.000257469
9 *336:8 7.2549e-05

*RES
1 *336:8 *512:Y 3.2
2 *336:7 *336:8 0.183887
3 *336:6 *336:7 0.936035
4 *336:5 *336:6 0.183887
5 *336:4 *336:5 0.155957
6 *336:3 *336:4 0.183887
7 *336:2 *336:3 1.24805
8 *510:A *336:2 6.4000001
*END

*D_NET *337 0.000732149

*CONN
*I *511:Y O *C 88.11 66.36 *L 0 *D AOI211X1
*I *509:B0 I *C 92.07 68.04 *L 0.00343 *D OAI2BB1X1

*CAP
1 *511:Y 4.12103e-05
2 *509:B0 6.32987e-05
3 *337:2 0.000151982
4 *337:3 0.000125939
5 *337:4 7.65382e-05
6 *337:5 8.87308e-05
7 *337:6 0.00018445

*RES
1 *337:5 *509:B0 6.4000001
2 *337:5 *337:6 0.467969
3 *337:2 *337:6 0.551562
4 *337:3 *337:2 0.155957
5 *337:4 *337:3 3.2
6 *511:Y *337:4 0.223828
*END

*D_NET *338 0.0007474

*CONN
*I *510:Y O *C 94.05 64.68 *L 0 *D NAND4X1
*I *508:B0 I *C 94.71 58.52 *L 0.00492 *D AOI211X1

*CAP
1 *510:Y 6.33001e-05
2 *508:B0 0.000139841
3 *338:2 0.00018082
4 *338:3 0.000172589
5 *338:4 8.79613e-05
6 *338:5 0.000102888

*RES
1 *338:4 *508:B0 3.2
2 *338:4 *338:5 0.312012
3 *338:3 *510:Y 6.4000001
4 *338:2 *338:5 0.183887
5 *338:2 *338:3 0.77998
*END

*D_NET *339 0.00316437

*CONN
*I *545:Y O *C 84.81 56.84 *L 0 *D NOR3X1
*I *509:A1N I *C 90.75 68.6 *L 0.00148 *D OAI2BB1X1
*I *508:A0 I *C 93.39 56.84 *L 0.00483 *D AOI211X1

*CAP
1 *545:Y 0.000102817
2 *509:A1N 6.32965e-05
3 *508:A0 6.32965e-05
4 *339:3 0.000257065
5 *339:4 0.000257065
6 *339:5 0.000265272
7 *339:6 0.00034244
8 *339:7 0.000229929
9 *339:8 0.000138151
10 *339:9 0.000506768
11 *339:10 0.00057645
12 *339:11 0.000120603
13 *339:12 0.000120603
14 *339:13 0.000120603

*RES
1 *339:3 *509:A1N 6.4000001
2 *339:4 *339:3 1.09199
3 *339:12 *339:4 3.2
4 *339:9 *339:12 3.2
5 *339:13 *508:A0 6.4000001
6 *339:10 *339:9 2.18398
7 *339:5 *339:13 3.2
8 *339:6 *339:10 3.2
9 *339:6 *339:5 0.735449
10 *339:7 *339:6 0.735449
11 *339:11 *339:7 3.2
12 *339:8 *339:11 3.2
13 *545:Y *339:8 0.671484
*END

*D_NET *340 0.00185926

*CONN
*I *509:Y O *C 93.39 69.16 *L 0 *D OAI2BB1X1
*I *504:B0 I *C 100.65 68.6 *L 0.00492 *D AOI211X1

*CAP
1 *509:Y 6.33031e-05
2 *504:B0 0.000139839
3 *340:2 0.000132039
4 *340:3 6.23613e-05
5 *340:4 0.00038577
6 *340:5 0.00038577
7 *340:6 9.06988e-05
8 *340:7 0.000160383
9 *340:4 *319:4 0.00021955
10 *340:5 *319:5 0.000219550002

*RES
1 *340:6 *504:B0 3.2
2 *340:6 *340:7 0.312012
3 *340:4 *340:7 3.2
4 *340:5 *340:4 2.02246
5 *340:2 *340:5 3.2
6 *340:3 *340:2 0.155957
7 *509:Y *340:3 6.4000001
*END

*D_NET *341 0.00941844

*CONN
*I *567:Y O *C 107.91 42.84 *L 0 *D INVX1
*I *561:B0 I *C 134.31 37.24 *L 0.00464 *D OAI2BB2X1
*I *560:B I *C 94.05 52.92 *L 0.00385 *D NOR2X1
*I *506:B I *C 91.41 52.92 *L 0.00385 *D NOR2X1
*I *503:B I *C 91.41 47.88 *L 0.00385 *D NOR2X1

*CAP
1 *567:Y 0.000139839
2 *561:B0 0.000139839
3 *560:B 0.000139839
4 *506:B 0.000139839
5 *503:B 0.000139839
6 *341:5 0.00060626
7 *341:6 0.000377624
8 *341:7 0.000392329
9 *341:8 0.000176318
10 *341:9 0.00154934
11 *341:10 0.000529568
12 *341:11 0.00103318
13 *341:12 0.000111209
14 *341:13 0.00018088
15 *341:14 0.000105346
16 *341:15 0.000314123
17 *341:16 0.000120595
18 *341:17 0.000244429
19 *341:18 0.000187689
20 *341:19 0.000231709
21 *341:20 0.000301381
22 *341:11 *54:177 5.271e-05
23 *341:9 *54:178 5.271e-05
24 *341:11 *54:179 3.753e-05
25 *341:9 *54:180 3.753e-05
26 *341:11 *54:181 2.489e-05
27 *341:9 *54:182 2.489e-05
28 *341:11 *54:182 0.00017704
29 *341:9 *54:183 0.00017704
30 *341:9 *54:184 0.00018505
31 *341:10 *54:185 0.00018505
32 *341:9 *54:186 2.216e-05
33 *341:10 *54:187 2.21600124e-05
34 *341:9 *74:8 0.00011642
35 *341:10 *74:9 0.00011642
36 *341:11 *74:15 0.00015177
37 *341:9 *74:14 0.00015177
38 *341:9 *74:15 0.00010679
39 *341:10 *74:14 0.00010679
40 *341:9 *74:13 6.204e-05
41 *341:10 *74:11 6.204e-05
42 *341:11 *74:6 0.0001922
43 *341:9 *74:7 0.000192199998

*RES
1 *341:19 *561:B0 3.19999
2 *341:19 *341:20 0.936006
3 *341:12 *567:Y 3.19999
4 *341:11 *341:20 3.19999
5 *341:13 *341:12 0.467947
6 *341:9 *341:11 7.35428572
7 *341:9 *341:13 3.19999
8 *341:10 *341:9 3.86095
9 *341:15 *341:10 3.19999
10 *341:15 *341:17 1.09199
11 *341:16 *341:17 3.19999
12 *341:6 *341:16 3.19999
13 *341:18 *560:B 3.19999
14 *341:14 *506:B 3.19999
15 *341:6 *341:5 1.71603
16 *341:5 *341:18 0.624041
17 *341:7 *341:14 0.624041
18 *341:7 *341:5 0.735473
19 *341:8 *341:7 0.780024
20 *503:B *341:8 3.19999
*END

*D_NET *342 0.010096

*CONN
*I *568:Y O *C 99.99 33.32 *L 0 *D OAI2BB2X1
*I *567:A I *C 107.25 43.4 *L 0.00346 *D INVX1
*I *564:A0 I *C 103.95 42.84 *L 0.00333 *D OAI22XL
*I *563:B I *C 103.95 52.92 *L 0.00385 *D NOR2X1
*I *559:B I *C 95.37 47.32 *L 0.00375 *D NAND2X1
*I *557:B I *C 108.57 52.92 *L 0.00385 *D NOR2X1
*I *505:B I *C 117.81 52.92 *L 0.00385 *D NOR2X1
*I *502:B I *C 97.35 52.92 *L 0.00385 *D NOR2X1

*CAP
1 *568:Y 0.000139842
2 *567:A 7.97423e-05
3 *564:A0 0.000139842
4 *563:B 3.73055e-05
5 *559:B 0.000139842
6 *557:B 0.000139842
7 *505:B 0.000130119
8 *502:B 7.4593e-05
9 *342:8 0.000110152
10 *342:9 0.000110152
11 *342:10 0.000188184
12 *342:11 0.000188184
13 *342:12 0.000109378
14 *342:13 0.000179056
15 *342:14 0.00029153
16 *342:15 0.000361226
17 *342:16 0.000370516
18 *342:17 0.000300838
19 *342:18 0.00017297
20 *342:19 0.00017297
21 *342:20 0.000598058
22 *342:21 0.000348407
23 *342:22 0.000588011
24 *342:23 0.00117993
25 *342:24 0.000231233
26 *342:25 0.000156658
27 *342:26 7.8518e-05
28 *342:27 0.000202407
29 *342:28 0.000156532
30 *342:29 0.000120595
31 *342:30 0.000123908
32 *342:31 0.000744687
33 *342:32 0.000123655
34 *342:33 0.000120595
35 *342:34 0.000149294
36 *342:35 7.99943e-05
37 *342:36 0.000115049
38 *342:37 0.000222627
39 *342:38 0.000701854
40 *342:39 0.000452203
41 *342:40 0.000165462

*RES
1 *342:36 *567:A 0.447641
2 *342:8 *568:Y 3.20002
3 *342:37 *342:36 3.20002
4 *342:9 *342:8 0.312024
5 *342:40 *505:B 0.671486
6 *342:34 *342:37 0.551565
7 *342:15 *342:9 3.20002
8 *342:18 *342:40 3.20002
9 *342:32 *564:A0 3.20002
10 *342:32 *342:34 0.156012
11 *342:15 *342:14 1.10313
12 *342:35 *563:B 0.189904
13 *342:12 *557:B 3.20002
14 *342:19 *342:18 0.467986
15 *342:33 *342:32 3.20002
16 *342:31 *342:14 3.20002
17 *342:10 *342:35 3.20002
18 *342:13 *342:12 0.467986
19 *342:39 *342:19 3.20002
20 *342:23 *342:33 3.20002
21 *342:31 *342:23 3.27600002
22 *342:11 *342:10 0.312024
23 *342:38 *342:13 3.20002
24 *342:38 *342:39 2.02241
25 *342:23 *342:22 2.33998
26 *342:20 *342:11 3.20002
27 *342:20 *342:38 1.28699
28 *342:20 *342:22 3.20002
29 *342:21 *342:20 1.47084
30 *342:29 *342:21 3.20002
31 *342:28 *342:29 3.20002
32 *342:28 *342:30 0.189904
33 *342:27 *502:B 0.379807
34 *342:27 *342:30 0.447641
35 *342:26 *342:27 0.223845
36 *342:25 *342:26 0.189904
37 *342:24 *342:25 0.447641
38 *342:16 *342:24 3.20002
39 *342:17 *342:16 1.09198
40 *559:B *342:17 3.20002
*END

*D_NET *343 0.0028272

*CONN
*I *507:Y O *C 94.05 47.88 *L 0 *D INVX1
*I *503:A I *C 92.07 47.32 *L 0.0043 *D NOR2X1
*I *502:A I *C 98.01 53.48 *L 0.0043 *D NOR2X1
*I *493:B0 I *C 99.99 47.88 *L 0.00433 *D AOI22X1

*CAP
1 *507:Y 7.71613e-05
2 *503:A 6.32959e-05
3 *502:A 6.32959e-05
4 *493:B0 0.000139838
5 *343:4 0.000152941
6 *343:5 0.000236262
7 *343:6 0.000152941
8 *343:7 0.000161694
9 *343:8 7.71613e-05
10 *343:9 0.000256621
11 *343:10 0.00018739
12 *343:11 0.000254647
13 *343:12 0.00044608
14 *343:13 0.000335246
15 *343:14 0.000222621

*RES
1 *343:14 *493:B0 3.2
2 *343:10 *343:14 0.551562
3 *343:13 *502:A 6.4000001
4 *343:10 *343:12 0.312012
5 *343:12 *343:13 1.24805
6 *343:11 *343:12 3.2
7 *343:9 *343:11 1.11914
8 *343:8 *343:9 0.189941
9 *507:Y *343:8 0.223828
10 *507:Y *343:7 0.189941
11 *343:5 *343:7 0.671484
12 *343:6 *343:5 3.2
13 *343:4 *343:6 0.467969
14 *503:A *343:4 6.4000001
*END

*D_NET *344 0.015612

*CONN
*I *508:Y O *C 94.05 56.28 *L 0 *D AOI211X1
*I *507:A I *C 93.39 47.32 *L 0.00346 *D INVX1
*I *506:A I *C 92.07 53.48 *L 0.0043 *D NOR2X1
*I *505:A I *C 118.47 53.48 *L 0.0043 *D NOR2X1
*I *500:B0 I *C 134.31 23.24 *L 0.00348 *D OAI2BB2XL
*I *493:A0 I *C 100.65 47.32 *L 0.00465 *D AOI22X1

*CAP
1 *508:Y 0.000139839
2 *507:A 0.000139839
3 *506:A 6.33125e-05
4 *505:A 6.33125e-05
5 *500:B0 0.000139839
6 *493:A0 6.33125e-05
7 *344:6 0.000346061
8 *344:7 0.000276364
9 *344:8 0.00082393
10 *344:9 0.000832628
11 *344:10 0.000160973
12 *344:11 0.000160973
13 *344:12 0.000316162
14 *344:13 0.000239146
15 *344:14 0.000199036
16 *344:15 0.000267354
17 *344:16 0.000520203
18 *344:17 0.000524252
19 *344:18 7.02088e-05
20 *344:19 0.000213474
21 *344:20 0.00022829
22 *344:21 0.000464633
23 *344:22 0.000464633
24 *344:23 0.000145312
25 *344:24 0.000125201
26 *344:25 0.0002169
27 *344:26 0.000186645
28 *344:27 6.78062e-05
29 *344:28 6.78062e-05
30 *344:29 0.00014569
31 *344:30 6.58485e-05
32 *344:31 0.000120596
33 *344:32 0.000331312
34 *344:33 0.000400986
35 *344:34 0.000178236
36 *344:35 9.74603e-05
37 *344:36 0.000142219
38 *344:37 0.0014579
39 *344:38 0.0014579
40 *344:39 6.616e-05
41 *344:40 0.000269401
42 *344:41 0.000269401
43 *344:42 0.000483475
44 *344:43 0.00100392
45 *344:44 0.000558889
46 *344:45 0.000928932
47 *344:46 0.000106225

*RES
1 *344:19 *505:A 6.39999
2 *344:20 *344:19 1.09201
3 *344:20 *344:23 0.183846
4 *344:24 *344:23 0.46799
5 *344:11 *500:B0 3.20005
6 *344:24 *344:21 0.0919775
7 *344:11 *344:10 0.311957
8 *344:22 *344:21 1.87196
9 *344:8 *344:10 3.20005
10 *344:45 *344:22 0.0919775
11 *344:9 *344:8 3.86098
12 *344:43 *344:45 4.52398
13 *344:9 *344:46 0.156033
14 *344:44 *344:43 3.20005
15 *344:44 *344:46 0.367691
16 *344:42 *344:44 2.3901
17 *344:41 *344:42 0.156033
18 *344:40 *344:41 1.28703
19 *344:40 *344:14 0.156033
20 *344:15 *344:14 0.735382
21 *344:27 *507:A 3.20005
22 *344:15 *344:12 0.46799
23 *344:28 *344:27 0.156033
24 *344:13 *344:12 0.919337
25 *344:7 *493:A0 6.39999
26 *344:31 *344:28 3.20005
27 *344:37 *344:13 3.20005
28 *344:7 *344:6 1.40397
29 *344:32 *344:31 3.20005
30 *344:37 *344:38 7.17600012
31 *344:39 *344:6 3.20005
32 *344:32 *344:33 1.56
33 *344:16 *344:38 3.20005
34 *344:16 *344:39 0.183846
35 *344:36 *508:Y 3.20005
36 *344:17 *344:33 3.20005
37 *344:17 *344:16 1.83857
38 *344:35 *344:36 0.183846
39 *344:18 *344:17 0.183846
40 *344:34 *344:35 0.311957
41 *344:29 *344:18 3.20005
42 *344:25 *344:34 0.551537
43 *344:29 *344:26 0.311957
44 *344:26 *344:25 0.624024
45 *344:30 *344:26 0.183846
46 *506:A *344:30 6.39999
*END

*D_NET *345 0.0014896

*CONN
*I *500:Y O *C 135.63 23.24 *L 0 *D OAI2BB2XL
*I *496:D I *C 131.01 26.6 *L 0.00184 *D DFFRHQX1

*CAP
1 *500:Y 0.000139841
2 *496:D 6.33006e-05
3 *345:2 0.0003019
4 *345:3 0.00027561
5 *345:4 0.00024702
6 *345:5 6.57192e-05
7 *345:6 0.000120603
8 *345:7 0.00027561

*RES
1 *345:6 *500:Y 3.2
2 *345:5 *496:D 6.4000001
3 *345:7 *345:6 3.2
4 *345:4 *345:5 0.183887
5 *345:3 *345:7 1.4709
6 *345:2 *345:4 1.24805
7 *345:2 *345:3 3.2
*END

*D_NET *346 0.00267684

*CONN
*I *556:Y O *C 111.21 52.36 *L 0 *D NAND2X1
*I *499:B I *C 109.89 68.04 *L 0.00385 *D NOR2X1
*I *495:B I *C 111.87 68.04 *L 0.00385 *D NOR2X1

*CAP
1 *556:Y 0.000139841
2 *499:B 0.000117288
3 *495:B 7.45921e-05
4 *346:3 0.000182625
5 *346:4 0.000237508
6 *346:5 0.00019819
7 *346:6 0.00072809
8 *346:7 0.000687828
9 *346:8 0.000112677
10 *346:9 0.00019819

*RES
1 *495:B *346:9 0.379834
2 *346:5 *346:9 0.671484
3 *346:8 *556:Y 3.20000005
4 *499:B *346:5 0.379834
5 *346:6 *346:8 0.367725
6 *346:4 *499:B 3.20000005
7 *346:6 *346:7 3.12002
8 *346:3 *346:4 0.77998
9 *346:3 *346:7 0.183838
*END

*D_NET *347 0.0010742

*CONN
*I *562:Y O *C 105.93 48.44 *L 0 *D NAND2X1
*I *498:B I *C 107.25 47.88 *L 0.00385 *D NOR2X1
*I *497:B I *C 106.59 52.92 *L 0.00385 *D NOR2X1

*CAP
1 *562:Y 0.000182089
2 *498:B 4.22493e-05
3 *497:B 0.00013984
4 *347:3 0.00023201
5 *347:4 0.000162331
6 *347:4 *282:12 0.00015784
7 *347:3 *282:13 0.000157840003

*RES
1 *347:4 *497:B 3.20000005
2 *347:3 *347:4 1.248
3 *562:Y *347:3 3.20000005
4 *562:Y *498:B 0.223828
*END

*D_NET *348 0.0170584

*CONN
*I *574:Y O *C 106.59 26.6 *L 0 *D NAND2BX1
*I *571:A I *C 105.93 33.32 *L 0.00346 *D INVX1
*I *564:A1 I *C 104.61 42.84 *L 0.00347 *D OAI22XL
*I *561:B1 I *C 133.65 37.8 *L 0.00444 *D OAI2BB2X1
*I *561:A1N I *C 132.33 37.8 *L 0.00219 *D OAI2BB2X1
*I *555:B0 I *C 109.23 32.76 *L 0.00433 *D AOI22X1
*I *549:B I *C 86.13 47.88 *L 0.00385 *D NOR2X1
*I *535:B I *C 102.63 47.88 *L 0.00385 *D NOR2X1
*I *519:A0 I *C 90.09 43.4 *L 0.00341 *D AOI211XL
*I *500:B1 I *C 133.65 22.68 *L 0.00335 *D OAI2BB2XL
*I *500:A1N I *C 132.33 22.68 *L 0.00224 *D OAI2BB2XL
*I *494:B1 I *C 131.01 42.84 *L 0.00335 *D OAI2BB2XL
*I *494:A1N I *C 132.33 42.84 *L 0.00224 *D OAI2BB2XL

*CAP
1 *574:Y 0.000139844
2 *571:A 0.000139844
3 *564:A1 6.33029e-05
4 *561:B1 0.000139844
5 *561:A1N 6.33029e-05
6 *555:B0 0.000139844
7 *549:B 0.000139844
8 *535:B 0.000139844
9 *519:A0 0.000139844
10 *500:B1 0.000139844
11 *500:A1N 6.33029e-05
12 *494:B1 0.000139844
13 *494:A1N 3.98384e-05
14 *348:13 0.000866856
15 *348:14 0.000769709
16 *348:15 0.000309271
17 *348:16 0.000219645
18 *348:17 0.000187522
19 *348:18 0.000864955
20 *348:19 0.000873669
21 *348:20 0.000422431
22 *348:21 0.000481349
23 *348:22 0.000481349
24 *348:23 0.000112841
25 *348:24 0.000230233
26 *348:25 0.000228776
27 *348:26 0.000102683
28 *348:27 8.63234e-05
29 *348:28 7.15315e-05
30 *348:29 0.000187689
31 *348:30 0.000840519
32 *348:31 0.000909372344
33 *348:32 0.000252865
34 *348:33 0.000197985
35 *348:34 0.000210931
36 *348:35 0.000141245
37 *348:36 0.000358393
38 *348:37 0.000329253
39 *348:38 0.000439818
40 *348:39 0.000515942
41 *348:40 0.000343753
42 *348:41 0.000342269
43 *348:42 0.000195237
44 *348:43 0.000242527
45 *348:44 0.000297393
46 *348:45 0.000120597
47 *348:46 0.000120597
48 *348:47 7.24195e-05
49 *348:48 0.000142105
50 *348:49 0.000174728
51 *348:50 0.000174728
52 *348:51 0.000177837
53 *348:52 0.000152193
54 *348:53 7.24195e-05
55 *348:54 6.57174e-05
56 *348:55 0.000117281
57 *348:56 0.000114436
58 *348:57 0.000142105
59 *348:58 0.000142105
60 *348:29 *358:13 5.913e-05
61 *348:30 *358:11 5.913e-05
62 *348:29 *358:11 2.377e-05
63 *348:30 *358:10 2.377e-05
64 *348:30 *358:11 0.00017613
65 *348:31 *358:10 0.00017613
66 *348:27 *358:4 4.151e-05
67 *348:28 *358:5 4.151e-05
68 *348:32 *358:6 9.868e-05
69 *348:33 *358:7 9.86800079e-05
70 *348:29 *366:10 0.00015636
71 *348:30 *366:17 0.00015636
72 *348:30 *366:18 0.0001413
73 *348:31 *366:19 0.0001413
74 *348:30 *366:7 4.599e-05
75 *348:31 *366:8 4.599e-05
76 *348:31 *366:7 6.159e-05
77 *348:36 *366:8 6.159e-05
78 *348:30 *366:23 2.884e-05
79 *348:31 *366:24 2.8840014e-05

*RES
1 *494:A1N *348:56 0.223828
2 *348:52 *494:B1 3.2
3 *348:55 *348:56 0.379785
4 *348:51 *348:52 0.312012
5 *348:53 *500:A1N 6.4000001
6 *348:57 *500:B1 3.2
7 *348:54 *561:A1N 6.4000001
8 *348:58 *561:B1 3.2
9 *348:37 *348:55 6.4000001
10 *348:51 *348:37 0.551562
11 *348:53 *348:14 0.183887
12 *348:14 *348:57 0.183887
13 *348:54 *348:20 0.183887
14 *348:20 *348:58 0.183887
15 *348:20 *348:37 1.09199
16 *348:14 *348:13 3.43203
17 *348:13 *348:20 0.77998
18 *348:44 *574:Y 3.2
19 *348:18 *348:13 6.4000001
20 *348:44 *348:43 0.936035
21 *348:19 *348:18 4.04482
22 *348:16 *348:43 0.183887
23 *348:19 *348:21 0.155957
24 *348:15 *571:A 3.2
25 *348:16 *348:15 0.936035
26 *348:35 *555:B0 3.2
27 *348:22 *348:21 2.02246
28 *348:15 *348:17 0.467969
29 *348:35 *348:34 0.624023
30 *348:23 *348:22 0.155957
31 *348:26 *348:17 3.2
32 *348:24 *348:34 3.2
33 *348:24 *348:23 0.551562
34 *348:47 *564:A1 6.4000001
35 *348:26 *348:25 0.367676
36 *348:25 *348:24 0.551562
37 *348:47 *348:48 0.183887
38 *348:42 *348:25 3.2
39 *348:49 *348:48 3.2
40 *348:42 *348:41 0.467969
41 *348:49 *348:50 0.551562
42 *348:41 *348:40 1.09199
43 *348:28 *519:A0 3.2
44 *348:39 *348:50 3.2
45 *348:40 *348:39 0.467969
46 *348:28 *348:27 0.312012
47 *348:39 *348:38 1.55996
48 *348:33 *348:27 0.183887
49 *348:46 *535:B 3.2
50 *348:29 *348:38 3.2
51 *348:33 *348:32 0.936035
52 *348:30 *348:46 3.2
53 *348:30 *348:29 1.28701
54 *348:31 *348:32 3.2
55 *348:31 *348:30 3.67715
56 *348:36 *348:31 0.919238
57 *348:45 *348:36 3.2
58 *549:B *348:45 3.2
*END

*D_NET *349 0.0104948

*CONN
*I *504:Y O *C 99.99 66.36 *L 0 *D AOI211X1
*I *501:A I *C 109.89 43.4 *L 0.00346 *D INVX1
*I *499:A I *C 110.55 67.48 *L 0.0043 *D NOR2X1
*I *498:A I *C 107.91 47.32 *L 0.0043 *D NOR2X1
*I *494:B0 I *C 130.35 43.4 *L 0.00348 *D OAI2BB2XL
*I *493:B1 I *C 99.33 47.32 *L 0.00434 *D AOI22X1

*CAP
1 *504:Y 4.12185e-05
2 *501:A 8.3433e-05
3 *499:A 6.3309e-05
4 *498:A 6.3309e-05
5 *494:B0 0.000139847
6 *493:B1 6.3309e-05
7 *349:6 0.000117143
8 *349:7 0.000117143
9 *349:8 6.18022e-05
10 *349:9 0.000124805
11 *349:10 0.00130438
12 *349:11 0.00167364
13 *349:12 0.000571977
14 *349:13 0.000141864
15 *349:14 0.00025058
16 *349:15 0.000104757
17 *349:16 9.37249e-05
18 *349:17 9.56913e-05
19 *349:18 0.00055502
20 *349:19 0.00055502
21 *349:20 0.000149551
22 *349:21 0.000204433
23 *349:22 0.000305998
24 *349:23 0.000305998
25 *349:24 0.000196337
26 *349:25 6.64757e-05
27 *349:26 0.00013336
28 *349:27 0.000236891
29 *349:28 0.000109329
30 *349:29 0.000389124
31 *349:30 0.000389124
32 *349:31 7.85041e-05
33 *349:32 0.000389022
34 *349:33 0.000389022
35 *349:34 0.000176979
36 *349:35 0.000120616
37 *349:36 0.000162193
38 *349:37 0.00019529
39 *349:38 0.000142094
40 *349:39 7.06129e-05
41 *349:40 6.19044e-05

*RES
1 *504:Y *349:31 0.223828
2 *349:6 *499:A 6.4000001
3 *349:17 *349:31 0.189941
4 *349:7 *349:6 0.312012
5 *349:17 *349:16 0.223828
6 *349:18 *349:7 3.2
7 *349:35 *349:16 3.2
8 *349:19 *349:18 2.20625
9 *349:19 *349:35 3.2
10 *349:36 *349:19 3.2
11 *349:34 *349:36 0.624023
12 *349:30 *349:34 0.183887
13 *349:29 *349:30 1.87197
14 *349:9 *494:B0 3.2
15 *349:29 *349:33 0.183887
16 *349:37 *501:A 0.447656
17 *349:9 *349:8 0.155957
18 *349:32 *349:33 1.87197
19 *349:38 *349:37 3.2
20 *349:40 *349:8 6.4000001
21 *349:22 *349:32 0.183887
22 *349:15 *349:38 0.183887
23 *349:13 *498:A 6.4000001
24 *349:39 *349:40 0.183887
25 *349:23 *349:22 1.24805
26 *349:15 *349:14 0.312012
27 *349:14 *349:13 0.77998
28 *349:39 *349:10 0.155957
29 *349:23 *349:20 0.183887
30 *349:11 *349:14 3.2
31 *349:11 *349:10 6.06729
32 *349:21 *349:20 0.467969
33 *349:12 *349:11 1.4709
34 *349:12 *349:21 3.2
35 *349:27 *349:12 0.735449
36 *349:27 *349:28 0.312012
37 *349:26 *493:B1 6.4000001
38 *349:25 *349:28 0.183887
39 *349:24 *349:26 0.467969
40 *349:24 *349:25 3.2
*END

*D_NET *350 0.000890162

*CONN
*I *494:Y O *C 129.03 43.4 *L 0 *D OAI2BB2XL
*I *483:D I *C 131.01 46.76 *L 0.00184 *D DFFRHQX1

*CAP
1 *494:Y 0.000139841
2 *483:D 6.33004e-05
3 *350:2 0.000142102
4 *350:3 7.12213e-05
5 *350:4 0.000111478
6 *350:5 0.00020864
7 *350:6 0.000153579

*RES
1 *350:6 *483:D 6.4000001
2 *350:5 *350:6 0.624023
3 *350:4 *350:5 0.367676
4 *350:3 *350:4 0.155957
5 *350:2 *350:3 0.183887
6 *494:Y *350:2 3.2
*END

*D_NET *351 0.00651673

*CONN
*I *550:Y O *C 88.77 52.36 *L 0 *D NAND2X1
*I *540:A I *C 88.11 47.32 *L 0.00346 *D INVX1
*I *492:S0 I *C 71.61 68.04 *L 0.00612 *D MXI2XL
*I *457:S0 I *C 73.59 73.08 *L 0.00672 *D MXI2X1

*CAP
1 *550:Y 3.98583e-05
2 *540:A 0.00013984
3 *492:S0 0.00013984
4 *457:S0 0.00013984
5 *351:4 0.000313487
6 *351:5 0.000313487
7 *351:6 0.000349607
8 *351:7 0.000349607
9 *351:8 0.000141683
10 *351:9 0.000150491
11 *351:10 0.000330095
12 *351:11 0.000364373
13 *351:12 0.000181272
14 *351:13 0.000138186
15 *351:14 0.000313353
16 *351:15 0.000540131
17 *351:16 0.000281509
18 *351:17 0.00088128
19 *351:18 0.000811595
20 *351:19 0.00018263
21 *351:20 0.000142234
22 *351:21 0.000151728
23 *351:22 0.00012061

*RES
1 *351:5 *540:A 3.20001
2 *351:21 *550:Y 0.223822
3 *351:5 *351:4 1.40399
4 *351:4 *351:21 3.20001
5 *351:22 *351:4 3.20001
6 *351:18 *351:22 3.20001
7 *351:18 *351:17 3.43199992
8 *351:8 *351:17 3.20001
9 *351:9 *351:8 0.551594
10 *351:9 *351:6 0.156005
11 *351:7 *351:6 1.65473
12 *351:7 *351:10 0.156005
13 *351:11 *351:10 1.47086
14 *351:12 *351:11 0.31201
15 *351:13 *351:12 0.551594
16 *351:20 *457:S0 3.20001
17 *351:16 *351:13 3.20001
18 *351:14 *351:20 0.183865
19 *351:16 *351:15 0.935976
20 *351:15 *351:14 1.40399
21 *351:19 *351:15 0.367729
22 *492:S0 *351:19 3.20001
*END

*D_NET *352 0.00353617

*CONN
*I *492:Y O *C 69.63 66.92 *L 0 *D MXI2XL
*I *478:D I *C 53.79 78.68 *L 0.00206 *D DFFRX1

*CAP
1 *492:Y 0.000139847
2 *478:D 0.000139847
3 *352:2 0.000233219
4 *352:3 0.000287979
5 *352:4 0.000142237
6 *352:5 0.00087019
7 *352:6 0.000307033
8 *352:7 0.000376717
9 *352:8 0.00087019
10 *352:7 *98:9 8.446e-05
11 *352:6 *98:18 8.44600001e-05

*RES
1 *352:6 *492:Y 3.19999
2 *352:6 *352:7 1.872
3 *352:8 *352:7 3.19999
4 *352:5 *352:8 4.22871447
5 *352:3 *352:5 3.19999
6 *352:3 *352:2 0.936001
7 *352:4 *352:2 0.183832
8 *478:D *352:4 3.19999
*END

*D_NET *353 0.00422602

*CONN
*I *551:Y O *C 107.91 58.52 *L 0 *D NAND2X1
*I *491:B1 I *C 116.49 68.04 *L 0.00335 *D OAI2BB2XL
*I *491:A1N I *C 115.17 68.04 *L 0.00224 *D OAI2BB2XL
*I *458:S0 I *C 113.19 73.08 *L 0.00672 *D MXI2X1

*CAP
1 *551:Y 0.000139839
2 *491:B1 0.000139839
3 *491:A1N 6.33013e-05
4 *458:S0 6.33013e-05
5 *353:4 0.00053585
6 *353:5 0.00053585
7 *353:6 0.000513471
8 *353:7 0.000213395
9 *353:8 0.00041672
10 *353:9 0.00055217
11 *353:10 0.000482491
12 *353:11 0.000120604
13 *353:12 0.000120604
14 *353:13 0.000146243
15 *353:14 0.000182355

*RES
1 *353:13 *458:S0 6.4000001
2 *353:14 *491:B1 3.2
3 *353:13 *353:8 0.551562
4 *353:6 *491:A1N 6.4000001
5 *353:6 *353:14 0.367676
6 *353:6 *353:8 1.404
7 *353:7 *353:6 0.77998
8 *353:4 *353:7 3.2
9 *353:5 *353:4 1.83857
10 *353:9 *353:5 3.2
11 *353:10 *353:9 2.34004
12 *353:12 *353:10 3.2
13 *353:11 *353:12 3.2
14 *551:Y *353:11 3.2
*END

*D_NET *354 0.00372303

*CONN
*I *491:Y O *C 118.47 67.48 *L 0 *D OAI2BB2XL
*I *479:D I *C 108.57 84.28 *L 0.00184 *D DFFRHQX1

*CAP
1 *491:Y 0.000139842
2 *479:D 6.32987e-05
3 *354:2 0.000521091
4 *354:3 0.000466203
5 *354:4 0.000226757
6 *354:5 0.000375945
7 *354:6 0.000471019
8 *354:7 0.00055178
9 *354:8 0.000401338
10 *354:9 0.000142098
11 *354:7 *95:16 0.00011943
12 *354:5 *95:17 0.00011943
13 *354:7 *95:18 6.24e-05
14 *354:5 *95:19 6.24000009e-05

*RES
1 *354:9 *491:Y 3.2
2 *354:3 *354:9 0.183887
3 *354:3 *354:2 2.02803
4 *354:8 *354:2 3.2
5 *354:6 *354:8 1.65469
6 *354:5 *354:6 3.2
7 *354:5 *354:7 2.34004
8 *354:4 *354:7 0.919238
9 *479:D *354:4 6.4000001
*END

*D_NET *355 0.0159995

*CONN
*I *501:Y O *C 110.55 42.84 *L 0 *D INVX1
*I *497:A I *C 107.25 53.48 *L 0.0043 *D NOR2X1
*I *495:A I *C 112.53 67.48 *L 0.0043 *D NOR2X1
*I *493:A1 I *C 101.31 47.88 *L 0.00472 *D AOI22X1
*I *492:A I *C 68.31 67.48 *L 0.0026 *D MXI2XL
*I *491:B0 I *C 117.15 67.48 *L 0.00348 *D OAI2BB2XL
*I *490:B I *C 84.15 43.4 *L 0.002 *D MXI2XL
*I *489:B I *C 114.51 43.4 *L 0.002 *D MXI2XL

*CAP
1 *501:Y 0.00013985
2 *497:A 6.32932e-05
3 *495:A 6.32932e-05
4 *493:A1 6.32932e-05
5 *492:A 0.00013985
6 *491:B0 0.00013985
7 *490:B 0.00013985
8 *489:B 0.00013985
9 *355:8 0.000269432
10 *355:9 0.000332426
11 *355:10 0.000156708
12 *355:11 0.000156708
13 *355:12 0.00152133
14 *355:13 0.000892914
15 *355:14 0.000111961
16 *355:15 0.000111961
17 *355:16 0.000177978
18 *355:17 0.000288796
19 *355:18 0.000822322
20 *355:19 0.00064418
21 *355:20 0.000574487
22 *355:21 0.000311346
23 *355:22 0.000381012
24 *355:23 0.000678931
25 *355:24 0.000657416
26 *355:25 0.000829811
27 *355:26 0.000774934
28 *355:27 0.000144371
29 *355:28 0.000187211
30 *355:29 0.000120595
31 *355:30 0.000120595
32 *355:31 0.000120595
33 *355:32 0.00174195
34 *355:33 0.000120595
35 *355:34 0.000120595
36 *355:35 0.00178482
37 *355:36 0.000120595
38 *355:37 0.000120595
39 *355:12 *257:19 0.00018729
40 *355:13 *257:17 0.00018729
41 *355:12 *257:16 2.366e-05
42 *355:13 *257:3 2.366e-05
43 *355:12 *257:3 0.00014564
44 *355:13 *257:4 0.000145639987

*RES
1 *355:8 *493:A1 6.40002
2 *355:33 *490:B 3.19992
3 *355:9 *355:8 1.24798
4 *355:13 *355:33 3.19992
5 *355:12 *355:9 3.19992
6 *355:13 *355:12 4.78036
7 *355:36 *501:Y 3.19992
8 *355:37 *489:B 3.19992
9 *355:34 *497:A 6.40002
10 *355:12 *355:18 2.57408
11 *355:18 *355:36 3.19992
12 *355:16 *355:37 3.19992
13 *355:10 *491:B0 3.19992
14 *355:20 *355:34 3.19992
15 *355:18 *355:17 0.735426
16 *355:17 *355:16 0.367801
17 *355:14 *495:A 6.40002
18 *355:11 *355:10 0.311951
19 *355:20 *355:19 1.65466
20 *355:24 *355:17 3.19992
21 *355:15 *355:14 0.311951
22 *355:21 *355:11 3.19992
23 *355:23 *355:19 3.19992
24 *355:24 *355:23 2.80809
25 *355:22 *355:15 3.19992
26 *355:22 *355:21 1.28704
27 *355:26 *355:23 0.183812
28 *355:25 *355:22 3.19992
29 *355:26 *355:25 3.58805
30 *355:27 *355:25 3.19992
31 *355:28 *355:27 0.735426
32 *355:28 *355:35 0.311951
33 *355:32 *355:35 11.5830002
34 *355:31 *355:32 3.19992
35 *355:30 *355:31 3.19992
36 *355:29 *355:30 3.19992
37 *492:A *355:29 3.19992
*END

*D_NET *356 0.00272119

*CONN
*I *549:Y O *C 87.45 47.88 *L 0 *D NOR2X1
*I *490:S0 I *C 83.49 42.84 *L 0.00612 *D MXI2XL
*I *459:S0 I *C 78.87 52.92 *L 0.00672 *D MXI2X1

*CAP
1 *549:Y 0.000294181
2 *490:S0 0.000139844
3 *459:S0 0.000139844
4 *356:3 0.000286919
5 *356:4 0.000151337
6 *356:5 0.000145148
7 *356:6 0.000225674
8 *356:7 0.000375
9 *356:8 0.000329508
10 *356:9 0.00049164
11 *356:10 0.000142102

*RES
1 *356:10 *490:S0 3.20000005
2 *356:7 *356:10 0.183838
3 *356:8 *549:Y 1.5668
4 *356:7 *356:9 1.56001
5 *356:9 *356:8 3.20000005
6 *356:5 *356:9 0.367725
7 *356:4 *459:S0 3.20000005
8 *356:5 *356:6 0.468018
9 *356:3 *356:4 0.77998
10 *356:3 *356:6 0.735449
*END

*D_NET *357 0.00314831

*CONN
*I *490:Y O *C 85.47 43.96 *L 0 *D MXI2XL
*I *473:D I *C 68.31 42.28 *L 0.00206 *D DFFRX1

*CAP
1 *490:Y 0.000139842
2 *473:D 0.000139842
3 *357:2 0.000194095
4 *357:3 0.000139213
5 *357:4 0.000142093
6 *357:5 0.00069921
7 *357:6 5.09137e-05
8 *357:7 0.00069921
9 *357:7 *213:10 0.00010371
10 *357:5 *213:11 0.000103709999
11 *357:7 *100:16 0.00025075
12 *357:5 *100:17 0.000250750012
13 *357:7 *56:46 9.618e-05
14 *357:5 *56:47 9.618e-05
15 *357:7 *56:47 2.131e-05
16 *357:5 *56:48 2.13099941e-05

*RES
1 *357:6 *490:Y 3.2
2 *357:7 *357:6 6.4000001
3 *357:5 *357:7 4.59639
4 *357:2 *357:5 3.2
5 *357:3 *357:2 0.467969
6 *357:4 *357:3 0.183887
7 *473:D *357:4 3.2
*END

*D_NET *358 0.00598044

*CONN
*I *535:Y O *C 103.95 47.88 *L 0 *D NOR2X1
*I *519:C0 I *C 90.75 42.84 *L 0.00317 *D AOI211XL
*I *489:S0 I *C 113.85 42.84 *L 0.00612 *D MXI2XL
*I *456:S0 I *C 110.55 47.88 *L 0.00672 *D MXI2X1

*CAP
1 *535:Y 0.000139842
2 *519:C0 6.32978e-05
3 *489:S0 0.000139842
4 *456:S0 0.000139842
5 *358:4 0.000177778
6 *358:5 0.000162991
7 *358:6 0.000239092
8 *358:7 0.000184221
9 *358:8 0.000139809
10 *358:9 7.01177e-05
11 *358:10 0.00080851
12 *358:11 0.00107439
13 *358:12 0.000224436
14 *358:13 0.000322128
15 *358:14 0.00028634
16 *358:15 0.0002607
17 *358:16 0.000181565
18 *358:17 0.000172237
19 *358:18 0.000212501
20 *358:19 0.000182368
21 *358:13 *348:29 5.913e-05
22 *358:11 *348:30 5.913e-05
23 *358:11 *348:29 2.377e-05
24 *358:10 *348:30 2.377e-05
25 *358:11 *348:30 0.00017613
26 *358:10 *348:31 0.00017613
27 *358:4 *348:27 4.151e-05
28 *358:5 *348:28 4.151e-05
29 *358:6 *348:32 9.868e-05
30 *358:7 *348:33 9.86800079e-05

*RES
1 *358:19 *489:S0 3.2
2 *358:17 *358:19 0.367676
3 *358:17 *358:18 0.467969
4 *358:14 *358:18 0.551562
5 *358:15 *456:S0 3.2
6 *358:14 *358:15 0.936035
7 *358:16 *358:15 3.2
8 *358:12 *358:16 0.551562
9 *358:9 *535:Y 3.2
10 *358:12 *358:13 0.312012
11 *358:9 *358:8 0.155957
12 *358:11 *358:13 1.28701
13 *358:11 *358:8 3.2
14 *358:5 *519:C0 6.4000001
15 *358:10 *358:11 3.86104
16 *358:5 *358:4 0.624023
17 *358:6 *358:10 3.2
18 *358:7 *358:4 0.183887
19 *358:7 *358:6 1.09199
*END

*D_NET *359 0.000844217

*CONN
*I *489:Y O *C 115.83 43.96 *L 0 *D MXI2XL
*I *472:D I *C 115.17 38.36 *L 0.00206 *D DFFRX1

*CAP
1 *489:Y 0.000139838
2 *472:D 6.33023e-05
3 *359:2 0.000242088
4 *359:3 0.00025689
5 *359:4 0.0001421

*RES
1 *359:4 *489:Y 3.2
2 *359:3 *359:4 0.183887
3 *359:2 *359:3 1.09199
4 *472:D *359:2 6.4000001
*END

*D_NET *360 0.00350811

*CONN
*I *488:Y O *C 122.43 66.92 *L 0 *D AOI21XL
*I *464:D I *C 130.35 87.08 *L 0.00184 *D DFFRHQX1

*CAP
1 *488:Y 3.98625e-05
2 *464:D 6.53398e-06
3 *360:2 0.000531176
4 *360:3 0.000531176
5 *360:4 0.00051303
6 *360:5 0.00056791
7 *360:6 7.51927e-05
8 *360:7 0.000256723
9 *360:8 0.000256723
10 *360:9 4.10237e-05
11 *360:10 1.96713e-05
12 *360:11 4.18729e-05
13 *360:12 4.43686e-05
14 *360:8 *53:151 0.00011333
15 *360:7 *53:152 0.00011333
16 *360:4 *53:153 7.091e-05
17 *360:5 *53:154 7.09099955e-05
18 *360:8 *372:14 1.463e-05
19 *360:7 *372:15 1.463e-05
20 *360:2 *372:10 9.256e-05
21 *360:3 *372:11 9.25599968e-05

*RES
1 *360:11 *464:D 0.0356445
2 *360:12 *360:11 6.4000001
3 *360:10 *360:12 0.0863281
4 *360:9 *360:10 0.00419922
5 *360:4 *360:9 0.183887
6 *360:5 *360:4 2.80801
7 *360:8 *360:5 3.2
8 *360:7 *360:8 1.65469
9 *360:2 *360:7 3.2
10 *360:3 *360:2 2.34004
11 *360:6 *360:3 3.2
12 *488:Y *360:6 0.223828
*END

*D_NET *361 0.00186072

*CONN
*I *487:Y O *C 86.79 87.08 *L 0 *D AOI21XL
*I *463:D I *C 82.83 94.36 *L 0.00184 *D DFFRHQX1

*CAP
1 *487:Y 0.000139842
2 *463:D 6.33026e-05
3 *361:2 0.00051147
4 *361:3 0.000456721
5 *361:4 0.000120603
6 *361:5 0.000248122
7 *361:6 0.000248122
8 *361:7 7.25509e-05

*RES
1 *361:7 *487:Y 3.2
2 *361:3 *361:7 0.183887
3 *361:3 *361:2 1.55996
4 *361:6 *361:2 3.2
5 *361:5 *361:6 0.919238
6 *361:4 *361:5 3.2
7 *463:D *361:4 6.4000001
*END

*D_NET *362 0.0014643

*CONN
*I *486:Y O *C 86.79 97.16 *L 0 *D AOI21XL
*I *462:D I *C 84.81 107.24 *L 0.00184 *D DFFRHQX1

*CAP
1 *486:Y 0.000139839
2 *462:D 6.32965e-05
3 *362:2 6.57232e-05
4 *362:3 0.00048934
5 *362:4 0.000489213
6 *362:5 7.21746e-05
7 *362:6 7.21746e-05
8 *362:7 7.25479e-05

*RES
1 *362:7 *486:Y 3.2
2 *362:5 *362:7 0.183887
3 *362:5 *362:6 0.155957
4 *362:3 *362:6 0.183887
5 *362:3 *362:4 2.18398
6 *362:2 *362:4 0.183887
7 *462:D *362:2 6.4000001
*END

*D_NET *363 0.00308801

*CONN
*I *485:Y O *C 72.93 54.04 *L 0 *D AOI21XL
*I *465:D I *C 68.97 33.88 *L 0.00184 *D DFFRHQX1

*CAP
1 *485:Y 0.000160383
2 *465:D 6.33007e-05
3 *363:2 0.000459983
4 *363:3 0.000515047
5 *363:4 0.000839487
6 *363:5 0.000195715
7 *363:6 0.00085411

*RES
1 *363:5 *485:Y 0.895312
2 *363:6 *363:5 3.2
3 *363:4 *363:6 3.12002
4 *363:3 *363:4 0.367676
5 *363:2 *363:3 2.02803
6 *465:D *363:2 6.4000001
*END

*D_NET *364 0.0104177

*CONN
*I *499:Y O *C 111.21 68.04 *L 0 *D NOR2X1
*I *487:A1 I *C 84.81 87.64 *L 0.00314 *D AOI21XL
*I *486:A1 I *C 84.81 97.72 *L 0.00314 *D AOI21XL
*I *484:A1 I *C 117.15 97.72 *L 0.00314 *D AOI21XL
*I *480:A1 I *C 110.55 97.72 *L 0.00314 *D AOI21XL

*CAP
1 *499:Y 0.000139833
2 *487:A1 0.000139833
3 *486:A1 0.000139833
4 *484:A1 0.000139833
5 *480:A1 6.33033e-05
6 *364:5 0.000106701
7 *364:6 0.000106701
8 *364:7 0.000579654
9 *364:8 0.00051878
10 *364:9 0.000504055
11 *364:10 0.00049525
12 *364:11 0.000603507
13 *364:12 0.000658707
14 *364:13 0.000384203
15 *364:14 0.000384203
16 *364:15 0.000399289
17 *364:16 0.000399289
18 *364:17 0.000106113
19 *364:18 0.0011954
20 *364:19 0.00124358
21 *364:20 0.000476255
22 *364:21 5.09311e-05
23 *364:22 0.000531133
24 *364:23 0.00012061
25 *364:24 0.00012061
26 *364:13 *222:6 9.456e-05
27 *364:14 *222:7 9.456e-05
28 *364:13 *222:7 0.00021533
29 *364:14 *222:8 0.000215330005
30 *364:7 *385:12 9.515e-05
31 *364:8 *385:9 9.51500031e-05

*RES
1 *364:24 *484:A1 3.2
2 *364:23 *499:Y 3.2
3 *364:21 *480:A1 6.4000001
4 *364:13 *364:24 3.2
5 *364:5 *364:23 3.2
6 *364:14 *364:21 6.4000001
7 *364:14 *364:13 1.83857
8 *364:6 *364:5 0.367676
9 *364:22 *364:14 3.2
10 *364:19 *364:6 3.2
11 *364:20 *364:22 2.34004
12 *364:19 *364:18 5.77197
13 *364:18 *364:20 0.183887
14 *364:7 *364:18 3.2
15 *364:8 *364:7 2.75781
16 *364:8 *364:15 0.155957
17 *364:16 *364:15 1.83857
18 *364:9 *364:16 0.155957
19 *364:11 *486:A1 3.2
20 *364:10 *364:9 2.39014
21 *364:12 *364:11 2.34004
22 *364:12 *364:10 3.2
23 *364:17 *364:12 0.467969
24 *487:A1 *364:17 3.2
*END

*D_NET *365 0.00231548

*CONN
*I *484:Y O *C 119.13 97.16 *L 0 *D AOI21XL
*I *460:D I *C 131.01 97.16 *L 0.00184 *D DFFRHQX1

*CAP
1 *484:Y 0.000123598
2 *460:D 6.33027e-05
3 *365:2 9.56063e-05
4 *365:3 0.000173673
5 *365:4 0.000224123
6 *365:5 0.000146056
7 *365:6 0.0005445
8 *365:7 0.0005445
9 *365:8 0.000158926
10 *365:9 0.000120598
11 *365:10 0.000120598

*RES
1 *365:10 *460:D 6.4000001
2 *365:4 *365:10 3.2
3 *365:5 *365:4 0.367676
4 *365:6 *365:5 0.0780273
5 *365:7 *365:6 2.02246
6 *365:7 *365:2 0.0780273
7 *365:3 *365:2 0.367676
8 *365:9 *365:3 3.2
9 *365:8 *365:9 3.2
10 *484:Y *365:8 0.671484
*END

*D_NET *366 0.013153

*CONN
*I *498:Y O *C 108.57 47.88 *L 0 *D NOR2X1
*I *488:A1 I *C 120.45 67.48 *L 0.00314 *D AOI21XL
*I *485:A1 I *C 74.91 53.48 *L 0.00314 *D AOI21XL
*I *482:A1 I *C 125.07 53.48 *L 0.00314 *D AOI21XL
*I *481:A1 I *C 63.03 47.32 *L 0.00314 *D AOI21XL

*CAP
1 *498:Y 3.98465e-05
2 *488:A1 0.000139828
3 *485:A1 0.000139828
4 *482:A1 3.98669e-05
5 *481:A1 0.000139828
6 *366:5 6.78122e-05
7 *366:6 6.78122e-05
8 *366:7 0.000387194
9 *366:8 0.000353034
10 *366:9 0.000384026
11 *366:10 0.0005663
12 *366:11 0.00133096
13 *366:12 0.00080341
14 *366:13 0.000342758
15 *366:14 0.000412438
16 *366:15 0.000314345
17 *366:16 0.000314345
18 *366:17 0.000247223
19 *366:18 0.000446801
20 *366:19 0.000480961
21 *366:20 0.000619327
22 *366:21 0.00037968
23 *366:22 0.000422552
24 *366:23 0.000194277
25 *366:24 0.000194277
26 *366:25 0.00015173
27 *366:26 0.000139828
28 *366:27 0.000154654
29 *366:28 0.000580496
30 *366:29 0.000580496
31 *366:30 0.000497391
32 *366:31 0.000349825
33 *366:32 0.000120596
34 *366:33 0.000120596
35 *366:34 0.000213287
36 *366:35 0.000120596
37 *366:36 0.000151709
38 *366:37 0.000120596
39 *366:38 7.71341e-05
40 *366:39 7.71545e-05
41 *366:10 *348:29 0.00015636
42 *366:17 *348:30 0.00015636
43 *366:18 *348:30 0.0001413
44 *366:19 *348:31 0.0001413
45 *366:7 *348:30 4.599e-05
46 *366:8 *348:31 4.599e-05
47 *366:7 *348:31 6.159e-05
48 *366:8 *348:36 6.159e-05
49 *366:23 *348:30 2.884e-05
50 *366:24 *348:31 2.8840014e-05

*RES
1 *366:6 *488:A1 3.2
2 *366:6 *366:5 0.155988
3 *366:39 *482:A1 0.223807
4 *366:35 *366:5 3.2
5 *366:38 *366:39 0.189922
6 *366:26 *366:35 3.2
7 *366:36 *366:38 0.223807
8 *366:27 *366:26 0.624002
9 *366:37 *366:36 3.2
10 *366:28 *366:27 0.183863
11 *366:15 *366:37 3.2
12 *366:29 *366:28 2.652
13 *366:16 *366:15 0.919263
14 *366:29 *366:34 0.183863
15 *366:30 *366:16 3.2
16 *366:30 *366:34 0.935978
17 *366:31 *366:30 1.248
18 *366:21 *366:31 3.2
19 *366:22 *366:21 1.83858
20 *498:Y *366:25 0.223807
21 *366:9 *366:22 0.311976
22 *366:33 *366:25 3.2
23 *366:10 *366:9 1.28699
24 *366:10 *366:33 3.2
25 *366:17 *366:10 1.47085
26 *366:18 *366:17 0.155988
27 *366:19 *366:18 2.57398
28 *366:23 *366:19 0.311976
29 *366:24 *366:23 0.735451
30 *366:24 *366:7 0.311976
31 *366:13 *485:A1 3.2
32 *366:8 *366:7 2.02244
33 *366:14 *366:13 1.71602
34 *366:8 *366:20 0.155988
35 *366:11 *366:14 3.2
36 *366:11 *366:20 2.75784
37 *366:12 *366:11 3.30942845
38 *366:32 *366:12 3.2
39 *481:A1 *366:32 3.2
*END

*D_NET *367 0.000721389

*CONN
*I *482:Y O *C 127.05 54.04 *L 0 *D AOI21XL
*I *466:D I *C 131.01 54.04 *L 0.00184 *D DFFRHQX1

*CAP
1 *482:Y 0.000123599
2 *466:D 6.3299e-05
3 *367:2 0.00015893
4 *367:3 0.00022262
5 *367:4 0.000152941

*RES
1 *367:4 *466:D 6.4000001
2 *367:3 *367:4 0.551562
3 *367:2 *367:3 3.2
4 *482:Y *367:2 0.671484
*END

*D_NET *368 0.00531498

*CONN
*I *481:Y O *C 65.01 46.76 *L 0 *D AOI21XL
*I *467:D I *C 24.75 43.96 *L 0.00184 *D DFFRHQX1

*CAP
1 *481:Y 6.32973e-05
2 *467:D 6.32973e-05
3 *368:2 0.000120603
4 *368:3 0.000881665
5 *368:4 0.00089036
6 *368:5 0.000339379
7 *368:6 0.000339379
8 *368:7 0.000863922
9 *368:8 0.000175871
10 *368:9 0.000855213
11 *368:10 0.000106202
12 *368:9 *104:5 0.00015873
13 *368:7 *104:6 0.00015873
14 *368:10 *104:7 1.392e-05
15 *368:8 *104:8 1.39199866e-05
16 *368:9 *53:124 7.628e-05
17 *368:7 *53:125 7.628e-05
18 *368:9 *53:126 4.634e-05
19 *368:7 *53:127 4.634e-05
20 *368:4 *53:128 1.263e-05
21 *368:3 *53:129 1.26300068e-05

*RES
1 *368:10 *481:Y 6.4000001
2 *368:8 *368:10 0.467969
3 *368:9 *368:8 3.2
4 *368:7 *368:9 5.14805
5 *368:6 *368:7 0.155957
6 *368:5 *368:6 1.65469
7 *368:4 *368:5 0.155957
8 *368:3 *368:4 4.4126
9 *368:2 *368:3 3.2
10 *467:D *368:2 6.4000001
*END

*D_NET *369 0.00147826

*CONN
*I *480:Y O *C 112.53 97.16 *L 0 *D AOI21XL
*I *461:D I *C 111.87 107.24 *L 0.00184 *D DFFRHQX1

*CAP
1 *480:Y 0.000139839
2 *461:D 6.33011e-05
3 *369:2 6.57205e-05
4 *369:3 0.000146438
5 *369:4 0.00016124
6 *369:5 0.000144771
7 *369:6 0.000144771
8 *369:7 0.00030609
9 *369:8 0.00030609

*RES
1 *369:3 *480:Y 3.2
2 *369:3 *369:4 0.624023
3 *369:4 *369:7 0.183887
4 *369:7 *369:8 1.24805
5 *369:5 *369:8 0.183887
6 *369:5 *369:6 0.467969
7 *369:2 *369:6 0.183887
8 *461:D *369:2 6.4000001
*END

*D_NET *370 0.0121697

*CONN
*I *502:Y O *C 98.67 52.92 *L 0 *D NOR2X1
*I *488:A0 I *C 121.11 68.04 *L 0.00314 *D AOI21XL
*I *480:A0 I *C 111.21 98.28 *L 0.00314 *D AOI21XL
*I *477:A0 I *C 119.79 73.08 *L 0.00314 *D AOI21XL
*I *471:A0 I *C 101.31 98.28 *L 0.00314 *D AOI21XL

*CAP
1 *502:Y 0.000175184
2 *488:A0 0.000139837
3 *480:A0 0.000139837
4 *477:A0 0.000139837
5 *471:A0 0.000139837
6 *370:5 9.2087e-05
7 *370:6 9.87593e-05
8 *370:7 0.000210506
9 *370:8 6.78174e-05
10 *370:9 6.78174e-05
11 *370:10 0.000253163
12 *370:11 0.000253163
13 *370:12 6.07632e-05
14 *370:13 6.07632e-05
15 *370:14 0.000223571
16 *370:15 0.000293324
17 *370:16 0.00045878
18 *370:17 0.00045878
19 *370:18 9.18578e-05
20 *370:19 0.000126212
21 *370:20 0.000187205
22 *370:21 0.000259912
23 *370:22 0.000259912
24 *370:23 0.000430894
25 *370:24 0.000350649
26 *370:25 0.00159589
27 *370:26 0.00166895
28 *370:27 0.000118649
29 *370:28 0.000104362
30 *370:29 0.000124812
31 *370:30 5.51351e-05
32 *370:31 0.000507472
33 *370:32 0.000507472
34 *370:33 0.000538694
35 *370:34 0.000613718
36 *370:35 0.000126594
37 *370:36 9.97525e-05
38 *370:37 0.00012061
39 *370:38 0.00012061
40 *370:31 *381:25 7.613e-05
41 *370:32 *381:24 7.613e-05
42 *370:31 *381:24 8.493e-05
43 *370:32 *381:21 8.493e-05
44 *370:21 *381:19 8.297e-05
45 *370:22 *381:20 8.297e-05
46 *370:33 *381:19 0.00014169
47 *370:34 *381:20 0.00014169
48 *370:35 *381:28 6.68e-06
49 *370:36 *381:27 6.68e-06
50 *370:12 *381:7 2.089e-05
51 *370:13 *381:8 2.08899876e-05

*RES
1 *370:9 *471:A0 3.20003
2 *370:9 *370:8 0.155957
3 *370:20 *370:8 3.20003
4 *370:11 *488:A0 3.20003
5 *370:20 *370:19 0.367741
6 *370:11 *370:10 0.935967
7 *370:19 *370:17 0.155957
8 *370:35 *370:10 3.20003
9 *370:30 *480:A0 3.20003
10 *370:17 *370:16 2.02241
11 *370:12 *477:A0 3.20003
12 *370:36 *370:35 0.183815
13 *370:30 *370:29 0.155957
14 *370:18 *370:16 0.155957
15 *370:13 *370:12 0.155957
16 *370:36 *370:28 0.312026
17 *370:15 *370:29 3.20003
18 *370:18 *370:15 0.367741
19 *370:23 *370:13 3.20003
20 *370:23 *370:28 0.183815
21 *370:15 *370:14 0.919297
22 *370:24 *370:23 1.47085
23 *370:25 *370:14 3.20003
24 *370:26 *370:24 3.20003
25 *370:26 *370:25 7.33199978
26 *370:27 *370:26 0.467983
27 *370:21 *370:27 0.0919633
28 *370:22 *370:21 1.56002
29 *370:33 *370:22 0.0919633
30 *370:34 *370:33 2.80801
31 *370:31 *370:34 3.20003
32 *370:32 *370:31 3.49326
33 *370:38 *370:32 3.20003
34 *370:37 *370:38 3.20003
35 *370:5 *370:37 3.20003
36 *370:6 *370:5 0.312026
37 *370:7 *370:6 6.39995
38 *502:Y *370:7 0.895355
*END

*D_NET *371 0.00120593

*CONN
*I *477:Y O *C 121.11 74.2 *L 0 *D AOI21XL
*I *454:D I *C 115.83 77 *L 0.00184 *D DFFRHQX1

*CAP
1 *477:Y 3.73017e-05
2 *454:D 6.32991e-05
3 *371:2 0.000186504
4 *371:3 0.000236751
5 *371:4 0.00031727
6 *371:5 9.02405e-05
7 *371:6 0.000182359
8 *371:7 9.22109e-05

*RES
1 *477:Y *371:7 0.189941
2 *371:5 *371:7 0.223828
3 *371:6 *371:5 3.2
4 *371:3 *371:6 0.367676
5 *371:3 *371:4 0.624023
6 *371:2 *371:4 0.735449
7 *454:D *371:2 6.4000001
*END

*D_NET *372 0.0109743

*CONN
*I *505:Y O *C 119.13 52.92 *L 0 *D NOR2X1
*I *484:A0 I *C 117.81 98.28 *L 0.00314 *D AOI21XL
*I *482:A0 I *C 125.73 52.92 *L 0.00314 *D AOI21XL
*I *476:A0 I *C 124.41 68.04 *L 0.00314 *D AOI21XL
*I *470:A0 I *C 114.51 98.28 *L 0.00314 *D AOI21XL

*CAP
1 *505:Y 0.000139828
2 *484:A0 0.000139828
3 *482:A0 0.000139828
4 *476:A0 0.000139828
5 *470:A0 0.000139828
6 *372:5 0.000368436
7 *372:6 0.000543609
8 *372:7 0.000122032
9 *372:8 0.00019171
10 *372:9 0.000188583
11 *372:10 0.000395546
12 *372:11 0.000325868
13 *372:12 0.00011715
14 *372:13 0.000186828
15 *372:14 0.000482526
16 *372:15 0.000482526
17 *372:16 0.000263975
18 *372:17 0.000183948
19 *372:18 5.09141e-05
20 *372:19 0.00048743
21 *372:20 0.000432534
22 *372:21 0.000177221
23 *372:22 0.00147444
24 *372:23 0.00140321
25 *372:24 0.000608337
26 *372:25 0.000608337
27 *372:26 0.000320806
28 *372:27 0.000361056
29 *372:28 0.000120592
30 *372:29 0.000163092
31 *372:14 *360:8 1.463e-05
32 *372:15 *360:7 1.463e-05
33 *372:10 *360:2 9.256e-05
34 *372:11 *360:3 9.25599968e-05

*RES
1 *372:7 *482:A0 3.20002
2 *372:8 *372:7 0.467986
3 *372:12 *505:Y 3.20002
4 *372:5 *372:8 3.20002
5 *372:13 *372:12 0.312024
6 *372:6 *372:5 1.83855
7 *372:6 *372:13 3.20002
8 *372:9 *372:6 0.73542
9 *372:19 *372:9 3.20002
10 *372:19 *372:20 2.028
11 *372:20 *372:24 0.183855
12 *372:11 *476:A0 3.20002
13 *372:24 *372:25 2.65195
14 *372:11 *372:10 1.87204
15 *372:25 *372:26 0.183855
16 *372:14 *372:10 3.20002
17 *372:26 *372:27 1.40396
18 *372:15 *372:14 2.20626
19 *372:21 *372:27 0.36771
20 *372:28 *484:A0 3.20002
21 *372:22 *372:15 3.20002
22 *372:21 *372:22 0.467986
23 *372:29 *372:28 3.20002
24 *372:22 *372:23 6.55200005
25 *372:16 *372:29 0.36771
26 *372:16 *372:23 3.20002
27 *372:17 *372:16 0.551565
28 *372:18 *372:17 6.40004
29 *470:A0 *372:18 3.20002
*END

*D_NET *373 0.00122989

*CONN
*I *476:Y O *C 125.73 66.92 *L 0 *D AOI21XL
*I *452:D I *C 131.01 66.92 *L 0.00184 *D DFFRHQX1

*CAP
1 *476:Y 0.000201181
2 *452:D 6.32999e-05
3 *373:2 0.00023848
4 *373:3 7.85108e-05
5 *373:4 7.65385e-05
6 *373:5 0.00018236
7 *373:6 0.000167229
8 *373:7 0.00022229

*RES
1 *373:6 *452:D 6.4000001
2 *373:6 *373:7 0.624023
3 *373:5 *373:7 0.367676
4 *373:4 *373:5 3.2
5 *373:3 *373:4 0.223828
6 *373:2 *373:3 0.189941
7 *476:Y *373:2 1.11914
*END

*D_NET *374 0.014249

*CONN
*I *503:Y O *C 92.73 47.88 *L 0 *D NOR2X1
*I *486:A0 I *C 85.47 98.28 *L 0.00314 *D AOI21XL
*I *481:A0 I *C 63.69 47.88 *L 0.00314 *D AOI21XL
*I *475:A0 I *C 74.25 98.28 *L 0.00314 *D AOI21XL
*I *469:A0 I *C 63.69 52.92 *L 0.00314 *D AOI21XL

*CAP
1 *503:Y 0.000139835
2 *486:A0 6.33202e-05
3 *481:A0 0.000139835
4 *475:A0 0.000139835
5 *469:A0 0.000139835
6 *374:5 0.000136355
7 *374:6 0.000129672
8 *374:7 0.000158886
9 *374:8 0.00010411
10 *374:9 0.000761806
11 *374:10 0.000734969
12 *374:11 0.00123027
13 *374:12 0.00099104
14 *374:13 0.000224687
15 *374:14 0.000373582
16 *374:15 0.000162297
17 *374:16 0.000679021
18 *374:17 0.000307265
19 *374:18 0.000385158
20 *374:19 7.00381e-05
21 *374:20 5.5121e-05
22 *374:21 0.00225772
23 *374:22 0.00220284
24 *374:23 0.000177937
25 *374:24 0.000123058
26 *374:25 0.000454507
27 *374:26 0.000454507
28 *374:27 0.000365211
29 *374:28 0.000120612
30 *374:21 *386:27 2.37e-05
31 *374:22 *386:28 2.37e-05
32 *374:26 *386:24 2.947e-05
33 *374:25 *386:25 2.947e-05
34 *374:26 *386:25 2.347e-05
35 *374:25 *386:26 2.347e-05
36 *374:24 *386:25 1.714e-05
37 *374:23 *386:26 1.714e-05
38 *374:21 *386:29 0.00010169
39 *374:22 *386:30 0.00010169
40 *374:27 *386:12 0.00015396
41 *374:11 *386:13 0.00015396
42 *374:27 *386:14 3.182e-05
43 *374:11 *386:15 3.182e-05
44 *374:11 *386:14 6.334e-05
45 *374:12 *386:15 6.334e-05
46 *374:9 *386:8 3.83e-05
47 *374:10 *386:9 3.82999932e-05

*RES
1 *374:20 *486:A0 6.40002
2 *374:20 *374:19 0.156043
3 *374:6 *475:A0 3.19992
4 *374:8 *374:19 0.183846
5 *374:6 *374:5 0.467955
6 *374:8 *374:7 0.312086
7 *374:17 *374:5 6.40002
8 *374:18 *374:7 3.19992
9 *374:17 *374:16 1.28692
10 *374:16 *374:18 1.65478
11 *374:21 *374:16 3.19992
12 *374:22 *374:21 11.3879995
13 *374:22 *374:26 0.183846
14 *374:28 *503:Y 3.19992
15 *374:25 *374:26 2.18408
16 *374:9 *374:28 3.19992
17 *374:24 *374:25 0.183846
18 *374:10 *374:9 2.02248
19 *374:23 *374:24 0.467955
20 *374:10 *374:27 0.312086
21 *374:11 *374:23 3.19992
22 *374:11 *374:27 1.83863
23 *374:13 *469:A0 3.19992
24 *374:12 *374:11 4.2288
25 *374:14 *374:13 0.936083
26 *374:14 *374:12 3.19992
27 *374:15 *374:14 0.467955
28 *481:A0 *374:15 3.19992
*END

*D_NET *375 0.00177877

*CONN
*I *475:Y O *C 75.57 97.16 *L 0 *D AOI21XL
*I *448:D I *C 68.97 104.44 *L 0.00184 *D DFFRHQX1

*CAP
1 *475:Y 0.00013984
2 *448:D 6.3296e-05
3 *375:2 0.000186497
4 *375:3 0.00043151
5 *375:4 0.000390588
6 *375:5 0.000166461
7 *375:6 0.000328029
8 *375:7 7.25471e-05

*RES
1 *375:7 *475:Y 3.2
2 *375:5 *375:7 0.183887
3 *375:5 *375:6 0.467969
4 *375:3 *375:6 0.919238
5 *375:3 *375:4 1.09199
6 *375:2 *375:4 0.735449
7 *448:D *375:2 6.4000001
*END

*D_NET *376 0.0118214

*CONN
*I *506:Y O *C 92.73 52.92 *L 0 *D NOR2X1
*I *487:A0 I *C 85.47 88.2 *L 0.00314 *D AOI21XL
*I *485:A0 I *C 74.25 52.92 *L 0.00314 *D AOI21XL
*I *474:A0 I *C 68.97 83.16 *L 0.00314 *D AOI21XL
*I *468:A0 I *C 67.65 52.92 *L 0.00314 *D AOI21XL

*CAP
1 *506:Y 4.38654e-05
2 *487:A0 6.33091e-05
3 *485:A0 0.000139854
4 *474:A0 0.000139854
5 *468:A0 0.000139854
6 *376:5 0.000463896
7 *376:6 0.000541993
8 *376:7 0.000469079
9 *376:8 0.000345799
10 *376:9 0.000922521
11 *376:10 0.000930193
12 *376:11 0.000259005
13 *376:12 0.000328698
14 *376:13 0.000323925
15 *376:14 0.000323925
16 *376:15 0.000139913
17 *376:16 0.000209605
18 *376:17 0.000296809
19 *376:18 0.000296809
20 *376:19 0.000113705
21 *376:20 0.000122519
22 *376:21 0.000397747
23 *376:22 0.000388932
24 *376:23 0.00191904
25 *376:24 0.00151608
26 *376:25 5.09226e-05
27 *376:26 0.000523574
28 *376:27 0.000120586
29 *376:28 0.000155755
30 *376:29 6.68523e-05
31 *376:30 6.68523e-05

*RES
1 *376:15 *487:A0 6.39999
2 *376:16 *376:15 0.46799
3 *376:19 *376:16 3.20005
4 *376:20 *376:19 0.551537
5 *376:20 *376:17 0.156033
6 *506:Y *376:28 0.223812
7 *376:13 *474:A0 3.20005
8 *376:18 *376:17 1.28703
9 *376:29 *376:28 3.20005
10 *376:14 *376:13 1.24805
11 *376:21 *376:18 0.156033
12 *376:29 *376:30 0.156033
13 *376:12 *376:14 3.20005
14 *376:22 *376:21 1.83857
15 *376:9 *376:30 3.20005
16 *376:12 *376:11 0.919337
17 *376:26 *376:22 3.20005
18 *376:10 *376:9 3.49329
19 *376:23 *376:11 3.20005
20 *376:23 *376:26 2.18403
21 *376:27 *485:A0 3.20005
22 *376:5 *376:10 0.46799
23 *376:24 *376:23 7.17600012
24 *376:6 *376:27 3.20005
25 *376:6 *376:5 1.83857
26 *376:7 *376:24 3.20005
27 *376:7 *376:6 0.551537
28 *376:8 *376:7 1.28703
29 *376:25 *376:8 6.39999
30 *468:A0 *376:25 3.20005
*END

*D_NET *377 0.00228724

*CONN
*I *474:Y O *C 70.29 84.28 *L 0 *D AOI21XL
*I *451:D I *C 55.11 84.28 *L 0.00184 *D DFFRHQX1

*CAP
1 *474:Y 6.32992e-05
2 *451:D 6.32992e-05
3 *377:2 0.000120604
4 *377:3 0.00099456
5 *377:4 5.09155e-05
6 *377:5 0.00099456

*RES
1 *377:4 *474:Y 6.4000001
2 *377:5 *377:4 6.4000001
3 *377:3 *377:5 4.22871
4 *377:2 *377:3 3.2
5 *451:D *377:2 6.4000001
*END

*D_NET *378 0.0144247

*CONN
*I *495:Y O *C 113.19 68.04 *L 0 *D NOR2X1
*I *475:A1 I *C 73.59 97.72 *L 0.00314 *D AOI21XL
*I *474:A1 I *C 68.31 83.72 *L 0.00314 *D AOI21XL
*I *471:A1 I *C 100.65 97.72 *L 0.00314 *D AOI21XL
*I *470:A1 I *C 113.85 97.72 *L 0.00314 *D AOI21XL

*CAP
1 *495:Y 0.000139834
2 *475:A1 0.000430624
3 *474:A1 3.98684e-05
4 *471:A1 7.97369e-05
5 *470:A1 0.000139834
6 *378:5 0.00018627
7 *378:6 0.00018627
8 *378:7 0.00108177
9 *378:8 0.00103355
10 *378:9 0.000673311
11 *378:10 0.000873792
12 *378:11 0.000205563
13 *378:12 0.00132403
14 *378:13 0.00133237
15 *378:14 0.000256858
16 *378:15 0.000256858
17 *378:16 0.000465958
18 *378:17 0.000160856
19 *378:18 0.000105984
20 *378:19 0.000154452
21 *378:20 0.00019674
22 *378:21 0.000141847
23 *378:22 0.00112298
24 *378:23 0.00112298
25 *378:24 0.000468967
26 *378:25 0.000454187
27 *378:26 7.52031e-05
28 *378:27 0.00018263
29 *378:28 0.000115051
30 *378:29 0.000120601
31 *378:30 0.000120601
32 *378:31 7.24178e-05
33 *378:14 *111:9 5.2e-05
34 *378:15 *111:8 5.2e-05
35 *378:14 *111:8 1.889e-05
36 *378:15 *111:6 1.889e-05
37 *378:12 *111:8 0.00015222
38 *378:13 *111:6 0.000152219999
39 *378:9 *81:3 0.00023978
40 *378:10 *81:4 0.00023978
41 *378:10 *81:3 8.843e-05
42 *378:11 *81:4 8.84300013e-05

*RES
1 *378:29 *495:Y 3.20002
2 *378:30 *378:29 3.20002
3 *378:25 *378:30 3.20002
4 *378:25 *378:24 1.872
5 *378:23 *378:24 0.183812
6 *378:17 *470:A1 3.20002
7 *378:23 *378:22 5.30404
8 *378:28 *471:A1 0.44765
9 *378:18 *378:17 0.467975
10 *378:22 *378:21 0.183812
11 *378:5 *378:28 3.20002
12 *378:31 *378:18 0.183812
13 *378:21 *378:20 0.467975
14 *378:6 *378:5 0.467975
15 *378:9 *378:31 3.20002
16 *378:9 *378:20 3.20002
17 *378:10 *378:6 3.20002
18 *378:10 *378:9 3.86104
19 *378:11 *378:10 1.28698
20 *378:11 *378:14 0.0779631
21 *378:15 *378:14 1.47089
22 *378:16 *475:A1 2.46212
23 *378:15 *378:12 0.0779631
24 *378:26 *474:A1 0.223874
25 *378:19 *378:16 3.20002
26 *378:13 *378:12 6.43499994
27 *378:27 *378:26 3.20002
28 *378:7 *378:19 0.312049
29 *378:7 *378:13 3.20002
30 *378:8 *378:27 0.367723
31 *378:8 *378:7 3.58797
*END

*D_NET *379 0.00213322

*CONN
*I *471:Y O *C 102.63 97.16 *L 0 *D AOI21XL
*I *450:D I *C 98.01 104.44 *L 0.00184 *D DFFRHQX1

*CAP
1 *471:Y 0.000139838
2 *450:D 6.33024e-05
3 *379:2 0.00049814125
4 *379:3 0.00049814125
5 *379:4 0.0001206
6 *379:5 0.000371765
7 *379:6 0.000441437

*RES
1 *379:3 *471:Y 3.2
2 *379:3 *379:2 1.55996
3 *379:6 *379:2 3.2
4 *379:5 *379:6 1.28701
5 *379:4 *379:5 3.2
6 *450:D *379:4 6.4000001
*END

*D_NET *380 0.00176677

*CONN
*I *470:Y O *C 115.83 97.16 *L 0 *D AOI21XL
*I *449:D I *C 111.87 104.44 *L 0.00184 *D DFFRHQX1

*CAP
1 *470:Y 0.000139842
2 *449:D 6.33021e-05
3 *380:2 0.00015657
4 *380:3 8.68896e-05
5 *380:4 0.000351240391
6 *380:5 0.000351240391
7 *380:6 0.000343678
8 *380:7 0.000274003

*RES
1 *380:3 *470:Y 3.2
2 *380:3 *380:2 0.312012
3 *380:7 *380:2 3.2
4 *380:4 *449:D 6.4000001
5 *380:6 *380:7 1.10312
6 *380:5 *380:4 1.24805
7 *380:5 *380:6 3.2
*END

*D_NET *381 0.011057

*CONN
*I *497:Y O *C 107.91 52.92 *L 0 *D NOR2X1
*I *477:A1 I *C 119.13 73.64 *L 0.00314 *D AOI21XL
*I *476:A1 I *C 123.75 67.48 *L 0.00314 *D AOI21XL
*I *469:A1 I *C 63.03 53.48 *L 0.00314 *D AOI21XL
*I *468:A1 I *C 66.99 53.48 *L 0.00314 *D AOI21XL

*CAP
1 *497:Y 0.000139851
2 *477:A1 0.000139851
3 *476:A1 0.000139851
4 *469:A1 0.000139851
5 *468:A1 0.000139851
6 *381:5 7.1086e-05
7 *381:6 0.000140744
8 *381:7 0.000289105
9 *381:8 0.000289105
10 *381:9 0.0004735
11 *381:10 0.000403813
12 *381:11 0.00013146
13 *381:12 0.00013146
14 *381:13 6.1475e-05
15 *381:14 0.000138512
16 *381:15 0.00013994
17 *381:16 7.02826e-05
18 *381:17 0.0001558
19 *381:18 8.61423e-05
20 *381:19 0.000834851
21 *381:20 0.000834851
22 *381:21 0.00176552
23 *381:22 0.000120599
24 *381:23 0.000120599
25 *381:24 0.00195003
26 *381:25 0.000267592
27 *381:26 0.000267056
28 *381:27 0.000437912
29 *381:28 0.000229118
30 *381:29 0.000120599
31 *381:25 *370:31 7.613e-05
32 *381:24 *370:32 7.613e-05
33 *381:24 *370:31 8.493e-05
34 *381:21 *370:32 8.493e-05
35 *381:19 *370:21 8.297e-05
36 *381:20 *370:22 8.297e-05
37 *381:19 *370:33 0.00014169
38 *381:20 *370:34 0.00014169
39 *381:28 *370:35 6.68e-06
40 *381:27 *370:36 6.68e-06
41 *381:7 *370:12 2.089e-05
42 *381:8 *370:13 2.08899876e-05

*RES
1 *381:29 *476:A1 3.19992
2 *381:13 *381:29 3.19992
3 *381:7 *477:A1 3.19992
4 *381:14 *381:13 0.183852
5 *381:8 *381:7 1.248
6 *381:14 *381:28 0.468065
7 *381:27 *381:8 3.19992
8 *381:27 *381:28 1.10311
9 *381:26 *381:27 1.10311
10 *381:22 *497:Y 3.19992
11 *381:19 *381:26 3.19992
12 *381:23 *381:22 3.19992
13 *381:20 *381:19 4.36808
14 *381:18 *381:23 3.19992
15 *381:25 *381:20 3.19992
16 *381:18 *381:17 0.312043
17 *381:24 *381:25 2.02237
18 *381:24 *381:17 3.19992
19 *381:21 *381:24 11.3991432
20 *381:12 *468:A1 3.19992
21 *381:16 *381:21 3.19992
22 *381:12 *381:11 0.156022
23 *381:16 *381:15 0.156022
24 *381:9 *381:11 3.19992
25 *381:9 *381:15 3.19992
26 *381:10 *381:9 1.10311
27 *381:5 *381:10 6.40002
28 *381:6 *381:5 0.156022
29 *469:A1 *381:6 3.19992
*END

*D_NET *382 0.00231151

*CONN
*I *469:Y O *C 65.01 54.04 *L 0 *D AOI21XL
*I *455:D I *C 52.47 56.84 *L 0.00184 *D DFFRHQX1

*CAP
1 *469:Y 3.73011e-05
2 *455:D 6.33063e-05
3 *382:2 0.00080465
4 *382:3 0.000734971
5 *382:4 0.000218957
6 *382:5 0.000149278
7 *382:6 9.02446e-05
8 *382:7 0.000120596
9 *382:8 9.22091e-05

*RES
1 *469:Y *382:8 0.189941
2 *382:6 *382:8 0.223828
3 *382:7 *382:6 3.2
4 *382:2 *382:7 3.2
5 *382:5 *455:D 6.4000001
6 *382:3 *382:2 3.12559
7 *382:4 *382:5 0.624023
8 *382:4 *382:3 3.2
*END

*D_NET *383 0.00348108

*CONN
*I *468:Y O *C 68.97 54.04 *L 0 *D AOI21XL
*I *453:D I *C 53.79 43.96 *L 0.00184 *D DFFRHQX1

*CAP
1 *468:Y 0.000139837
2 *453:D 6.33002e-05
3 *383:2 0.000498062
4 *383:3 0.00054114
5 *383:4 0.000354484
6 *383:5 0.000424168
7 *383:6 0.000275669
8 *383:7 0.000318747
9 *383:8 0.000120606
10 *383:2 *217:4 0.00010702
11 *383:3 *217:5 0.000107019999
12 *383:2 *216:8 5.18e-05
13 *383:3 *216:9 5.18e-05
14 *383:7 *216:8 9.545e-05
15 *383:6 *216:9 9.545e-05
16 *383:7 *216:6 3.12e-05
17 *383:6 *216:7 3.11999974e-05
18 *383:5 *54:107 8.706e-05
19 *383:4 *54:108 8.70600021e-05

*RES
1 *383:8 *468:Y 3.2
2 *383:2 *383:8 3.2
3 *383:3 *383:2 2.75781
4 *383:7 *383:3 0.312012
5 *383:6 *383:7 1.4709
6 *383:5 *383:6 3.2
7 *383:4 *383:5 2.02803
8 *453:D *383:4 6.4000001
*END

*D_NET *384 0.00264571

*CONN
*I *459:Y O *C 80.85 54.04 *L 0 *D MXI2X1
*I *446:D I *C 68.31 48.44 *L 0.00206 *D DFFRX1

*CAP
1 *459:Y 0.000139836
2 *446:D 0.000139836
3 *384:2 0.000257892
4 *384:3 0.000257892
5 *384:4 8.70345e-05
6 *384:5 0.000156726
7 *384:6 0.00080324
8 *384:7 0.00080324

*RES
1 *384:4 *459:Y 3.20001
2 *384:5 *384:4 0.311984
3 *384:7 *384:5 3.20001
4 *384:6 *384:7 3.49328566
5 *384:2 *384:6 3.20001
6 *384:3 *384:2 0.779987
7 *446:D *384:3 3.20001
*END

*D_NET *385 0.00346248

*CONN
*I *458:Y O *C 115.17 74.2 *L 0 *D MXI2X1
*I *444:D I *C 107.91 88.76 *L 0.00206 *D DFFRX1

*CAP
1 *458:Y 0.000139842
2 *444:D 0.000139842
3 *385:2 0.000164712
4 *385:3 0.000109648
5 *385:4 0.000271052
6 *385:5 0.000271052
7 *385:6 0.000195587
8 *385:7 0.000235846
9 *385:8 0.000120599
10 *385:9 0.000256219
11 *385:10 0.000299359
12 *385:11 0.00035424
13 *385:12 0.000256219
14 *385:12 *364:7 9.515e-05
15 *385:9 *364:8 9.51500031e-05
16 *385:12 *53:157 0.00010711
17 *385:9 *53:158 0.000107110002
18 *385:4 *95:36 9.96e-06
19 *385:5 *95:34 9.96e-06
20 *385:6 *95:16 8.644e-05
21 *385:7 *95:17 8.644e-05
22 *385:4 *95:18 1.513e-05
23 *385:5 *95:19 1.513e-05
24 *385:2 *95:31 1.034e-05
25 *385:3 *95:30 1.03400017e-05

*RES
1 *385:3 *458:Y 3.20000005
2 *385:3 *385:2 0.468018
3 *385:7 *385:2 0.367725
4 *385:7 *385:6 1.09199
5 *385:6 *385:5 0.183838
6 *385:5 *385:4 1.248
7 *385:10 *385:4 0.183838
8 *385:10 *385:11 1.248
9 *385:12 *385:11 3.20000005
10 *385:9 *385:12 1.65474
11 *385:8 *385:9 3.20000005
12 *444:D *385:8 3.20000005
*END

*D_NET *386 0.0139141

*CONN
*I *493:Y O *C 101.31 48.44 *L 0 *D AOI22X1
*I *459:B I *C 79.53 53.48 *L 0.00389 *D MXI2X1
*I *458:A I *C 116.49 73.64 *L 0.00377 *D MXI2X1
*I *457:A I *C 76.89 73.64 *L 0.00377 *D MXI2X1
*I *456:B I *C 111.21 47.32 *L 0.00389 *D MXI2X1

*CAP
1 *493:Y 6.32919e-05
2 *459:B 0.00013985
3 *458:A 0.00013985
4 *457:A 0.00013985
5 *456:B 0.00013985
6 *386:5 0.000202137
7 *386:6 0.000132463
8 *386:7 0.000644427
9 *386:8 0.00164662
10 *386:9 0.00100722
11 *386:10 0.000258419
12 *386:11 0.000188745
13 *386:12 0.000271107
14 *386:13 0.000271107
15 *386:14 0.000131182
16 *386:15 0.000139574
17 *386:16 0.00012774
18 *386:17 0.00012774
19 *386:18 0.000150604
20 *386:19 0.000150604
21 *386:20 0.000314223
22 *386:21 0.000314223
23 *386:22 6.31663e-05
24 *386:23 6.31663e-05
25 *386:24 0.000249801
26 *386:25 0.000470255
27 *386:26 0.000286183
28 *386:27 0.000173845
29 *386:28 0.000118971
30 *386:29 0.000696111
31 *386:30 0.000696111
32 *386:31 0.000673975
33 *386:32 0.000673975
34 *386:33 0.000338143
35 *386:34 0.000283243
36 *386:35 0.000412264
37 *386:36 0.000412264
38 *386:37 0.000120604
39 *386:38 0.000224876
40 *386:39 0.000170001
41 *386:40 0.000120604
42 *386:27 *374:21 2.37e-05
43 *386:28 *374:22 2.37e-05
44 *386:24 *374:26 2.947e-05
45 *386:25 *374:25 2.947e-05
46 *386:25 *374:26 2.347e-05
47 *386:26 *374:25 2.347e-05
48 *386:25 *374:24 1.714e-05
49 *386:26 *374:23 1.714e-05
50 *386:29 *374:21 0.00010169
51 *386:30 *374:22 0.00010169
52 *386:12 *374:27 0.00015396
53 *386:13 *374:11 0.00015396
54 *386:14 *374:27 3.182e-05
55 *386:15 *374:11 3.182e-05
56 *386:14 *374:11 6.334e-05
57 *386:15 *374:12 6.334e-05
58 *386:8 *374:9 3.83e-05
59 *386:9 *374:10 3.82999932e-05

*RES
1 *386:40 *458:A 3.2
2 *386:20 *386:40 3.2
3 *386:21 *386:20 1.28701
4 *386:33 *386:21 3.2
5 *386:34 *386:33 1.09199
6 *386:35 *386:34 0.183887
7 *386:36 *386:35 1.71602
8 *386:31 *386:36 0.183887
9 *386:32 *386:31 3.12002
10 *386:11 *456:B 3.2
11 *386:32 *386:39 0.183887
12 *386:11 *386:10 0.77998
13 *386:38 *386:39 0.624023
14 *386:6 *493:Y 6.4000001
15 *386:7 *386:10 3.2
16 *386:7 *386:38 3.2
17 *386:6 *386:5 0.467969
18 *386:8 *386:7 2.57402
19 *386:8 *386:5 3.2
20 *386:9 *386:8 4.4126
21 *386:9 *386:12 0.0780273
22 *386:37 *457:A 3.2
23 *386:17 *459:B 3.2
24 *386:13 *386:12 1.83857
25 *386:23 *386:37 3.2
26 *386:17 *386:16 0.155957
27 *386:14 *386:13 0.0780273
28 *386:23 *386:22 0.183887
29 *386:18 *386:16 3.2
30 *386:15 *386:14 0.551562
31 *386:27 *386:22 3.2
32 *386:19 *386:18 0.551562
33 *386:26 *386:15 3.2
34 *386:28 *386:27 0.467969
35 *386:25 *386:19 3.2
36 *386:26 *386:25 1.09199
37 *386:29 *386:28 0.183887
38 *386:25 *386:24 1.09199
39 *386:30 *386:29 3.9
40 *386:30 *386:24 0.183887
*END

*D_NET *387 0.00280958

*CONN
*I *457:Y O *C 75.57 74.2 *L 0 *D MXI2X1
*I *445:D I *C 68.97 88.76 *L 0.00206 *D DFFRX1

*CAP
1 *457:Y 0.000139836
2 *445:D 0.000139836
3 *387:2 0.000182619
4 *387:3 0.000269854
5 *387:4 0.000269854
6 *387:5 0.00042527
7 *387:6 0.00042527
8 *387:7 0.00029278
9 *387:8 0.000211989
10 *387:9 0.000158077
11 *387:10 0.000294188

*RES
1 *387:9 *457:Y 3.20000005
2 *387:9 *387:10 0.468018
3 *387:7 *387:10 0.735449
4 *387:7 *387:8 0.935986
5 *387:5 *387:8 0.367725
6 *387:5 *387:6 1.71602
7 *387:3 *387:6 0.367725
8 *387:3 *387:4 0.935986
9 *387:2 *387:4 0.367725
10 *445:D *387:2 3.20000005
*END

*D_NET *388 0.0004026

*CONN
*I *456:Y O *C 112.53 46.76 *L 0 *D MXI2X1
*I *447:D I *C 115.83 48.44 *L 0.00206 *D DFFRX1

*CAP
1 *388:2 0.0002013
2 *388:3 0.0002013

*RES
1 *388:3 *447:D 3.20000005
2 *388:2 *388:3 0.919287
3 *456:Y *388:2 3.20000005
*END

*D_NET *389 0.00227467

*CONN
*I *751:Y O *C 90.75 33.88 *L 0 *D MXI2XL
*I *696:A I *C 84.81 33.32 *L 0.00346 *D INVX1
*I *578:A1 I *C 90.09 27.16 *L 0.00443 *D AOI21X1

*CAP
1 *751:Y 0.000139842
2 *696:A 0.000139842
3 *578:A1 7.97264e-05
4 *389:3 0.00045493
5 *389:4 0.000293888
6 *389:5 0.000182229
7 *389:6 0.000141973
8 *389:7 0.000222616
9 *389:8 0.00011506
10 *389:9 0.000142105
11 *389:10 0.000150442
12 *389:11 6.99177e-05
13 *389:12 0.000142105

*RES
1 *389:8 *578:A1 0.447656
2 *389:12 *751:Y 3.20000005
3 *389:9 *389:8 3.20000005
4 *389:11 *389:12 0.183838
5 *389:4 *389:9 0.183838
6 *389:10 *389:11 0.156006
7 *389:4 *389:3 1.248
8 *389:3 *389:10 0.551562
9 *389:6 *389:3 0.367725
10 *389:6 *389:5 0.468018
11 *389:7 *389:5 0.551562
12 *696:A *389:7 3.20000005
*END

