*SPEF "IEEE 1481-1998"
*DESIGN "aer_improved_hierarchical"
*DATE "Wed Aug 19 14:19:57 2026"
*VENDOR "Cadence Design Systems, Inc."
*PROGRAM "Innovus"
*VERSION "23.14-s088_1"
*DESIGN_FLOW "COUPLING C" "PIN_CAP NONE" "NAME_SCOPE LOCAL"
*DIVIDER /
*DELIMITER :
*BUS_DELIMITER []
*T_UNIT 1 NS
*C_UNIT 1 PF
*R_UNIT 1 OHM
*L_UNIT 1 HENRY

// MMMC spef file for corner 'rc_180nm'

*NAME_MAP

*1 FE_PHN16_req_meta_q_2
*2 FE_PHN15_req_meta_q_4
*3 FE_PHN14_req_meta_q_10
*4 FE_PHN13_req_meta_q_8
*5 FE_PHN12_req_meta_q_7
*6 FE_PHN11_req_meta_q_1
*7 FE_PHN10_req_meta_q_13
*8 FE_PHN9_req_meta_q_9
*9 FE_PHN8_req_meta_q_3
*10 FE_PHN7_req_meta_q_15
*11 FE_PHN6_req_meta_q_14
*12 FE_PHN5_req_meta_q_5
*13 FE_PHN4_req_meta_q_12
*14 FE_PHN3_req_meta_q_0
*15 FE_PHN2_req_meta_q_6
*16 FE_PHN1_req_meta_q_11
*17 CTS_1
*18 FE_OFN0_rst_n
*19 clk
*20 rst_n
*21 src_req_async[15]
*22 src_req_async[14]
*23 src_req_async[13]
*24 src_req_async[12]
*25 src_req_async[11]
*26 src_req_async[10]
*27 src_req_async[9]
*28 src_req_async[8]
*29 src_req_async[7]
*30 src_req_async[6]
*31 src_req_async[5]
*32 src_req_async[4]
*33 src_req_async[3]
*34 src_req_async[2]
*35 src_req_async[1]
*36 src_req_async[0]
*37 src_ack_async[15]
*38 src_ack_async[14]
*39 src_ack_async[13]
*40 src_ack_async[12]
*41 src_ack_async[11]
*42 src_ack_async[10]
*43 src_ack_async[9]
*44 src_ack_async[8]
*45 src_ack_async[7]
*46 src_ack_async[6]
*47 src_ack_async[5]
*48 src_ack_async[4]
*49 src_ack_async[3]
*50 src_ack_async[2]
*51 src_ack_async[1]
*52 src_ack_async[0]
*53 out_addr[3]
*54 out_addr[2]
*55 out_addr[1]
*56 out_addr[0]
*57 out_valid
*58 out_ready
*59 queue_count_q\[9\][1]
*60 queue_count_q\[9\][0]
*61 queue_count_q\[5\][1]
*62 queue_count_q\[5\][0]
*63 queue_count_q\[1\][1]
*64 queue_count_q\[1\][0]
*65 queue_count_q\[13\][1]
*66 queue_count_q\[13\][0]
*67 queue_count_q\[6\][1]
*68 queue_count_q\[6\][0]
*69 queue_count_q\[10\][1]
*70 queue_count_q\[10\][0]
*71 queue_count_q\[2\][1]
*72 queue_count_q\[2\][0]
*73 queue_count_q\[14\][1]
*74 queue_count_q\[14\][0]
*75 queue_count_q\[4\][1]
*76 queue_count_q\[4\][0]
*77 queue_count_q\[0\][1]
*78 queue_count_q\[0\][0]
*79 queue_count_q\[3\][1]
*80 queue_count_q\[3\][0]
*81 queue_count_q\[11\][1]
*82 queue_count_q\[11\][0]
*83 queue_count_q\[15\][1]
*84 queue_count_q\[15\][0]
*85 queue_count_q\[7\][1]
*86 queue_count_q\[7\][0]
*87 queue_count_q\[12\][1]
*88 queue_count_q\[12\][0]
*89 queue_count_q\[8\][1]
*90 queue_count_q\[8\][0]
*91 local_rr_q\[1\][1]
*92 local_rr_q\[1\][0]
*93 local_rr_q\[2\][1]
*94 local_rr_q\[2\][0]
*95 local_rr_q\[3\][1]
*96 local_rr_q\[3\][0]
*97 local_rr_q\[0\][1]
*98 local_rr_q\[0\][0]
*99 group_rr_q[1]
*100 group_rr_q[0]
*101 req_sync_q[15]
*102 req_sync_q[14]
*103 req_sync_q[13]
*104 req_sync_q[12]
*105 req_sync_q[11]
*106 req_sync_q[10]
*107 req_sync_q[9]
*108 req_sync_q[8]
*109 req_sync_q[7]
*110 req_sync_q[6]
*111 req_sync_q[5]
*112 req_sync_q[4]
*113 req_sync_q[3]
*114 req_sync_q[2]
*115 req_sync_q[1]
*116 req_sync_q[0]
*117 req_meta_q[15]
*118 req_meta_q[14]
*119 req_meta_q[13]
*120 req_meta_q[12]
*121 req_meta_q[11]
*122 req_meta_q[10]
*123 req_meta_q[9]
*124 req_meta_q[8]
*125 req_meta_q[7]
*126 req_meta_q[6]
*127 req_meta_q[5]
*128 req_meta_q[4]
*129 req_meta_q[3]
*130 req_meta_q[2]
*131 req_meta_q[1]
*132 req_meta_q[0]
*133 n_0
*134 n_1
*135 n_2
*136 n_3
*137 n_4
*138 n_5
*139 n_6
*140 n_7
*141 n_8
*142 n_9
*143 n_11
*144 n_12
*145 n_13
*146 n_14
*147 n_15
*148 n_16
*149 n_17
*150 n_18
*151 n_19
*152 n_20
*153 n_21
*154 n_22
*155 n_23
*156 n_24
*157 n_25
*158 n_26
*159 n_27
*160 n_28
*161 n_29
*162 n_30
*163 n_31
*164 n_32
*165 n_33
*166 n_34
*167 n_35
*168 n_36
*169 n_37
*170 n_38
*171 n_39
*172 n_40
*173 n_41
*174 n_42
*175 n_43
*176 n_44
*177 n_45
*178 n_46
*179 n_47
*180 n_48
*181 n_49
*182 n_50
*183 n_51
*184 n_52
*185 n_53
*186 n_54
*187 n_55
*188 n_56
*189 n_57
*190 n_58
*191 n_59
*192 n_60
*193 n_61
*194 n_62
*195 n_63
*196 n_64
*197 n_65
*198 n_66
*199 n_67
*200 n_68
*201 n_69
*202 n_70
*203 n_71
*204 n_72
*205 n_73
*206 n_75
*207 n_76
*208 n_77
*209 n_78
*210 n_79
*211 n_80
*212 n_81
*213 n_82
*214 n_83
*215 n_84
*216 n_85
*217 n_86
*218 n_87
*219 n_88
*220 n_89
*221 n_90
*222 n_91
*223 n_92
*224 n_93
*225 n_94
*226 n_95
*227 n_96
*228 n_99
*229 n_100
*230 n_101
*231 n_102
*232 n_103
*233 n_104
*234 n_105
*235 n_106
*236 n_107
*237 n_108
*238 n_109
*239 n_110
*240 n_111
*241 n_112
*242 n_113
*243 n_114
*244 n_115
*245 n_116
*246 n_117
*247 n_118
*248 n_119
*249 n_120
*250 n_121
*251 n_122
*252 n_123
*253 n_124
*254 n_125
*255 n_126
*256 n_127
*257 n_128
*258 n_129
*259 n_130
*260 n_131
*261 n_132
*262 n_133
*263 n_134
*264 n_135
*265 n_136
*266 n_137
*267 n_138
*268 n_139
*269 n_140
*270 n_141
*271 n_142
*272 n_143
*273 n_144
*274 n_145
*275 n_146
*276 n_147
*277 n_148
*278 n_149
*279 n_150
*280 n_151
*281 n_152
*282 n_153
*283 n_154
*284 n_155
*285 n_156
*286 n_157
*287 n_158
*288 n_159
*289 n_160
*290 n_161
*291 n_162
*292 n_163
*293 n_164
*294 n_165
*295 n_166
*296 n_168
*297 n_169
*298 n_170
*299 n_171
*300 n_172
*301 n_173
*302 n_174
*303 n_175
*304 n_176
*305 n_177
*306 n_178
*307 n_179
*308 n_180
*309 n_181
*310 n_182
*311 n_183
*312 n_184
*313 n_185
*314 n_186
*315 n_187
*316 n_188
*317 n_189
*318 n_190
*319 n_191
*320 n_192
*321 n_193
*322 n_194
*323 n_195
*324 n_196
*325 n_197
*326 n_198
*327 n_199
*328 n_201
*329 n_202
*330 n_203
*331 n_204
*332 n_205
*333 n_206
*334 n_207
*335 n_208
*336 n_209
*337 n_210
*338 n_211
*339 n_212
*340 n_213
*341 n_214
*342 n_215
*343 n_216
*344 n_217
*345 n_218
*346 n_219
*347 n_220
*348 n_221
*349 n_222
*350 n_223
*351 n_224
*352 n_225
*353 n_226
*354 n_227
*355 n_228
*356 n_229
*357 n_230
*358 n_231
*359 n_232
*360 n_233
*361 n_234
*362 n_235
*363 n_236
*364 n_237
*365 n_238
*366 n_239
*367 n_240
*368 n_241
*369 n_242
*370 n_243
*371 n_244
*372 n_245
*373 n_246
*374 n_247
*375 n_248
*376 n_249
*377 n_250
*378 n_251
*379 n_252
*380 n_253
*381 n_254
*382 n_255
*383 n_256
*384 n_257
*385 n_258
*386 n_259
*387 n_260
*388 n_261
*389 n_262
*390 n_263
*391 n_264
*392 n_265
*393 n_266
*394 n_267
*395 n_268
*396 n_269
*397 n_270
*398 n_271
*399 n_273
*400 n_274
*401 n_275
*402 n_276
*403 n_278
*404 n_279
*405 n_280
*406 n_281
*407 n_282
*408 n_283
*409 n_284
*410 n_285
*411 n_286
*412 n_287
*413 n_288
*414 n_289
*415 n_290
*416 n_291
*417 n_292
*418 n_297
*419 n_298
*420 n_299
*421 n_300
*422 n_301
*423 n_303
*424 n_304
*425 n_305
*426 n_306
*427 n_307
*428 n_308
*429 n_309
*430 n_310
*431 n_312
*432 n_313
*433 n_314
*434 n_315
*435 n_316
*436 n_317
*437 n_318
*438 n_319
*439 n_320
*440 n_321
*441 n_322
*442 n_323
*443 n_324
*444 n_325
*445 n_326
*446 n_327
*447 n_328
*448 n_329
*449 n_330
*450 n_331
*451 n_332
*452 n_333
*453 n_334
*454 n_335
*455 n_336
*456 n_338
*457 n_339
*458 n_340
*459 n_341
*460 n_342
*461 n_344
*462 n_345
*463 n_346
*464 n_347
*465 n_348
*466 n_350
*467 n_351
*468 n_352
*469 n_353
*470 n_355
*471 n_356
*472 n_357
*473 n_358
*474 n_359
*475 n_360
*476 n_361
*477 n_362
*478 n_363
*479 n_364
*480 n_365
*481 n_366
*482 n_367
*483 n_368
*484 n_369
*485 n_370
*486 n_371
*487 n_372
*488 n_373
*489 n_374
*490 n_375
*491 n_376
*492 n_377
*493 n_378
*494 n_379
*495 n_380
*496 n_400
*497 n_401
*498 n_402
*499 n_403
*500 n_404
*501 n_405
*502 n_406
*503 n_407
*504 n_408
*505 FE_PHC16_req_meta_q_2
*506 FE_PHC15_req_meta_q_4
*507 FE_PHC14_req_meta_q_10
*508 FE_PHC13_req_meta_q_8
*509 FE_PHC12_req_meta_q_7
*510 FE_PHC11_req_meta_q_1
*511 FE_PHC10_req_meta_q_13
*512 FE_PHC9_req_meta_q_9
*513 FE_PHC8_req_meta_q_3
*514 FE_PHC7_req_meta_q_15
*515 FE_PHC6_req_meta_q_14
*516 FE_PHC5_req_meta_q_5
*517 FE_PHC4_req_meta_q_12
*518 FE_PHC3_req_meta_q_0
*519 FE_PHC2_req_meta_q_6
*520 FE_PHC1_req_meta_q_11
*521 CTS_ccl_a_buf_00001
*522 FE_OFC0_rst_n
*523 queue_count_q_reg\[9\]\[1\]
*524 queue_count_q_reg\[5\]\[1\]
*525 queue_count_q_reg\[1\]\[1\]
*526 queue_count_q_reg\[13\]\[1\]
*527 queue_count_q_reg\[5\]\[0\]
*528 queue_count_q_reg\[9\]\[0\]
*529 queue_count_q_reg\[13\]\[0\]
*530 queue_count_q_reg\[1\]\[0\]
*531 queue_count_q_reg\[6\]\[1\]
*532 queue_count_q_reg\[10\]\[1\]
*533 queue_count_q_reg\[2\]\[1\]
*534 queue_count_q_reg\[14\]\[1\]
*535 queue_count_q_reg\[4\]\[1\]
*536 queue_count_q_reg\[0\]\[1\]
*537 queue_count_q_reg\[10\]\[0\]
*538 queue_count_q_reg\[14\]\[0\]
*539 queue_count_q_reg\[0\]\[0\]
*540 queue_count_q_reg\[2\]\[0\]
*541 queue_count_q_reg\[4\]\[0\]
*542 queue_count_q_reg\[6\]\[0\]
*543 g14386
*544 g14370__2398
*545 g14372__5107
*546 g14373__6260
*547 g14371__4319
*548 g14387
*549 queue_count_q_reg\[3\]\[1\]
*550 queue_count_q_reg\[11\]\[1\]
*551 g14389
*552 g14388
*553 queue_count_q_reg\[3\]\[0\]
*554 queue_count_q_reg\[11\]\[0\]
*555 queue_count_q_reg\[15\]\[0\]
*556 queue_count_q_reg\[7\]\[0\]
*557 queue_count_q_reg\[15\]\[1\]
*558 queue_count_q_reg\[7\]\[1\]
*559 g14391__8428
*560 g14413__5526
*561 g14423
*562 g14424
*563 g14425
*564 g14426
*565 g14397__6783
*566 g14428
*567 g14429
*568 g14399__3680
*569 g14400__1617
*570 g14401__2802
*571 g14402__1705
*572 g14403__5122
*573 g14412__8246
*574 g14390__7098
*575 queue_count_q_reg\[12\]\[1\]
*576 queue_count_q_reg\[8\]\[0\]
*577 queue_count_q_reg\[12\]\[0\]
*578 queue_count_q_reg\[8\]\[1\]
*579 g14440
*580 g14415__6131
*581 g14416__1881
*582 g14417__5115
*583 g14438
*584 g14439
*585 g14414__7482
*586 g14453__4733
*587 g14446__6161
*588 g14448__9315
*589 g14450__9945
*590 g14451__2883
*591 g14452__2346
*592 g14443
*593 g14422
*594 g14396__1666
*595 g14427
*596 g14435__7410
*597 g14436__6417
*598 g14434__5477
*599 g14472__2398
*600 g14462__5107
*601 g14398__6260
*602 g14473__4319
*603 g14474__8428
*604 g14437__5526
*605 g14447__6783
*606 g14449__3680
*607 g14465__8246
*608 g14467__7098
*609 g14468__6131
*610 g14469__1881
*611 g14470__5115
*612 g14471__7482
*613 g14418__4733
*614 g14419__6161
*615 g14491__9315
*616 g14493__9945
*617 g14485__2883
*618 g14490__2346
*619 g14420__1666
*620 g14421__7410
*621 g14441
*622 g14442
*623 g14444
*624 g14445
*625 g14506__6417
*626 g14483
*627 g14500__5477
*628 g14505__2398
*629 g14482
*630 g14507__5107
*631 g14455__6260
*632 g14476__8428
*633 g14475__5526
*634 g14463__6783
*635 g14477__3680
*636 g14458__2802
*637 g14466__1705
*638 g14464__5122
*639 g14514__8246
*640 g14515__7098
*641 g14498
*642 g14499
*643 g14496
*644 g14497
*645 local_rr_q_reg\[1\]\[1\]
*646 g14481__6131
*647 g14480__1881
*648 g14479__5115
*649 g14478__7482
*650 local_rr_q_reg\[2\]\[1\]
*651 local_rr_q_reg\[3\]\[1\]
*652 local_rr_q_reg\[0\]\[1\]
*653 g14521__4733
*654 g14513__6161
*655 g14512__9315
*656 g14484__9945
*657 g14494__2883
*658 g14495__2346
*659 g14492__1666
*660 g14531__7410
*661 g14530__6417
*662 g14529__5477
*663 g14528__2398
*664 g14524__5107
*665 g14522__6260
*666 g14523__4319
*667 g14510__8428
*668 g14509__5526
*669 g14508__6783
*670 g14511__3680
*671 out_addr_q_reg\[1\]
*672 g14534__1617
*673 g14532__2802
*674 g14536__1705
*675 g14502__5122
*676 g14503__8246
*677 g14504__7098
*678 g14525__6131
*679 g14533__1881
*680 g14501__5115
*681 g14538__7482
*682 g14539__4733
*683 g14537__6161
*684 g14540__9315
*685 g14545__9945
*686 g14546__2883
*687 g14547__2346
*688 g14541__1666
*689 g14552
*690 g14544__7410
*691 g14543__6417
*692 g14542__5477
*693 g14549__2398
*694 g14548__5107
*695 g14526__6260
*696 g14554__4319
*697 g14555__8428
*698 g14550__5526
*699 g14556__6783
*700 g14551__3680
*701 g14553
*702 g14562__1617
*703 g14557__2802
*704 g14563__1705
*705 g14564__5122
*706 out_addr_q_reg\[0\]
*707 g14568__8246
*708 local_rr_q_reg\[2\]\[0\]
*709 local_rr_q_reg\[0\]\[0\]
*710 local_rr_q_reg\[1\]\[0\]
*711 local_rr_q_reg\[3\]\[0\]
*712 g14566__7098
*713 g14567__6131
*714 g14569__1881
*715 g14570__5115
*716 g14571__7482
*717 g14572__4733
*718 g14573__6161
*719 g14574
*720 g14575__9315
*721 g14576__9945
*722 g14577__2883
*723 g14578__2346
*724 g14579__1666
*725 g14581__7410
*726 group_rr_q_reg\[1\]
*727 g14582__6417
*728 g14584__5477
*729 g14585__2398
*730 g14586__5107
*731 g14588__6260
*732 g14583__4319
*733 g14587__8428
*734 g14589__5526
*735 g14591__6783
*736 g14592__3680
*737 g14603
*738 g14593
*739 g14605__1617
*740 out_addr_q_reg\[3\]
*741 g14611__2802
*742 g14595__1705
*743 g14596__5122
*744 g14602
*745 g14604__8246
*746 g14597__7098
*747 g14598__6131
*748 g14594__1881
*749 g14610__5115
*750 g14609__7482
*751 group_rr_q_reg\[0\]
*752 g14601
*753 g14607__6161
*754 g14600__9315
*755 g14599__9945
*756 g14617
*757 g14616
*758 g14612
*759 g14606__2883
*760 out_addr_q_reg\[2\]
*761 g14618
*762 g14619__2346
*763 g14614__1666
*764 g14624__7410
*765 g14620__6417
*766 g14621__5477
*767 g14623__2398
*768 g14622__5107
*769 g14626
*770 g14627__6260
*771 g14625__4319
*772 out_valid_q_reg
*773 g14629
*774 g14630__8428
*775 g14633__5526
*776 g14632__3680
*777 g14634__1617
*778 g14635__2802
*779 g14640__1705
*780 g14636__5122
*781 g14637__8246
*782 g14639__7098
*783 g14641__6131
*784 g14642__1881
*785 g14638__5115
*786 g14643__7482
*787 g14647__4733
*788 g14644__6161
*789 g14645__9315
*790 g14646__9945
*791 g14648__2883
*792 g14649__2346
*793 g14653__1666
*794 g14666
*795 g14650__7410
*796 g14651__6417
*797 g14652__5477
*798 g14663
*799 g14654__2398
*800 g14655__5107
*801 g14668__6260
*802 g14657__4319
*803 g14656__8428
*804 g14667
*805 g14665__5526
*806 g14662__6783
*807 g14670__3680
*808 ack_q_reg\[0\]
*809 g14658__2802
*810 g14660__1705
*811 ack_q_reg\[7\]
*812 g14669__5122
*813 g14661__8246
*814 ack_q_reg\[2\]
*815 ack_q_reg\[15\]
*816 ack_q_reg\[13\]
*817 ack_q_reg\[9\]
*818 ack_q_reg\[3\]
*819 ack_q_reg\[10\]
*820 ack_q_reg\[1\]
*821 ack_q_reg\[12\]
*822 ack_q_reg\[4\]
*823 ack_q_reg\[6\]
*824 ack_q_reg\[11\]
*825 ack_q_reg\[14\]
*826 ack_q_reg\[8\]
*827 ack_q_reg\[5\]
*828 g14673__7098
*829 g14674__6131
*830 g14664__1881
*831 g14672__5115
*832 g14701__7482
*833 g14700__4733
*834 g14694__6161
*835 g14690__9315
*836 g14687__9945
*837 g14704__2883
*838 g14707__2346
*839 g14709__1666
*840 g14711__7410
*841 g14712__6417
*842 g14715__5477
*843 g14706__2398
*844 g14716__5107
*845 g14717__6260
*846 g14735
*847 g14671__4319
*848 g14745__8428
*849 g14718
*850 g14719
*851 g14708__5526
*852 g14710__6783
*853 g14713__3680
*854 g14714__1617
*855 g14702__2802
*856 g14703__1705
*857 g14729__5122
*858 g14722__8246
*859 g14723__7098
*860 g14725__6131
*861 g14726__1881
*862 g14727__5115
*863 g14720
*864 g14734
*865 g14736
*866 g14741__7482
*867 g14743__4733
*868 g14744__6161
*869 g14721__9315
*870 g14724__9945
*871 g14728__2883
*872 g14697__2346
*873 g14698__1666
*874 g14699__7410
*875 g14731__6417
*876 g14695__5477
*877 g14696__2398
*878 g14738__5107
*879 g14739__6260
*880 g14746__4319
*881 g14733__8428
*882 g14705__5526
*883 g14747__6783
*884 g14749__3680
*885 g14732__1617
*886 g14748__2802
*887 g14740__1705
*888 g14742__5122
*889 g14752
*890 g14730__8246
*891 g14750__7098
*892 g14751
*893 g14754
*894 g14774
*895 g14756
*896 g14757
*897 g14758
*898 g14753
*899 g14760
*900 g14759
*901 g14755
*902 req_sync_q_reg\[5\]
*903 req_sync_q_reg\[0\]
*904 req_sync_q_reg\[3\]
*905 req_sync_q_reg\[4\]
*906 req_sync_q_reg\[9\]
*907 req_sync_q_reg\[11\]
*908 req_sync_q_reg\[15\]
*909 req_sync_q_reg\[7\]
*910 req_sync_q_reg\[6\]
*911 req_sync_q_reg\[8\]
*912 req_sync_q_reg\[1\]
*913 req_sync_q_reg\[13\]
*914 req_sync_q_reg\[14\]
*915 req_sync_q_reg\[10\]
*916 g14784__6131
*917 g14785__1881
*918 g14786__5115
*919 req_sync_q_reg\[2\]
*920 g14783__7482
*921 req_sync_q_reg\[12\]
*922 g14788__4733
*923 g14776__6161
*924 g14779__9315
*925 g14775__9945
*926 g14777__2883
*927 g14809__2346
*928 g14811__1666
*929 g14780__7410
*930 g14778__6417
*931 g14808__5477
*932 g14810__2398
*933 g14806__5107
*934 g14807__6260
*935 req_meta_q_reg\[8\]
*936 req_meta_q_reg\[14\]
*937 req_meta_q_reg\[1\]
*938 req_meta_q_reg\[9\]
*939 req_meta_q_reg\[15\]
*940 req_meta_q_reg\[3\]
*941 g14814__4319
*942 g14813__8428
*943 g14812__5526
*944 g14816__6783
*945 req_meta_q_reg\[11\]
*946 req_meta_q_reg\[6\]
*947 req_meta_q_reg\[13\]
*948 req_meta_q_reg\[4\]
*949 req_meta_q_reg\[2\]
*950 req_meta_q_reg\[7\]
*951 req_meta_q_reg\[12\]
*952 req_meta_q_reg\[10\]
*953 req_meta_q_reg\[5\]
*954 req_meta_q_reg\[0\]
*955 g14815__3680
*956 g14819
*957 g14834
*958 g14823
*959 g14824
*960 g14822
*961 g14818
*962 g14821
*963 g14833
*964 g14830
*965 g14836
*966 g14835
*967 g14832
*968 g14820
*969 g14829
*970 g14831
*971 g14817
*972 g2
*973 g14937
*974 g14938
*975 g14939
*976 g14940
*977 g14941
*978 g14942
*979 g14943
*980 g14944


*PORTS

*19 I *C 0 0.28
*20 I *C 0 9.8
*21 I *C 0 176.12
*22 I *C 0 166.04
*23 I *C 0 156.52
*24 I *C 0 146.44
*25 I *C 0 136.92
*26 I *C 0 126.84
*27 I *C 0 117.32
*28 I *C 0 107.24
*29 I *C 0 97.72
*30 I *C 0 88.2
*31 I *C 0 78.12
*32 I *C 0 68.6
*33 I *C 0 58.52
*34 I *C 0 49
*35 I *C 0 38.92
*36 I *C 0 29.4
*37 O *C 182.16 35.56
*38 O *C 182.16 44.52
*39 O *C 182.16 53.48
*40 O *C 182.16 61.88
*41 O *C 182.16 70.84
*42 O *C 182.16 79.8
*43 O *C 182.16 88.2
*44 O *C 182.16 97.16
*45 O *C 182.16 106.12
*46 O *C 182.16 115.08
*47 O *C 182.16 123.48
*48 O *C 182.16 132.44
*49 O *C 182.16 141.4
*50 O *C 182.16 149.8
*51 O *C 182.16 158.76
*52 O *C 182.16 167.72
*53 O *C 182.16 0.84
*54 O *C 182.16 9.24
*55 O *C 182.16 18.2
*56 O *C 182.16 27.16
*57 O *C 182.16 176.12
*58 I *C 0 19.32


*D_NET *1 0.00112724

*CONN
*I *505:Y O *C 52.47 124.04 *L 0 *D BUFX3
*I *919:D I *C 57.75 124.6 *L 0.00184 *D DFFRHQX1

*CAP
1 *505:Y 0.000139842
2 *919:D 6.32978e-05
3 *1:2 0.000120601
4 *1:3 0.000306613
5 *1:4 0.000120601
6 *1:5 0.00037629

*RES
1 *1:4 *919:D 6.4000001
2 *1:5 *1:4 3.2
3 *1:3 *1:5 1.4709
4 *1:2 *1:3 3.2
5 *505:Y *1:2 3.2
*END

*D_NET *2 0.00109237

*CONN
*I *506:Y O *C 53.13 107.8 *L 0 *D BUFX3
*I *905:D I *C 55.11 114.52 *L 0.00184 *D DFFRHQX1

*CAP
1 *506:Y 3.72993e-05
2 *905:D 6.3299e-05
3 *2:2 7.8511e-05
4 *2:3 7.65377e-05
5 *2:4 0.00037268
6 *2:5 0.000358059
7 *2:6 0.000105978

*RES
1 *2:6 *905:D 6.4000001
2 *2:5 *2:6 0.367676
3 *2:4 *2:5 1.404
4 *2:3 *2:4 3.2
5 *2:2 *2:3 0.223828
6 *506:Y *2:2 0.189941
*END

*D_NET *3 0.0011133

*CONN
*I *507:Y O *C 44.55 83.72 *L 0 *D BUFX3
*I *915:D I *C 43.23 87.08 *L 0.00184 *D DFFRHQX1

*CAP
1 *507:Y 0.000139841
2 *915:D 6.33001e-05
3 *3:2 0.00035117
4 *3:3 0.000270648
5 *3:4 6.57221e-05
6 *3:5 0.000222619

*RES
1 *3:4 *915:D 6.4000001
2 *3:3 *3:4 0.183887
3 *3:5 *507:Y 3.2
4 *3:2 *3:3 1.24805
5 *3:2 *3:5 0.551562
*END

*D_NET *4 0.00197072

*CONN
*I *508:Y O *C 61.05 107.8 *L 0 *D BUFX3
*I *911:D I *C 57.75 97.16 *L 0.00184 *D DFFRHQX1

*CAP
1 *508:Y 0.000139839
2 *911:D 6.33011e-05
3 *4:2 0.000167229
4 *4:3 0.00018203
5 *4:4 0.00037965
6 *4:5 0.00037965
7 *4:6 0.000226759
8 *4:7 0.000296652
9 *4:8 0.00013561

*RES
1 *4:2 *508:Y 3.2
2 *4:3 *4:2 0.624023
3 *4:4 *4:3 0.183887
4 *4:5 *4:4 1.71602
5 *4:5 *4:8 0.183887
6 *4:7 *4:8 0.467969
7 *4:6 *4:7 0.919238
8 *911:D *4:6 6.4000001
*END

*D_NET *5 0.000744264

*CONN
*I *509:Y O *C 58.41 107.8 *L 0 *D BUFX3
*I *909:D I *C 57.09 104.44 *L 0.00184 *D DFFRHQX1

*CAP
1 *509:Y 0.000139842
2 *909:D 6.32993e-05
3 *5:2 0.00010598
4 *5:3 0.0002451
5 *5:4 0.00019004

*RES
1 *5:4 *509:Y 3.2
2 *5:3 *5:4 0.77998
3 *5:2 *5:3 0.367676
4 *909:D *5:2 6.4000001
*END

*D_NET *6 0.00063315

*CONN
*I *510:Y O *C 26.73 53.48 *L 0 *D BUFX3
*I *912:D I *C 29.37 54.04 *L 0.00184 *D DFFRHQX1

*CAP
1 *510:Y 4.12086e-05
2 *912:D 6.3299e-05
3 *6:2 0.000153081
4 *6:3 0.00022262
5 *6:4 0.000152941

*RES
1 *6:4 *912:D 6.4000001
2 *6:3 *6:4 0.551562
3 *6:2 *6:3 3.2
4 *510:Y *6:2 0.223828
*END

*D_NET *7 0.00076531

*CONN
*I *511:Y O *C 55.11 127.96 *L 0 *D BUFX3
*I *913:D I *C 57.75 127.4 *L 0.00184 *D DFFRHQX1

*CAP
1 *511:Y 4.1211e-05
2 *913:D 6.32981e-05
3 *7:2 0.00020637
4 *7:3 0.000136689
5 *7:4 7.65397e-05
6 *7:5 0.000120601
7 *7:6 0.000120601

*RES
1 *7:6 *913:D 6.4000001
2 *7:2 *7:6 3.2
3 *7:3 *7:2 0.551562
4 *7:5 *7:3 3.2
5 *7:4 *7:5 3.2
6 *511:Y *7:4 0.223828
*END

*D_NET *8 0.00116205

*CONN
*I *512:Y O *C 40.59 87.64 *L 0 *D BUFX3
*I *906:D I *C 42.57 94.36 *L 0.00184 *D DFFRHQX1

*CAP
1 *512:Y 3.72986e-05
2 *906:D 6.33009e-05
3 *8:2 0.000120501
4 *8:3 0.000118531
5 *8:4 0.000159222
6 *8:5 0.000104342
7 *8:6 0.00028683
8 *8:7 0.000272028

*RES
1 *8:7 *906:D 6.4000001
2 *8:6 *8:7 1.09199
3 *8:5 *8:6 0.183887
4 *8:4 *8:5 0.312012
5 *8:3 *8:4 3.2
6 *8:2 *8:3 0.447656
7 *512:Y *8:2 0.189941
*END

*D_NET *9 0.000738009

*CONN
*I *513:Y O *C 25.41 77.56 *L 0 *D BUFX3
*I *904:D I *C 28.05 77 *L 0.00184 *D DFFRHQX1

*CAP
1 *513:Y 4.12083e-05
2 *904:D 6.33019e-05
3 *9:2 7.6541e-05
4 *9:3 0.000120599
5 *9:4 0.00012304
6 *9:5 0.000120599
7 *9:6 0.00019272

*RES
1 *9:5 *904:D 6.4000001
2 *9:6 *9:5 3.2
3 *9:4 *9:6 0.551562
4 *9:3 *9:4 3.2
5 *9:2 *9:3 3.2
6 *513:Y *9:2 0.223828
*END

*D_NET *10 0.000556609

*CONN
*I *514:Y O *C 55.11 144.2 *L 0 *D BUFX3
*I *908:D I *C 57.75 144.76 *L 0.00184 *D DFFRHQX1

*CAP
1 *514:Y 4.12086e-05
2 *908:D 6.3299e-05
3 *10:2 7.65404e-05
4 *10:3 0.00022262
5 *10:4 0.000152941

*RES
1 *10:4 *908:D 6.4000001
2 *10:3 *10:4 0.551562
3 *10:2 *10:3 3.2
4 *514:Y *10:2 0.223828
*END

*D_NET *11 0.000852172

*CONN
*I *515:Y O *C 55.11 138.04 *L 0 *D BUFX3
*I *914:D I *C 57.75 137.48 *L 0.00184 *D DFFRHQX1

*CAP
1 *515:Y 4.12111e-05
2 *914:D 6.33009e-05
3 *11:2 7.65389e-05
4 *11:3 0.000142101
5 *11:4 7.24193e-05
6 *11:5 0.000168
7 *11:6 0.000120601
8 *11:7 0.000168

*RES
1 *11:6 *914:D 6.4000001
2 *11:7 *11:6 3.2
3 *11:5 *11:7 0.367676
4 *11:4 *11:5 3.2
5 *11:3 *11:4 0.183887
6 *11:2 *11:3 3.2
7 *515:Y *11:2 0.223828
*END

*D_NET *12 0.00120492

*CONN
*I *516:Y O *C 36.63 103.88 *L 0 *D BUFX3
*I *902:D I *C 41.91 104.44 *L 0.00184 *D DFFRHQX1

*CAP
1 *516:Y 0.00013984
2 *902:D 6.33004e-05
3 *12:2 0.000345451
4 *12:3 0.00041513
5 *12:4 0.000120596
6 *12:5 0.000120596

*RES
1 *12:5 *902:D 6.4000001
2 *12:2 *12:5 3.2
3 *12:3 *12:2 1.4709
4 *12:4 *12:3 3.2
5 *516:Y *12:4 3.2
*END

*D_NET *13 0.00109939

*CONN
*I *517:Y O *C 42.57 107.8 *L 0 *D BUFX3
*I *921:D I *C 41.25 114.52 *L 0.00184 *D DFFRHQX1

*CAP
1 *517:Y 3.73007e-05
2 *921:D 6.33028e-05
3 *13:2 0.000117729
4 *13:3 0.00041552
5 *13:4 0.000345839
6 *13:5 0.000119701

*RES
1 *13:4 *921:D 6.4000001
2 *13:3 *13:4 1.404
3 *517:Y *13:5 0.189941
4 *13:2 *13:3 3.2
5 *13:2 *13:5 0.447656
*END

*D_NET *14 0.000556609

*CONN
*I *518:Y O *C 26.73 47.32 *L 0 *D BUFX3
*I *903:D I *C 29.37 46.76 *L 0.00184 *D DFFRHQX1

*CAP
1 *518:Y 4.12086e-05
2 *903:D 6.3299e-05
3 *14:2 7.65404e-05
4 *14:3 0.00022262
5 *14:4 0.000152941

*RES
1 *14:4 *903:D 6.4000001
2 *14:3 *14:4 0.551562
3 *14:2 *14:3 3.2
4 *518:Y *14:2 0.223828
*END

*D_NET *15 0.00131007

*CONN
*I *519:Y O *C 39.27 103.88 *L 0 *D BUFX3
*I *910:D I *C 42.57 97.16 *L 0.00184 *D DFFRHQX1

*CAP
1 *519:Y 7.45873e-05
2 *910:D 6.33e-05
3 *15:2 0.000335367
4 *15:3 0.00036101
5 *15:4 0.000184408
6 *15:5 0.000145153
7 *15:6 0.000146238

*RES
1 *15:6 *910:D 6.4000001
2 *15:3 *15:6 0.551562
3 *15:3 *15:2 1.24805
4 *15:5 *15:2 3.2
5 *15:4 *15:5 0.447656
6 *15:4 *519:Y 0.379785
*END

*D_NET *16 0.00154488

*CONN
*I *520:Y O *C 55.11 124.04 *L 0 *D BUFX3
*I *907:D I *C 57.75 117.32 *L 0.00184 *D DFFRHQX1

*CAP
1 *520:Y 0.000139842
2 *907:D 6.32982e-05
3 *16:2 0.000357707
4 *16:3 0.00042739
5 *16:4 0.000183177
6 *16:5 0.000120597
7 *16:6 0.00025286

*RES
1 *16:5 *907:D 6.4000001
2 *16:6 *16:5 3.2
3 *16:4 *16:6 0.735449
4 *16:2 *520:Y 3.2
5 *16:3 *16:4 3.2
6 *16:3 *16:2 1.55996
*END

*D_NET *17 0.147001

*CONN
*I *954:CK I *C 28.05 27.72 *L 0.003 *D DFFRHQX1
*I *521:Y O *C 25.41 23.8 *L 0 *D CLKBUFX20
*I *953:CK I *C 26.73 83.16 *L 0.003 *D DFFRHQX1
*I *952:CK I *C 26.07 118.44 *L 0.003 *D DFFRHQX1
*I *951:CK I *C 26.73 128.52 *L 0.003 *D DFFRHQX1
*I *950:CK I *C 26.07 98.28 *L 0.003 *D DFFRHQX1
*I *949:CK I *C 28.05 57.96 *L 0.003 *D DFFRHQX1
*I *948:CK I *C 27.39 73.08 *L 0.003 *D DFFRHQX1
*I *947:CK I *C 26.73 133.56 *L 0.003 *D DFFRHQX1
*I *946:CK I *C 26.73 93.24 *L 0.003 *D DFFRHQX1
*I *945:CK I *C 41.25 118.44 *L 0.003 *D DFFRHQX1
*I *940:CK I *C 27.39 63 *L 0.003 *D DFFRHQX1
*I *939:CK I *C 26.73 143.64 *L 0.003 *D DFFRHQX1
*I *938:CK I *C 26.07 113.4 *L 0.003 *D DFFRHQX1
*I *937:CK I *C 28.71 37.8 *L 0.003 *D DFFRHQX1
*I *936:CK I *C 26.73 138.6 *L 0.003 *D DFFRHQX1
*I *935:CK I *C 26.07 108.36 *L 0.003 *D DFFRHQX1
*I *921:CK I *C 40.59 113.4 *L 0.003 *D DFFRHQX1
*I *919:CK I *C 57.09 123.48 *L 0.003 *D DFFRHQX1
*I *915:CK I *C 42.57 88.2 *L 0.003 *D DFFRHQX1
*I *914:CK I *C 57.09 138.6 *L 0.003 *D DFFRHQX1
*I *913:CK I *C 57.09 128.52 *L 0.003 *D DFFRHQX1
*I *912:CK I *C 28.71 52.92 *L 0.003 *D DFFRHQX1
*I *911:CK I *C 57.09 98.28 *L 0.003 *D DFFRHQX1
*I *910:CK I *C 41.91 98.28 *L 0.003 *D DFFRHQX1
*I *909:CK I *C 56.43 103.32 *L 0.003 *D DFFRHQX1
*I *908:CK I *C 57.09 143.64 *L 0.003 *D DFFRHQX1
*I *907:CK I *C 57.09 118.44 *L 0.003 *D DFFRHQX1
*I *906:CK I *C 41.91 93.24 *L 0.003 *D DFFRHQX1
*I *905:CK I *C 54.45 113.4 *L 0.003 *D DFFRHQX1
*I *904:CK I *C 27.39 78.12 *L 0.003 *D DFFRHQX1
*I *903:CK I *C 28.71 47.88 *L 0.003 *D DFFRHQX1
*I *902:CK I *C 41.25 103.32 *L 0.003 *D DFFRHQX1
*I *827:CK I *C 86.13 118.44 *L 0.003 *D DFFRHQX1
*I *826:CK I *C 87.45 93.24 *L 0.003 *D DFFRHQX1
*I *825:CK I *C 63.69 47.88 *L 0.003 *D DFFRHQX1
*I *824:CK I *C 142.23 73.08 *L 0.003 *D DFFRHQX1
*I *823:CK I *C 90.75 108.36 *L 0.003 *D DFFRHQX1
*I *822:CK I *C 86.13 133.56 *L 0.003 *D DFFRHQX1
*I *821:CK I *C 53.79 63 *L 0.003 *D DFFRHQX1
*I *820:CK I *C 141.57 113.4 *L 0.003 *D DFFRHQX1
*I *819:CK I *C 57.09 88.2 *L 0.003 *D DFFRHQX1
*I *818:CK I *C 142.23 98.28 *L 0.003 *D DFFRHQX1
*I *817:CK I *C 59.73 93.24 *L 0.003 *D DFFRHQX1
*I *816:CK I *C 63.03 52.92 *L 0.003 *D DFFRHQX1
*I *815:CK I *C 78.21 37.8 *L 0.003 *D DFFRHQX1
*I *814:CK I *C 129.03 138.6 *L 0.003 *D DFFRHQX1
*I *811:CK I *C 118.47 108.36 *L 0.003 *D DFFRHQX1
*I *808:CK I *C 141.57 133.56 *L 0.003 *D DFFRHQX1
*I *772:CK I *C 130.35 47.88 *L 0.003 *D DFFRHQX1
*I *760:CK I *C 143.55 32.76 *L 0.003 *D DFFRHQX1
*I *751:CK I *C 110.55 53.48 *L 0.00273 *D DFFRX1
*I *740:CK I *C 128.37 32.76 *L 0.003 *D DFFRHQX1
*I *726:CK I *C 132.99 52.92 *L 0.003 *D DFFRHQX1
*I *711:CK I *C 99.99 43.4 *L 0.00273 *D DFFRX1
*I *710:CK I *C 109.89 103.88 *L 0.00273 *D DFFRX1
*I *709:CK I *C 126.39 77.56 *L 0.00273 *D DFFRX1
*I *708:CK I *C 110.55 67.48 *L 0.00273 *D DFFRX1
*I *706:CK I *C 130.35 37.8 *L 0.003 *D DFFRHQX1
*I *671:CK I *C 144.21 37.8 *L 0.003 *D DFFRHQX1
*I *652:CK I *C 123.75 73.64 *L 0.00273 *D DFFRX1
*I *651:CK I *C 101.97 47.32 *L 0.00273 *D DFFRX1
*I *650:CK I *C 76.89 67.48 *L 0.00273 *D DFFRX1
*I *645:CK I *C 104.61 97.72 *L 0.00273 *D DFFRX1
*I *578:CK I *C 73.59 93.24 *L 0.003 *D DFFRHQX1
*I *577:CK I *C 49.83 47.88 *L 0.003 *D DFFRHQX1
*I *576:CK I *C 90.09 98.28 *L 0.003 *D DFFRHQX1
*I *575:CK I *C 43.89 42.84 *L 0.003 *D DFFRHQX1
*I *558:CK I *C 115.83 118.44 *L 0.003 *D DFFRHQX1
*I *557:CK I *C 92.73 32.76 *L 0.003 *D DFFRHQX1
*I *556:CK I *C 113.19 128.52 *L 0.003 *D DFFRHQX1
*I *555:CK I *C 93.39 37.8 *L 0.003 *D DFFRHQX1
*I *554:CK I *C 142.23 68.04 *L 0.003 *D DFFRHQX1
*I *553:CK I *C 142.23 83.16 *L 0.003 *D DFFRHQX1
*I *550:CK I *C 136.29 57.96 *L 0.003 *D DFFRHQX1
*I *549:CK I *C 142.89 88.2 *L 0.003 *D DFFRHQX1
*I *542:CK I *C 68.31 113.4 *L 0.003 *D DFFRHQX1
*I *541:CK I *C 86.13 143.64 *L 0.003 *D DFFRHQX1
*I *540:CK I *C 111.87 143.64 *L 0.003 *D DFFRHQX1
*I *539:CK I *C 127.05 128.52 *L 0.003 *D DFFRHQX1
*I *538:CK I *C 51.81 32.76 *L 0.003 *D DFFRHQX1
*I *537:CK I *C 52.47 73.08 *L 0.003 *D DFFRHQX1
*I *536:CK I *C 127.71 133.56 *L 0.003 *D DFFRHQX1
*I *535:CK I *C 86.79 138.6 *L 0.003 *D DFFRHQX1
*I *534:CK I *C 66.33 32.76 *L 0.003 *D DFFRHQX1
*I *533:CK I *C 113.19 138.6 *L 0.003 *D DFFRHQX1
*I *532:CK I *C 43.23 78.12 *L 0.003 *D DFFRHQX1
*I *531:CK I *C 70.29 103.32 *L 0.003 *D DFFRHQX1
*I *530:CK I *C 126.39 113.4 *L 0.003 *D DFFRHQX1
*I *529:CK I *C 76.89 42.84 *L 0.003 *D DFFRHQX1
*I *528:CK I *C 73.59 73.08 *L 0.003 *D DFFRHQX1
*I *527:CK I *C 99.33 128.52 *L 0.003 *D DFFRHQX1
*I *526:CK I *C 68.97 63 *L 0.003 *D DFFRHQX1
*I *525:CK I *C 142.23 103.32 *L 0.003 *D DFFRHQX1
*I *524:CK I *C 85.47 128.52 *L 0.003 *D DFFRHQX1
*I *523:CK I *C 63.03 68.04 *L 0.003 *D DFFRHQX1

*CAP
1 *954:CK 6.33104e-05
2 *521:Y 0.000139825
3 *953:CK 6.33104e-05
4 *952:CK 6.33104e-05
5 *951:CK 6.33104e-05
6 *950:CK 0.000139825
7 *949:CK 0.000139825
8 *948:CK 6.33104e-05
9 *947:CK 0.000139825
10 *946:CK 6.33104e-05
11 *945:CK 6.33104e-05
12 *940:CK 6.33104e-05
13 *939:CK 0.000139825
14 *938:CK 0.000139825
15 *937:CK 6.33104e-05
16 *936:CK 0.000139825
17 *935:CK 0.000139825
18 *921:CK 6.33104e-05
19 *919:CK 0.000139825
20 *915:CK 0.000139825
21 *914:CK 0.000139825
22 *913:CK 0.000139825
23 *912:CK 0.000139825
24 *911:CK 0.000139825
25 *910:CK 0.000139825
26 *909:CK 0.000139825
27 *908:CK 0.000139825
28 *907:CK 0.000139825
29 *906:CK 6.33104e-05
30 *905:CK 0.000139825
31 *904:CK 0.000139825
32 *903:CK 0.000139825
33 *902:CK 6.33104e-05
34 *827:CK 0.000139825
35 *826:CK 0.000139825
36 *825:CK 0.000139825
37 *824:CK 6.33104e-05
38 *823:CK 0.000139825
39 *822:CK 0.000139825
40 *821:CK 0.000139825
41 *820:CK 6.33104e-05
42 *819:CK 0.000139825
43 *818:CK 0.000139825
44 *817:CK 0.000139825
45 *816:CK 0.000139825
46 *815:CK 0.000139825
47 *814:CK 0.000139825
48 *811:CK 0.000139825
49 *808:CK 0.000139825
50 *772:CK 0.000139825
51 *760:CK 3.5334e-05
52 *751:CK 6.33104e-05
53 *740:CK 0.000139825
54 *726:CK 0.000139825
55 *711:CK 6.33104e-05
56 *710:CK 6.33104e-05
57 *709:CK 6.33104e-05
58 *708:CK 6.33104e-05
59 *706:CK 0.000139825
60 *671:CK 0.000139825
61 *652:CK 6.33104e-05
62 *651:CK 6.33104e-05
63 *650:CK 6.33104e-05
64 *645:CK 6.33104e-05
65 *578:CK 6.33104e-05
66 *577:CK 0.000139825
67 *576:CK 0.000139825
68 *575:CK 0.000139825
69 *558:CK 0.000139825
70 *557:CK 0.000139825
71 *556:CK 0.000139825
72 *555:CK 0.000139825
73 *554:CK 0.000139825
74 *553:CK 0.000139825
75 *550:CK 0.000139825
76 *549:CK 0.000139825
77 *542:CK 0.000139825
78 *541:CK 0.000139825
79 *540:CK 0.000139825
80 *539:CK 0.000139825
81 *538:CK 0.000139825
82 *537:CK 0.000139825
83 *536:CK 0.000139825
84 *535:CK 0.000139825
85 *534:CK 0.000139825
86 *533:CK 0.000139825
87 *532:CK 0.000139825
88 *531:CK 0.000139825
89 *530:CK 3.23111e-05
90 *529:CK 0.000139825
91 *528:CK 0.000139825
92 *527:CK 0.000139825
93 *526:CK 0.000139825
94 *525:CK 0.000139825
95 *524:CK 0.000139825
96 *523:CK 0.000139825
97 *17:96 0.000379606
98 *17:97 0.000434475
99 *17:98 0.000390813
100 *17:99 0.000390813
101 *17:100 0.000638123
102 *17:101 0.000384739
103 *17:102 0.000886973
104 *17:103 0.000901318
105 *17:104 0.000939475
106 *17:105 0.00128343
107 *17:106 0.00150242
108 *17:107 0.000988697
109 *17:108 0.000229828
110 *17:109 0.000229828
111 *17:110 0.000249163
112 *17:111 0.000249163
113 *17:112 0.000954219
114 *17:113 0.00080812
115 *17:114 0.00059181
116 *17:115 0.000931376
117 *17:116 0.000263109
118 *17:117 0.000332807
119 *17:118 0.00118231
120 *17:119 0.00173704
121 *17:120 0.000286579
122 *17:121 0.000136631
123 *17:122 9.63915e-05
124 *17:123 9.63915e-05
125 *17:124 0.00142314
126 *17:125 0.000642116
127 *17:126 0.000792064
128 *17:127 0.000222356
129 *17:128 0.000222356
130 *17:129 6.14852e-05
131 *17:130 0.000578092
132 *17:131 0.000438981
133 *17:132 0.000152515
134 *17:133 0.0012345
135 *17:134 0.0014767
136 *17:135 0.000513071
137 *17:136 0.000427031
138 *17:137 0.00128546
139 *17:138 0.000155196
140 *17:139 0.000369681
141 *17:140 0.000369681
142 *17:141 0.000137486
143 *17:142 6.77878e-05
144 *17:143 0.000203563
145 *17:144 0.000203563
146 *17:145 0.000808377
147 *17:146 0.00186894
148 *17:147 0.000182944
149 *17:148 0.000182944
150 *17:149 0.000371849
151 *17:150 0.000371849
152 *17:151 0.000133551
153 *17:152 0.000133551
154 *17:153 0.00040088
155 *17:154 0.00033121
156 *17:155 0.000834984
157 *17:156 0.00110984
158 *17:157 0.000412886
159 *17:158 0.000412886
160 *17:159 0.000439979
161 *17:160 0.000412886
162 *17:161 9.75037e-05
163 *17:162 0.000106772
164 *17:163 8.18187e-05
165 *17:164 8.18187e-05
166 *17:165 0.000931034
167 *17:166 0.000154369
168 *17:167 0.000374102
169 *17:168 0.000374102
170 *17:169 0.000803928
171 *17:170 0.000849956
172 *17:171 0.000134492
173 *17:172 0.000134492
174 *17:173 0.00164909
175 *17:174 0.00164521
176 *17:175 0.00168414
177 *17:176 0.000869605
178 *17:177 0.000911841
179 *17:178 8.07065e-05
180 *17:179 8.07065e-05
181 *17:180 6.48504e-05
182 *17:181 6.48504e-05
183 *17:182 0.000319233
184 *17:183 0.000264364
185 *17:184 0.00121225
186 *17:185 0.00101391
187 *17:186 0.000177412
188 *17:187 0.000850242
189 *17:188 0.000134492
190 *17:189 0.000659027
191 *17:190 0.000949257
192 *17:191 6.48504e-05
193 *17:192 6.48504e-05
194 *17:193 0.000540762
195 *17:194 0.000540762
196 *17:195 6.14852e-05
197 *17:196 6.14852e-05
198 *17:197 0.000163096
199 *17:198 0.00091532
200 *17:199 0.00114398
201 *17:200 0.000244002
202 *17:201 0.00104622
203 *17:202 9.51082e-05
204 *17:203 9.51082e-05
205 *17:204 0.00035893
206 *17:205 0.00035893
207 *17:206 6.14852e-05
208 *17:207 0.000131155
209 *17:208 0.000632876
210 *17:209 0.000348749
211 *17:210 0.000396945
212 *17:211 0.000804441
213 *17:212 0.000929978
214 *17:213 0.000138941
215 *17:214 0.000723849
216 *17:215 0.000850955
217 *17:216 0.000140538
218 *17:217 0.000843397
219 *17:218 8.18187e-05
220 *17:219 8.18187e-05
221 *17:220 6.1086e-05
222 *17:221 6.1086e-05
223 *17:222 0.000140766
224 *17:223 7.10959e-05
225 *17:224 0.000259972
226 *17:225 8.18187e-05
227 *17:226 8.18187e-05
228 *17:227 0.000341163
229 *17:228 0.000602532
230 *17:229 0.000595061
231 *17:230 0.000226377
232 *17:231 0.00126473
233 *17:232 0.00148862
234 *17:233 0.00104422
235 *17:234 0.000125936
236 *17:235 5.62664e-05
237 *17:236 0.000374073
238 *17:237 0.000340222
239 *17:238 0.000654977
240 *17:239 0.000654977
241 *17:240 0.000296989
242 *17:241 0.000623807
243 *17:242 0.000377724
244 *17:243 0.000410548
245 *17:244 0.000639349
246 *17:245 0.000381545
247 *17:246 0.00105911
248 *17:247 0.000606497
249 *17:248 0.000131155
250 *17:249 0.000131155
251 *17:250 0.00014627
252 *17:251 0.000225094
253 *17:252 0.000225094
254 *17:253 0.000596173
255 *17:254 0.000416223
256 *17:255 0.000343559
257 *17:256 0.000356734
258 *17:257 0.000631621
259 *17:258 0.00060758
260 *17:259 0.000475256
261 *17:260 0.000169027
262 *17:261 0.00124031
263 *17:262 0.00103903
264 *17:263 0.000278537
265 *17:264 0.000989382
266 *17:265 0.00105489
267 *17:266 0.000555905
268 *17:267 0.000968164
269 *17:268 0.000252215
270 *17:269 0.000161384
271 *17:270 0.000581315
272 *17:271 0.000815364
273 *17:272 0.000850641
274 *17:273 0.00111252
275 *17:274 0.000853008
276 *17:275 0.00112695
277 *17:276 0.00112695
278 *17:277 9.34256e-05
279 *17:278 0.000853008
280 *17:279 9.34256e-05
281 *17:280 0.000853008
282 *17:281 0.000853008
283 *17:282 0.000850641
284 *17:283 5.94319e-05
285 *17:284 0.000354681
286 *17:285 0.000120603
287 *17:286 0.000120603
288 *17:287 0.000120603
289 *17:288 0.00010546
290 *17:289 0.000120603
291 *17:290 0.000120603
292 *17:291 9.34256e-05
293 *17:292 0.000120603
294 *17:293 0.0008037
295 *17:294 0.000369995
296 *17:295 0.000908989
297 *17:296 5.39849e-05
298 *17:297 0.000304546
299 *17:298 0.000120603
300 *17:299 0.000659597
301 *17:300 0.000120603
302 *17:301 0.000161384
303 *17:302 0.000120603
304 *17:303 0.000120603
305 *17:304 0.0015099
306 *17:305 0.000120603
307 *17:306 6.57059e-05
308 *17:307 0.00087009
309 *17:308 0.000615366
310 *17:309 5.94319e-05
311 *17:310 0.00139445
312 *17:311 0.000120603
313 *17:312 0.000899664
314 *17:313 0.000120603
315 *17:314 0.000120603
316 *17:315 9.34256e-05
317 *17:316 0.000614196
318 *17:317 0.000120603
319 *17:318 0.000120603
320 *17:319 0.000544526
321 *17:320 0.000120603
322 *17:321 0.000120603
323 *17:322 0.000120603
324 *17:323 0.000120603
325 *17:324 0.000120603
326 *17:325 0.000285011
327 *17:326 0.000501236
328 *17:327 0.000597599
329 *17:328 0.000363521
330 *17:329 0.000120603
331 *17:330 0.00148329
332 *17:331 0.000120603
333 *17:332 0.000142106
334 *17:333 0.000890538
335 *17:334 0.000873256
336 *17:335 0.000362181
337 *17:336 0.000120603
338 *17:337 0.000142106
339 *17:338 0.000120603
340 *17:339 0.000120603
341 *17:340 0.000120603
342 *17:341 0.000777919
343 *17:342 0.000120603
344 *17:343 9.34256e-05
345 *17:344 0.000120603
346 *17:345 0.000120603
347 *17:346 0.000120603
348 *17:347 0.000120603
349 *17:348 0.000120603
350 *17:349 0.000120603
351 *17:350 0.000120603
352 *17:351 0.000120603
353 *17:352 0.000120603
354 *17:353 0.000120603
355 *17:354 0.000369995
356 *17:355 0.000892734
357 *17:356 0.00116052
358 *17:357 0.00114415
359 *17:358 0.000863388
360 *17:359 0.000606211
361 *17:360 0.000603844
362 *17:361 0.000354681
363 *17:362 0.000120603
364 *17:363 0.000120603
365 *17:364 0.000120603
366 *17:365 0.000120603
367 *17:366 0.000120603
368 *17:367 0.000120603
369 *17:368 0.000120603
370 *17:369 0.000312873
371 *17:370 0.000120603
372 *17:371 0.000243203
373 *17:372 0.000120603
374 *17:373 0.000120603
375 *17:374 0.000120603
376 *17:375 0.000120603
377 *17:376 0.000120603
378 *17:377 0.000120603
379 *17:378 0.000120603
380 *17:379 0.000104291
381 *17:380 6.76452e-05
382 *17:381 3.45926e-05
383 *17:382 0.000142106
384 *17:383 0.000120603
385 *17:384 0.000120603
386 *17:385 0.000724077
387 *17:386 0.000120603
388 *17:387 0.000120603
389 *17:388 0.000120603
390 *17:389 0.000120603
391 *17:390 0.000120603
392 *17:391 0.000120603
393 *17:392 7.06396e-05
394 *17:393 0.00010643
395 *17:394 3.67314e-05
396 *17:395 0.000120603
397 *17:396 0.000169655
398 *17:397 0.00033275
399 *17:398 0.000120603
400 *17:399 0.000120603
401 *17:400 0.000214029
402 *17:263 *237:7 3.019e-05
403 *17:264 *237:8 3.019e-05
404 *17:264 *237:12 0.00013075
405 *17:265 *237:11 0.00013075
406 *17:265 *237:12 3.803e-05
407 *17:266 *237:11 3.803e-05
408 *17:266 *237:12 3.067e-05
409 *17:267 *237:11 3.067e-05
410 *17:133 *237:3 5.256e-05
411 *17:134 *237:4 5.256e-05
412 *17:133 *237:3 5.82e-06
413 *17:134 *237:4 5.81998808e-06
414 *17:268 *160:19 4.478e-05
415 *17:261 *160:18 4.478e-05
416 *17:261 *160:19 0.00017163
417 *17:262 *160:18 0.000171629995
418 *17:222 *394:9 1.463e-05
419 *17:223 *394:6 1.463e-05
420 *17:224 *394:4 4.242e-05
421 *17:217 *394:5 4.242e-05
422 *17:217 *394:4 5.787e-05
423 *17:106 *394:5 5.78700006e-05
424 *17:173 *116:16 2.926e-05
425 *17:174 *116:14 2.926e-05
426 *17:174 *116:16 0.00019364
427 *17:175 *116:14 0.00019364
428 *17:175 *116:16 1.506e-05
429 *17:177 *116:14 1.50600143e-05
430 *17:133 *268:11 9.38e-05
431 *17:134 *268:9 9.38e-05
432 *17:133 *268:9 0.00012561
433 *17:134 *268:7 0.000125610004
434 *17:134 *315:7 0.00012559
435 *17:135 *315:5 0.00012559
436 *17:104 *315:8 1.83e-05
437 *17:105 *315:6 1.83e-05
438 *17:105 *315:8 8.82e-06
439 *17:136 *315:6 8.82e-06
440 *17:105 *315:8 2.765e-05
441 *17:136 *315:6 2.76500035e-05
442 *17:182 *125:2 0.00012197
443 *17:183 *125:3 0.000121970001

*RES
1 *17:389 *820:CK 6.4000001
2 *17:249 *17:389 3.2
3 *17:249 *17:248 0.183887
4 *17:391 *549:CK 3.2
5 *17:189 *17:248 3.2
6 *17:210 *539:CK 3.2
7 *17:382 *536:CK 3.2
8 *17:171 *17:391 3.2
9 *17:190 *525:CK 3.2
10 *17:190 *17:189 2.80801
11 *17:374 *540:CK 3.2
12 *17:210 *17:209 1.404
13 *17:209 *17:382 0.183887
14 *17:390 *808:CK 3.2
15 *17:383 *814:CK 3.2
16 *17:172 *17:171 0.183887
17 *17:115 *818:CK 3.2
18 *17:115 *17:190 1.404
19 *17:223 *17:374 3.2
20 *17:216 *17:209 3.2
21 *17:214 *17:390 3.2
22 *17:384 *17:383 3.2
23 *17:160 *554:CK 3.2
24 *17:112 *17:172 3.2
25 *17:112 *17:115 2.80801
26 *17:223 *17:222 0.367676
27 *17:216 *17:215 0.551562
28 *17:215 *17:214 3.49326
29 *17:268 *17:384 3.2
30 *760:CK *17:392 0.198437
31 *17:159 *824:CK 6.4000001
32 *17:160 *17:159 1.404
33 *17:113 *553:CK 3.2
34 *17:113 *17:112 1.404
35 *17:224 *17:222 3.2
36 *530:CK *17:380 0.181445
37 *17:261 *17:215 3.2
38 *17:261 *17:268 1.404
39 *17:393 *17:392 3.2
40 *17:159 *17:114 0.312012
41 *17:114 *17:113 2.496
42 *17:217 *533:CK 3.2
43 *17:217 *17:224 1.404
44 *17:381 *17:380 3.2
45 *17:262 *17:261 5.61602
46 *17:393 *17:394 0.0208984
47 *17:398 *671:CK 3.2
48 *17:161 *17:114 3.2
49 *17:378 *709:CK 6.4000001
50 *17:106 *556:CK 3.2
51 *17:106 *17:217 2.80801
52 *17:379 *17:381 0.0111328
53 *17:250 *17:262 3.2
54 *17:375 *558:CK 3.2
55 *17:111 *740:CK 3.2
56 *17:395 *17:394 3.2
57 *17:399 *17:398 3.2
58 *17:377 *652:CK 6.4000001
59 *17:162 *17:161 0.367676
60 *17:168 *17:378 3.2
61 *17:107 *17:106 4.21201
62 *17:201 *17:379 3.2
63 *17:201 *17:250 0.597559
64 *17:204 *17:375 3.2
65 *17:108 *706:CK 3.2
66 *17:111 *17:110 0.77998
67 *17:396 *17:395 3.2
68 *17:400 *17:399 3.2
69 *17:388 *550:CK 3.2
70 *17:247 *17:377 3.2
71 *17:259 *17:162 0.155957
72 *17:168 *17:167 1.83857
73 *17:376 *811:CK 3.2
74 *17:199 *17:107 3.2
75 *17:199 *17:201 3.81504
76 *17:205 *17:204 1.65469
77 *17:109 *17:108 0.624023
78 *17:121 *17:110 3.2
79 *17:396 *17:397 0.77998
80 *17:397 *17:400 0.624023
81 *17:143 *17:388 3.2
82 *17:247 *17:246 2.57402
83 *17:246 *17:259 2.20625
84 *17:263 *17:167 3.2
85 *17:193 *17:376 3.2
86 *17:200 *17:199 0.919238
87 *17:256 *17:205 3.2
88 *17:351 *541:CK 3.2
89 *17:120 *17:109 3.2
90 *17:121 *17:120 0.551562
91 *17:125 *17:397 3.2
92 *17:386 *726:CK 3.2
93 *17:144 *17:143 0.919238
94 *17:264 *17:246 3.2
95 *17:264 *17:263 1.09199
96 *17:372 *710:CK 6.4000001
97 *17:194 *17:193 2.39014
98 *17:257 *17:200 3.2
99 *17:257 *17:256 1.404
100 *17:352 *535:CK 3.2
101 *17:226 *17:351 3.2
102 *17:120 *17:126 0.735449
103 *17:126 *17:125 3.12559
104 *17:387 *17:386 3.2
105 *17:265 *17:144 3.2
106 *17:265 *17:264 4.36797
107 *17:373 *17:372 3.2
108 *17:258 *17:194 3.2
109 *17:258 *17:257 1.404
110 *17:350 *822:CK 3.2
111 *17:221 *17:352 3.2
112 *17:226 *17:225 0.367676
113 *17:335 *908:CK 3.2
114 *17:385 *17:126 3.2
115 *17:266 *17:387 3.2
116 *17:266 *17:265 1.404
117 *17:253 *17:373 3.2
118 *17:253 *17:258 1.24805
119 *17:348 *524:CK 3.2
120 *17:367 *527:CK 3.2
121 *17:219 *17:350 3.2
122 *17:221 *17:220 0.183887
123 *17:361 *17:225 3.2
124 *17:227 *939:CK 3.2
125 *17:334 *914:CK 3.2
126 *17:334 *17:335 1.404
127 *17:104 *708:CK 6.4000001
128 *17:141 *772:CK 3.2
129 *17:385 *17:267 3.27598
130 *17:267 *17:266 1.55996
131 *17:179 *645:CK 6.4000001
132 *17:254 *17:253 1.55996
133 *17:349 *827:CK 3.2
134 *17:213 *17:348 3.2
135 *17:211 *17:367 3.2
136 *17:219 *17:218 0.367676
137 *17:360 *17:220 3.2
138 *17:360 *17:361 1.404
139 *17:228 *936:CK 3.2
140 *17:228 *17:227 1.404
141 *17:333 *913:CK 3.2
142 *17:333 *17:334 2.80801
143 *17:105 *751:CK 6.4000001
144 *17:105 *17:104 3.9
145 *17:142 *17:141 0.155957
146 *17:260 *17:267 3.2
147 *17:339 *542:CK 3.2
148 *17:179 *17:178 0.155957
149 *17:255 *17:254 3.2
150 *17:363 *823:CK 3.2
151 *17:203 *17:349 3.2
152 *17:213 *17:212 0.551562
153 *17:212 *17:211 3.30947
154 *17:359 *17:218 3.2
155 *17:359 *17:360 1.404
156 *17:296 *951:CK 6.4000001
157 *17:229 *947:CK 3.2
158 *17:229 *17:228 1.404
159 *17:208 *919:CK 3.2
160 *17:208 *17:333 1.404
161 *17:136 *17:105 1.71602
162 *17:133 *17:142 3.2
163 *17:133 *17:260 0.735449
164 *17:196 *17:339 3.2
165 *17:362 *576:CK 3.2
166 *17:184 *17:178 3.2
167 *17:184 *17:255 1.4709
168 *17:251 *17:363 3.2
169 *17:203 *17:202 0.367676
170 *17:358 *17:212 3.2
171 *17:358 *17:359 1.404
172 *17:289 *952:CK 6.4000001
173 *17:296 *17:297 0.155957
174 *17:297 *17:229 1.24805
175 *17:100 *907:CK 3.2
176 *17:100 *17:208 1.404
177 *17:370 *651:CK 6.4000001
178 *17:134 *17:136 3.2
179 *17:134 *17:133 5.51572
180 *17:322 *537:CK 3.2
181 *17:196 *17:195 0.183887
182 *17:185 *17:362 3.2
183 *17:185 *17:184 4.04482
184 *17:252 *17:251 0.919238
185 *17:357 *17:202 3.2
186 *17:357 *17:358 2.80801
187 *17:207 *17:289 3.2
188 *17:298 *17:297 3.2
189 *17:306 *945:CK 6.4000001
190 *17:101 *17:100 1.404
191 *17:135 *17:370 3.2
192 *17:135 *17:134 2.39014
193 *17:323 *821:CK 3.2
194 *17:164 *17:322 3.2
195 *17:332 *911:CK 3.2
196 *17:238 *17:195 3.2
197 *17:342 *531:CK 3.2
198 *17:186 *17:185 0.735449
199 *17:356 *17:252 3.2
200 *17:356 *17:357 2.80801
201 *17:207 *17:206 0.183887
202 *17:299 *17:298 3.2
203 *17:96 *17:306 0.183887
204 *17:329 *905:CK 3.2
205 *17:197 *17:101 3.2
206 *17:371 *17:135 3.2
207 *17:324 *17:323 3.2
208 *17:164 *17:163 0.367676
209 *17:235 *650:CK 6.4000001
210 *17:183 *17:332 0.183887
211 *17:239 *17:238 2.80801
212 *17:343 *17:342 3.2
213 *17:355 *17:186 3.2
214 *17:355 *17:356 2.80801
215 *17:295 *17:206 3.2
216 *17:295 *17:299 2.96396
217 *17:97 *921:CK 6.4000001
218 *17:97 *17:96 1.404
219 *17:198 *17:329 3.2
220 *17:198 *17:197 0.735449
221 *17:369 *17:371 1.09199
222 *17:325 *17:324 3.2
223 *17:328 *17:163 3.2
224 *17:157 *528:CK 3.2
225 *17:235 *17:234 0.155957
226 *17:331 *819:CK 3.2
227 *17:99 *910:CK 3.2
228 *17:305 *902:CK 6.4000001
229 *17:182 *909:CK 3.2
230 *17:183 *17:182 1.404
231 *17:341 *17:239 3.2
232 *17:341 *17:343 0.367676
233 *17:353 *826:CK 3.2
234 *17:354 *17:355 1.404
235 *17:294 *17:295 1.404
236 *17:304 *17:97 3.2
237 *17:304 *17:198 3.86104
238 *17:368 *711:CK 6.4000001
239 *17:132 *17:369 3.2
240 *17:325 *17:327 1.404
241 *17:327 *17:328 1.404
242 *17:158 *17:157 1.404
243 *17:230 *17:234 3.2
244 *17:313 *915:CK 3.2
245 *17:169 *17:331 3.2
246 *17:99 *17:98 1.404
247 *17:188 *17:305 3.2
248 *17:330 *17:182 3.2
249 *17:330 *17:341 3.49326
250 *17:344 *578:CK 6.4000001
251 *17:176 *17:353 3.2
252 *17:176 *17:354 3.2
253 *17:287 *938:CK 3.2
254 *17:293 *17:294 3.2
255 *17:293 *17:304 3.86104
256 *17:130 *17:368 3.2
257 *17:130 *17:132 0.551562
258 *17:340 *526:CK 3.2
259 *17:326 *17:327 3.2
260 *17:155 *17:158 3.2
261 *17:155 *17:230 0.919238
262 *17:170 *17:313 3.2
263 *17:170 *17:169 4.04482
264 *17:187 *17:98 3.2
265 *17:188 *17:187 0.183887
266 *17:187 *17:330 4.04482
267 *17:336 *817:CK 3.2
268 *17:173 *17:344 3.2
269 *17:173 *17:176 3.86104
270 *17:286 *935:CK 3.2
271 *17:288 *17:287 3.2
272 *17:288 *17:293 0.183887
273 *17:365 *555:CK 3.2
274 *17:131 *17:130 1.83857
275 *17:149 *17:340 3.2
276 *17:326 *17:156 2.57402
277 *17:156 *17:155 2.9417
278 *17:309 *17:170 0.183887
279 *17:312 *17:187 3.2
280 *17:311 *906:CK 6.4000001
281 *17:174 *17:336 3.2
282 *17:174 *17:173 3.86104
283 *17:285 *950:CK 3.2
284 *17:191 *17:286 3.2
285 *17:283 *17:288 0.183887
286 *17:347 *815:CK 3.2
287 *17:345 *529:CK 3.2
288 *17:366 *17:365 3.2
289 *17:243 *17:131 3.2
290 *17:150 *17:149 1.65469
291 *17:236 *523:CK 3.2
292 *17:236 *17:156 3.2
293 *17:310 *17:309 3.2
294 *17:310 *17:312 4.21201
295 *17:314 *532:CK 3.2
296 *17:292 *946:CK 6.4000001
297 *17:175 *17:311 3.2
298 *17:175 *17:174 4.96416
299 *17:180 *17:285 3.2
300 *17:192 *17:191 0.183887
301 *17:284 *17:283 3.2
302 *17:122 *17:347 3.2
303 *17:346 *17:345 3.2
304 *17:244 *17:366 3.2
305 *17:244 *17:243 1.55996
306 *17:102 *17:150 3.2
307 *17:102 *17:236 1.404
308 *17:154 *948:CK 6.4000001
309 *17:308 *17:310 2.80801
310 *17:315 *17:314 3.2
311 *17:290 *953:CK 6.4000001
312 *17:177 *17:292 3.2
313 *17:177 *17:175 4.22871
314 *17:181 *17:180 0.183887
315 *17:282 *17:192 3.2
316 *17:282 *17:284 1.404
317 *17:123 *17:122 0.367676
318 *17:240 *17:346 3.2
319 *17:245 *17:244 1.404
320 *17:103 *816:CK 3.2
321 *17:103 *17:102 2.80801
322 *17:337 *825:CK 3.2
323 *17:153 *904:CK 3.2
324 *17:154 *17:153 1.404
325 *17:307 *17:308 3.2
326 *17:307 *17:315 0.367676
327 *17:291 *17:290 3.2
328 *17:279 *17:177 0.367676
329 *17:281 *17:181 3.2
330 *17:281 *17:282 2.80801
331 *17:241 *17:123 3.2
332 *17:241 *17:240 1.404
333 *17:364 *557:CK 3.2
334 *17:129 *17:245 3.2
335 *17:237 *17:103 1.404
336 *17:237 *17:337 0.183887
337 *17:300 *940:CK 6.4000001
338 *17:165 *17:153 3.2
339 *17:165 *17:307 4.04482
340 *17:277 *17:291 0.367676
341 *17:280 *17:279 3.2
342 *17:280 *17:281 1.404
343 *17:317 *575:CK 3.2
344 *17:242 *17:241 1.404
345 *17:118 *17:364 3.2
346 *17:118 *17:129 0.183887
347 *17:139 *912:CK 3.2
348 *17:320 *577:CK 3.2
349 *17:145 *17:237 3.2
350 *17:302 *949:CK 3.2
351 *17:151 *17:300 3.2
352 *17:166 *17:165 0.551562
353 *17:278 *17:277 3.2
354 *17:278 *17:280 2.80801
355 *17:318 *17:317 3.2
356 *17:338 *534:CK 3.2
357 *17:119 *17:242 3.2
358 *17:119 *17:118 4.4126
359 *17:140 *903:CK 3.2
360 *17:140 *17:139 1.404
361 *17:146 *17:320 3.2
362 *17:146 *17:145 3.67715
363 *17:147 *17:302 3.2
364 *17:152 *17:151 0.551562
365 *17:276 *17:166 3.2
366 *17:276 *17:278 1.404
367 *17:319 *17:318 3.2
368 *17:321 *538:CK 3.2
369 *17:124 *17:338 3.2
370 *17:124 *17:119 2.9417
371 *17:303 *937:CK 6.4000001
372 *17:137 *17:140 3.2
373 *17:137 *17:146 5.8834
374 *17:148 *17:147 0.735449
375 *17:275 *17:152 3.2
376 *17:275 *17:276 4.21201
377 *17:316 *17:319 2.80801
378 *17:231 *17:321 3.2
379 *17:231 *17:124 4.04482
380 *17:127 *17:303 3.2
381 *17:138 *17:137 0.919238
382 *17:274 *17:148 3.2
383 *17:274 *17:275 1.404
384 *17:232 *17:316 3.2
385 *17:232 *17:231 2.20625
386 *17:128 *17:127 0.919238
387 *17:273 *17:138 3.2
388 *17:273 *17:274 2.80801
389 *17:233 *17:232 5.14805
390 *17:272 *17:128 3.2
391 *17:272 *17:273 2.80801
392 *17:116 *954:CK 6.4000001
393 *17:271 *17:233 3.2
394 *17:271 *17:272 1.404
395 *17:117 *17:116 1.09199
396 *17:117 *521:Y 3.2
397 *17:270 *17:271 2.496
398 *17:301 *17:117 3.2
399 *17:269 *17:270 3.2
400 *17:269 *17:301 0.735449
*END

*D_NET *18 0.0743345

*CONN
*I *905:RN I *C 65.67 112.84 *L 0.004 *D DFFRHQX1
*I *909:RN I *C 67.65 102.76 *L 0.004 *D DFFRHQX1
*I *911:RN I *C 68.31 98.84 *L 0.004 *D DFFRHQX1
*I *542:RN I *C 79.53 112.84 *L 0.004 *D DFFRHQX1
*I *819:RN I *C 68.31 88.76 *L 0.004 *D DFFRHQX1
*I *907:RN I *C 68.31 119 *L 0.004 *D DFFRHQX1
*I *817:RN I *C 70.95 92.68 *L 0.004 *D DFFRHQX1
*I *919:RN I *C 68.31 122.92 *L 0.004 *D DFFRHQX1
*I *913:RN I *C 68.31 129.08 *L 0.004 *D DFFRHQX1
*I *908:RN I *C 68.31 143.08 *L 0.004 *D DFFRHQX1
*I *914:RN I *C 68.31 139.16 *L 0.004 *D DFFRHQX1
*I *578:RN I *C 84.81 92.68 *L 0.004 *D DFFRHQX1
*I *531:RN I *C 81.51 102.76 *L 0.004 *D DFFRHQX1
*I *576:RN I *C 101.31 98.84 *L 0.004 *D DFFRHQX1
*I *823:RN I *C 101.97 108.92 *L 0.004 *D DFFRHQX1
*I *826:RN I *C 98.67 92.68 *L 0.004 *D DFFRHQX1
*I *710:RN I *C 113.19 102.76 *L 0.00239 *D DFFRX1
*I *645:RN I *C 107.91 98.84 *L 0.00239 *D DFFRX1
*I *827:RN I *C 97.35 119 *L 0.004 *D DFFRHQX1
*I *527:RN I *C 110.55 129.08 *L 0.004 *D DFFRHQX1
*I *524:RN I *C 96.69 129.08 *L 0.004 *D DFFRHQX1
*I *558:RN I *C 127.05 119 *L 0.004 *D DFFRHQX1
*I *822:RN I *C 97.35 133 *L 0.004 *D DFFRHQX1
*I *535:RN I *C 98.01 139.16 *L 0.004 *D DFFRHQX1
*I *556:RN I *C 124.41 129.08 *L 0.004 *D DFFRHQX1
*I *533:RN I *C 124.41 139.16 *L 0.004 *D DFFRHQX1
*I *530:RN I *C 137.61 112.84 *L 0.004 *D DFFRHQX1
*I *811:RN I *C 129.69 108.92 *L 0.004 *D DFFRHQX1
*I *539:RN I *C 138.27 129.08 *L 0.004 *D DFFRHQX1
*I *541:RN I *C 97.35 143.08 *L 0.004 *D DFFRHQX1
*I *540:RN I *C 123.09 143.08 *L 0.004 *D DFFRHQX1
*I *820:RN I *C 152.79 112.84 *L 0.004 *D DFFRHQX1
*I *814:RN I *C 140.25 139.16 *L 0.004 *D DFFRHQX1
*I *525:RN I *C 153.45 102.76 *L 0.004 *D DFFRHQX1
*I *818:RN I *C 153.45 98.84 *L 0.004 *D DFFRHQX1
*I *536:RN I *C 138.93 133 *L 0.004 *D DFFRHQX1
*I *808:RN I *C 152.79 133 *L 0.004 *D DFFRHQX1
*I *549:RN I *C 154.11 88.76 *L 0.004 *D DFFRHQX1
*I *553:RN I *C 153.45 82.6 *L 0.004 *D DFFRHQX1
*I *824:RN I *C 153.45 72.52 *L 0.004 *D DFFRHQX1
*I *554:RN I *C 153.45 68.6 *L 0.004 *D DFFRHQX1
*I *709:RN I *C 129.69 78.68 *L 0.00239 *D DFFRX1
*I *550:RN I *C 147.51 58.52 *L 0.004 *D DFFRHQX1
*I *708:RN I *C 113.85 68.6 *L 0.00239 *D DFFRX1
*I *652:RN I *C 127.05 72.52 *L 0.00239 *D DFFRX1
*I *726:RN I *C 144.21 52.36 *L 0.004 *D DFFRHQX1
*I *772:RN I *C 141.57 48.44 *L 0.004 *D DFFRHQX1
*I *706:RN I *C 141.57 38.36 *L 0.004 *D DFFRHQX1
*I *740:RN I *C 139.59 32.2 *L 0.004 *D DFFRHQX1
*I *760:RN I *C 154.77 32.2 *L 0.004 *D DFFRHQX1
*I *671:RN I *C 155.43 38.36 *L 0.004 *D DFFRHQX1
*I *522:Y O *C 72.27 117.88 *L 0 *D CLKBUFX3

*CAP
1 *905:RN 0.000139837
2 *909:RN 3.98668e-05
3 *911:RN 0.000139837
4 *542:RN 0.000139837
5 *819:RN 0.000139837
6 *907:RN 0.000139837
7 *817:RN 6.3301e-05
8 *919:RN 0.000139837
9 *913:RN 0.000139837
10 *908:RN 0.000139837
11 *914:RN 0.000139837
12 *578:RN 6.3301e-05
13 *531:RN 6.3301e-05
14 *576:RN 0.000139837
15 *823:RN 0.000139837
16 *826:RN 6.3301e-05
17 *710:RN 6.3301e-05
18 *645:RN 6.3301e-05
19 *827:RN 0.000139837
20 *527:RN 0.000139837
21 *524:RN 0.000139837
22 *558:RN 3.98668e-05
23 *822:RN 0.000139837
24 *535:RN 0.000139837
25 *556:RN 0.000139837
26 *533:RN 0.000139837
27 *530:RN 0.000139837
28 *811:RN 6.3301e-05
29 *539:RN 0.000139837
30 *541:RN 0.000139837
31 *540:RN 3.98668e-05
32 *820:RN 0.000139837
33 *814:RN 0.000139837
34 *525:RN 0.000139837
35 *818:RN 0.000139837
36 *536:RN 0.000139837
37 *808:RN 0.000139837
38 *549:RN 0.000139837
39 *553:RN 0.000139837
40 *824:RN 0.000139837
41 *554:RN 0.000139837
42 *709:RN 6.3301e-05
43 *550:RN 3.98668e-05
44 *708:RN 6.3301e-05
45 *652:RN 6.3301e-05
46 *726:RN 0.000139837
47 *772:RN 0.000139837
48 *706:RN 6.3301e-05
49 *740:RN 0.000139837
50 *760:RN 0.000139837
51 *671:RN 0.000139837
52 *522:Y 0.000440731
53 *18:52 0.000345869
54 *18:53 0.000345869
55 *18:54 8.17161e-05
56 *18:55 0.000262885
57 *18:56 0.000420083
58 *18:57 0.000540863
59 *18:58 0.000309896
60 *18:59 0.000444429
61 *18:60 0.000440731
62 *18:61 0.000610344
63 *18:62 0.000379556
64 *18:63 0.00024163
65 *18:64 0.00117055
66 *18:65 0.00093694
67 *18:66 0.00039806
68 *18:67 0.000471721
69 *18:68 0.000446072
70 *18:69 0.000845239
71 *18:70 0.000663267
72 *18:71 0.000253525
73 *18:72 0.000253525
74 *18:73 0.000427282
75 *18:74 0.00059375
76 *18:75 0.000179847
77 *18:76 0.000344065
78 *18:77 0.000344065
79 *18:78 0.000240415
80 *18:79 0.000125423
81 *18:80 0.000477544
82 *18:81 0.000517786
83 *18:82 0.000715083
84 *18:83 0.000715655
85 *18:84 0.000300965
86 *18:85 0.000335688
87 *18:86 0.000266582
88 *18:87 0.000274691
89 *18:88 0.000464987
90 *18:89 0.000464987
91 *18:90 0.000287802
92 *18:91 0.000287802
93 *18:92 0.000175024
94 *18:93 0.000180204
95 *18:94 0.000143552
96 *18:95 0.000265332
97 *18:96 0.000195636
98 *18:97 0.000105668
99 *18:98 0.000114385
100 *18:99 0.000364356
101 *18:100 0.000364356
102 *18:101 0.000377073
103 *18:102 0.000501371
104 *18:103 6.78199e-05
105 *18:104 0.000137497
106 *18:105 0.000538308
107 *18:106 0.000599287
108 *18:107 0.000230716
109 *18:108 0.000161039
110 *18:109 0.000228126
111 *18:110 0.000572835
112 *18:111 0.000289445
113 *18:112 0.000289445
114 *18:113 0.000156234
115 *18:114 0.00025165
116 *18:115 0.000244577
117 *18:116 0.000244577
118 *18:117 0.000190457
119 *18:118 0.000190457
120 *18:119 0.000585552
121 *18:120 0.000564743
122 *18:121 0.000177043
123 *18:122 0.000231913
124 *18:123 0.000200245
125 *18:124 0.000190099
126 *18:125 0.000310378
127 *18:126 0.000547989
128 *18:127 0.000256312
129 *18:128 0.000499031
130 *18:129 0.000499031
131 *18:130 0.000214677
132 *18:131 0.000214677
133 *18:132 0.000287712
134 *18:133 8.66102e-05
135 *18:134 8.66102e-05
136 *18:135 0.000226376
137 *18:136 0.000270833
138 *18:137 0.000974217
139 *18:138 0.000440696
140 *18:139 0.000567619
141 *18:140 0.000314236
142 *18:141 0.000140248
143 *18:142 0.000140248
144 *18:143 0.000216642
145 *18:144 0.000125745
146 *18:145 0.00025608
147 *18:146 0.000186402
148 *18:147 0.000450394
149 *18:148 0.00024438
150 *18:149 0.000518
151 *18:150 0.000560849
152 *18:151 0.000623365
153 *18:152 0.00105802
154 *18:153 0.000517089
155 *18:154 6.47656e-05
156 *18:155 0.000105007
157 *18:156 0.000109008
158 *18:157 8.88964e-05
159 *18:158 0.000125316
160 *18:159 0.000216838
161 *18:160 0.000180686
162 *18:161 0.00116389
163 *18:162 0.00105336
164 *18:163 0.000444125
165 *18:164 0.000452823
166 *18:165 0.000135604
167 *18:166 0.000479884
168 *18:167 0.000386933
169 *18:168 0.000386933
170 *18:169 0.000216088
171 *18:170 0.000804498
172 *18:171 0.000142231
173 *18:172 0.00013355
174 *18:173 0.000976539
175 *18:174 0.000976539
176 *18:175 0.000184348
177 *18:176 0.000364249
178 *18:177 0.000396042
179 *18:178 0.000135604
180 *18:179 9.95776e-05
181 *18:180 0.000489064
182 *18:181 0.000569584
183 *18:182 0.000134175
184 *18:183 0.000330222
185 *18:184 0.000643352
186 *18:185 0.000607414
187 *18:186 0.000151733
188 *18:187 0.000276031
189 *18:188 0.000229823
190 *18:189 0.000125852
191 *18:190 0.000365267
192 *18:191 0.000305145
193 *18:192 5.72459e-05
194 *18:193 0.000192832
195 *18:194 0.000105972
196 *18:195 0.0001206
197 *18:196 0.000186509
198 *18:197 0.000155109
199 *18:198 0.000458039
200 *18:199 7.24103e-05
201 *18:200 0.000273048
202 *18:201 0.000456467
203 *18:202 0.000590089
204 *18:203 0.000305145
205 *18:204 0.000142106
206 *18:205 0.00044934
207 *18:206 0.000449215
208 *18:207 0.000518893
209 *18:208 0.000182455
210 *18:209 0.0001206
211 *18:210 0.000180919
212 *18:211 0.000317041
213 *18:212 0.0001206
214 *18:213 0.0001206
215 *18:214 0.000240022
216 *18:215 7.51967e-05
217 *18:216 0.000142106
218 *18:217 9.04682e-05
219 *18:218 0.000295964
220 *18:219 7.51967e-05
221 *18:220 0.000142106
222 *18:221 6.99276e-05
223 *18:222 0.00010624
224 *18:223 0.000254776
225 *18:224 0.0001206
226 *18:225 0.000291392
227 *18:226 0.000236521
228 *18:227 0.000134175
229 *18:228 0.000408259
230 *18:229 0.000422888
231 *18:230 0.000146232
232 *18:231 0.0001206
233 *18:232 7.51967e-05
234 *18:233 0.000303752
235 *18:234 0.000818947
236 *18:235 0.000142106
237 *18:236 0.000142106
238 *18:237 0.000275531
239 *18:238 0.000726479
240 *18:239 0.000950908
241 *18:240 0.000142106
242 *18:241 0.0001206
243 *18:242 0.000195386
244 *18:243 0.0001206
245 *18:149 *48:17 0.00013537
246 *18:150 *48:16 0.00013537
247 *18:158 *48:17 1.506e-05
248 *18:151 *48:16 1.506e-05
249 *18:151 *48:17 0.00014763
250 *18:152 *48:16 0.00014763
251 *18:152 *48:15 6.024e-05
252 *18:153 *48:14 6.024e-05
253 *18:152 *48:13 7.545e-05
254 *18:153 *48:11 7.545e-05
255 *18:159 *48:8 5.17e-06
256 *18:147 *48:9 5.16999928e-06
257 *18:149 *180:15 7.468e-05
258 *18:150 *180:13 7.468e-05
259 *18:149 *180:12 2.884e-05
260 *18:150 *180:11 2.884e-05
261 *18:149 *180:11 1.506e-05
262 *18:150 *180:9 1.506e-05
263 *18:151 *180:7 0.00010578
264 *18:152 *180:8 0.00010578
265 *18:151 *180:3 3.821e-05
266 *18:152 *180:4 3.821e-05
267 *18:152 *180:3 0.00014832
268 *18:153 *180:4 0.00014832
269 *18:154 *180:5 5.17e-06
270 *18:155 *180:6 5.17e-06
271 *18:156 *180:5 2.659e-05
272 *18:157 *180:6 2.659e-05
273 *18:52 *180:5 4.413e-05
274 *18:53 *180:6 4.41300002e-05
275 *18:145 *47:11 2.216e-05
276 *18:146 *47:12 2.216e-05
277 *18:63 *47:17 0.00020616
278 *18:61 *47:16 0.00020616
279 *18:61 *47:17 6.267e-05
280 *18:62 *47:16 6.267e-05
281 *18:61 *47:16 0.00012204
282 *18:62 *47:15 0.000122040011
283 *18:97 *41:11 3.79e-05
284 *18:98 *41:9 3.79e-05
285 *18:84 *41:9 0.00010026
286 *18:85 *41:8 0.00010026
287 *18:82 *41:11 0.00013725
288 *18:83 *41:9 0.00013725
289 *18:82 *41:9 2.131e-05
290 *18:83 *41:8 2.13100105e-05
291 *18:86 *252:8 4.051e-05
292 *18:87 *252:6 4.051e-05
293 *18:88 *252:11 1.506e-05
294 *18:89 *252:7 1.506e-05
295 *18:86 *252:5 7.53e-06
296 *18:87 *252:4 7.53e-06
297 *18:90 *252:12 3.086e-05
298 *18:91 *252:10 3.086e-05
299 *18:92 *252:12 3.471e-05
300 *18:93 *252:10 3.471e-05
301 *18:93 *252:12 1.625e-05
302 *18:94 *252:10 1.625e-05
303 *18:95 *252:2 1.625e-05
304 *18:96 *252:3 1.62500029e-05
305 *18:139 *112:7 8.86e-06
306 *18:140 *112:6 8.86e-06
307 *18:141 *112:5 4.178e-05
308 *18:142 *112:4 4.178e-05
309 *18:139 *112:3 2.766e-05
310 *18:140 *112:2 2.766e-05
311 *18:140 *112:3 1.551e-05
312 *18:143 *112:2 1.551e-05
313 *18:143 *112:3 9.92e-06
314 *18:144 *112:2 9.91999814e-06

*RES
1 *18:96 *708:RN 6.4000001
2 *18:222 *709:RN 6.4000001
3 *18:96 *18:95 0.77998
4 *18:230 *706:RN 6.4000001
5 *18:90 *18:222 0.367676
6 *18:87 *18:95 3.2
7 *18:67 *18:230 0.551562
8 *18:91 *18:90 1.09199
9 *18:87 *18:86 1.28701
10 *18:68 *740:RN 3.2
11 *18:68 *18:67 1.71602
12 *18:241 *760:RN 3.2
13 *18:92 *18:91 0.367676
14 *18:86 *18:89 0.0780273
15 *18:70 *18:68 3.2
16 *18:242 *18:241 3.2
17 *18:243 *671:RN 3.2
18 *18:76 *726:RN 3.2
19 *18:231 *772:RN 3.2
20 *18:93 *652:RN 6.4000001
21 *18:93 *18:92 0.624023
22 *18:89 *18:88 2.02246
23 *18:70 *18:69 3.30947
24 *18:69 *18:242 0.919238
25 *18:71 *18:243 3.2
26 *18:77 *18:76 1.09199
27 *18:75 *18:231 3.2
28 *18:94 *18:93 0.312012
29 *18:217 *18:88 0.0780273
30 *18:66 *18:69 3.2
31 *18:72 *18:71 1.10312
32 *18:74 *18:77 3.2
33 *18:75 *18:74 0.735449
34 *18:218 *18:94 3.2
35 *18:217 *18:218 0.367676
36 *18:66 *18:65 1.71602
37 *18:65 *18:72 3.2
38 *18:74 *18:73 2.02246
39 *550:RN *18:232 0.223828
40 *18:218 *18:223 0.919238
41 *18:65 *18:64 2.80801
42 *18:64 *18:73 3.2
43 *18:233 *18:232 3.2
44 *18:85 *18:223 0.312012
45 *18:64 *18:234 2.80801
46 *18:233 *18:234 0.919238
47 *18:85 *18:84 1.83857
48 *18:234 *18:81 0.367676
49 *18:83 *18:84 0.155957
50 *18:81 *18:80 2.18398
51 *18:83 *18:82 4.04482
52 *18:80 *18:79 0.183887
53 *18:82 *18:98 0.155957
54 *18:78 *554:RN 3.2
55 *18:79 *18:78 0.624023
56 *18:98 *18:97 0.551562
57 *18:78 *18:237 0.467969
58 *18:237 *18:97 3.2
59 *18:238 *824:RN 3.2
60 *18:237 *18:238 0.624023
61 *18:239 *553:RN 3.2
62 *18:238 *18:239 2.80801
63 *18:240 *549:RN 3.2
64 *18:239 *18:110 1.71602
65 *18:110 *18:240 0.183887
66 *18:110 *18:109 1.09199
67 *18:112 *18:109 0.183887
68 *18:112 *18:111 1.24805
69 *18:111 *18:178 0.183887
70 *18:224 *530:RN 3.2
71 *18:177 *818:RN 3.2
72 *18:178 *18:177 0.467969
73 *18:128 *18:224 3.2
74 *18:176 *525:RN 3.2
75 *18:177 *18:176 1.09199
76 *18:127 *811:RN 6.4000001
77 *18:129 *18:128 2.20625
78 *18:176 *18:175 0.312012
79 *18:127 *18:126 1.09199
80 *18:126 *18:129 3.2
81 *18:181 *18:175 0.551562
82 *18:126 *18:132 1.24805
83 *18:181 *18:180 2.18398
84 *18:134 *18:132 0.183887
85 *18:180 *18:179 0.183887
86 *18:235 *820:RN 3.2
87 *18:236 *808:RN 3.2
88 *18:134 *18:133 0.312012
89 *558:RN *18:219 0.223828
90 *18:229 *814:RN 3.2
91 *18:179 *18:162 0.312012
92 *18:162 *18:235 0.183887
93 *18:160 *18:236 0.183887
94 *18:221 *18:133 0.183887
95 *18:220 *18:219 3.2
96 *18:228 *18:229 1.71602
97 *18:162 *18:161 4.83604
98 *18:161 *18:160 0.77998
99 *18:221 *18:136 0.155957
100 *18:220 *18:136 0.183887
101 *18:227 *536:RN 3.2
102 *18:227 *18:228 0.367676
103 *18:149 *18:161 3.2
104 *18:136 *18:135 1.09199
105 *18:226 *18:227 0.183887
106 *18:150 *18:149 3.49326
107 *18:145 *18:135 3.2
108 *18:212 *527:RN 3.2
109 *18:225 *539:RN 3.2
110 *18:225 *18:226 1.09199
111 *18:158 *18:150 0.312012
112 *18:146 *18:145 1.10312
113 *18:153 *18:212 3.2
114 *18:151 *18:225 3.2
115 *18:151 *18:158 0.367676
116 *540:RN *18:215 0.223828
117 *18:138 *18:146 3.2
118 *18:153 *18:152 3.86104
119 *18:152 *18:151 3.86104
120 *18:216 *18:215 3.2
121 *18:137 *556:RN 3.2
122 *18:138 *18:137 1.71602
123 *18:137 *18:152 3.2
124 *18:216 *18:169 0.183887
125 *18:170 *533:RN 3.2
126 *18:137 *18:170 2.80801
127 *18:170 *18:169 1.09199
128 *18:163 *18:170 3.2
129 *18:164 *18:163 2.20625
130 *18:164 *18:173 0.155957
131 *18:174 *18:173 4.59639
132 *18:171 *18:174 0.155957
133 *18:172 *18:171 0.551562
134 *18:204 *535:RN 3.2
135 *18:204 *18:172 3.2
136 *18:203 *541:RN 3.2
137 *18:202 *18:204 0.183887
138 *18:202 *18:203 1.09199
139 *18:201 *822:RN 3.2
140 *18:201 *18:202 1.71602
141 *18:159 *18:201 0.183887
142 *18:147 *524:RN 3.2
143 *18:147 *18:159 1.09199
144 *18:148 *18:147 0.936035
145 *18:148 *18:63 0.183887
146 *18:61 *827:RN 3.2
147 *18:61 *18:63 1.87197
148 *18:62 *18:61 2.02803
149 *18:117 *18:62 0.183887
150 *18:118 *18:117 0.77998
151 *18:118 *18:199 0.183887
152 *18:209 *823:RN 3.2
153 *18:213 *710:RN 6.4000001
154 *18:200 *18:199 3.2
155 *18:124 *18:209 3.2
156 *18:214 *18:213 3.2
157 *18:200 *18:125 0.735449
158 *18:125 *18:124 0.551562
159 *18:108 *645:RN 6.4000001
160 *18:211 *18:214 1.10312
161 *18:207 *18:125 3.2
162 *18:108 *18:107 0.624023
163 *18:210 *18:211 0.467969
164 *18:206 *18:207 2.18398
165 *18:119 *18:107 3.2
166 *18:119 *18:210 0.367676
167 *18:120 *18:206 3.2
168 *18:120 *18:119 2.20625
169 *18:208 *576:RN 3.2
170 *18:113 *18:120 3.2
171 *18:114 *18:208 0.367676
172 *18:114 *18:113 0.624023
173 *18:115 *18:114 0.183887
174 *18:196 *531:RN 6.4000001
175 *18:116 *18:115 0.936035
176 *18:57 *18:196 0.735449
177 *18:121 *18:116 0.183887
178 *18:191 *908:RN 3.2
179 *18:57 *18:56 1.87197
180 *18:122 *826:RN 6.4000001
181 *18:122 *18:121 0.77998
182 *18:190 *914:RN 3.2
183 *18:190 *18:191 1.09199
184 *18:56 *18:123 0.183887
185 *18:205 *18:122 3.2
186 *18:189 *18:190 0.467969
187 *18:59 *542:RN 3.2
188 *18:123 *18:59 0.936035
189 *18:103 *578:RN 6.4000001
190 *18:198 *18:205 2.20625
191 *18:167 *18:189 0.183887
192 *18:59 *18:58 1.24805
193 *18:104 *18:103 0.155957
194 *18:101 *18:198 0.155957
195 *18:168 *18:167 1.87197
196 *18:60 *18:58 3.2
197 *18:102 *18:104 3.2
198 *18:102 *18:101 1.65469
199 *18:168 *18:165 0.183887
200 *522:Y *18:60 2.46211
201 *18:197 *18:102 0.551562
202 *18:166 *913:RN 3.2
203 *18:166 *18:165 0.467969
204 *18:195 *522:Y 3.2
205 *18:99 *18:197 0.155957
206 *18:139 *919:RN 3.2
207 *18:139 *18:166 1.71602
208 *18:130 *18:195 3.2
209 *18:100 *18:99 1.65469
210 *18:140 *907:RN 3.2
211 *18:140 *18:139 1.09199
212 *18:131 *18:130 1.10312
213 *18:100 *18:105 0.155957
214 *18:143 *18:140 0.467969
215 *18:143 *18:131 3.2
216 *18:106 *18:105 2.02246
217 *18:144 *18:143 0.467969
218 *18:192 *18:106 3.2
219 *18:194 *817:RN 6.4000001
220 *18:141 *18:144 0.183887
221 *18:183 *819:RN 3.2
222 *18:192 *18:193 0.155957
223 *18:193 *18:194 0.367676
224 *18:142 *18:141 0.624023
225 *18:183 *18:184 1.09199
226 *18:184 *18:193 0.367676
227 *18:154 *18:142 0.183887
228 *909:RN *18:186 0.223828
229 *18:185 *911:RN 3.2
230 *18:184 *18:185 1.71602
231 *18:155 *18:154 0.155957
232 *18:187 *18:186 3.2
233 *18:185 *18:187 1.09199
234 *18:182 *905:RN 3.2
235 *18:182 *18:155 0.367676
236 *18:187 *18:188 0.155957
237 *18:156 *18:182 0.183887
238 *18:55 *18:188 0.919238
239 *18:157 *18:156 0.467969
240 *18:55 *18:54 0.467969
241 *18:52 *18:157 0.0918945
242 *18:53 *18:54 0.0918945
243 *18:53 *18:52 1.71602
*END

*D_NET *19 0.00538805

*CONN
*I *521:A I *C 23.43 23.24 *L 0.0305 *D CLKBUFX20
*P *19 I *C 0 0.28 *L 0

*CAP
1 *521:A 0.000139844
2 *19 0.000145721
3 *19:2 0.000179873
4 *19:3 0.00108764
5 *19:4 0.00107894
6 *19:5 0.00129226
7 *19:6 0.000120599
8 *19:7 0.000120599
9 *19:8 0.00122257

*RES
1 *19:6 *521:A 3.19998
2 *19:7 *19:6 3.19998
3 *19:8 *19:7 3.19998
4 *19:5 *19:8 6.23999977
5 *19:4 *19:5 3.19998
6 *19:3 *19:4 5.69956
7 *19:2 *19:3 0.155962
8 *19 *19:2 0.788379
*END

*D_NET *20 0.0655125

*CONN
*I *522:A I *C 70.95 117.88 *L 0.00331 *D CLKBUFX3
*P *20 I *C 0 9.8 *L 0
*I *954:RN I *C 39.27 28.28 *L 0.004 *D DFFRHQX1
*I *953:RN I *C 37.95 82.6 *L 0.004 *D DFFRHQX1
*I *952:RN I *C 37.29 119 *L 0.004 *D DFFRHQX1
*I *951:RN I *C 37.95 129.08 *L 0.004 *D DFFRHQX1
*I *950:RN I *C 37.29 98.84 *L 0.004 *D DFFRHQX1
*I *949:RN I *C 39.27 58.52 *L 0.004 *D DFFRHQX1
*I *948:RN I *C 38.61 72.52 *L 0.004 *D DFFRHQX1
*I *947:RN I *C 37.95 133 *L 0.004 *D DFFRHQX1
*I *946:RN I *C 37.95 92.68 *L 0.004 *D DFFRHQX1
*I *945:RN I *C 52.47 119 *L 0.004 *D DFFRHQX1
*I *940:RN I *C 38.61 62.44 *L 0.004 *D DFFRHQX1
*I *939:RN I *C 37.95 143.08 *L 0.004 *D DFFRHQX1
*I *938:RN I *C 37.29 112.84 *L 0.004 *D DFFRHQX1
*I *937:RN I *C 39.93 38.36 *L 0.004 *D DFFRHQX1
*I *936:RN I *C 37.95 139.16 *L 0.004 *D DFFRHQX1
*I *935:RN I *C 37.29 108.92 *L 0.004 *D DFFRHQX1
*I *921:RN I *C 51.81 112.84 *L 0.004 *D DFFRHQX1
*I *915:RN I *C 53.79 88.76 *L 0.004 *D DFFRHQX1
*I *912:RN I *C 39.93 52.36 *L 0.004 *D DFFRHQX1
*I *910:RN I *C 53.13 98.84 *L 0.004 *D DFFRHQX1
*I *906:RN I *C 53.13 92.68 *L 0.004 *D DFFRHQX1
*I *904:RN I *C 38.61 78.68 *L 0.004 *D DFFRHQX1
*I *903:RN I *C 39.93 48.44 *L 0.004 *D DFFRHQX1
*I *902:RN I *C 52.47 102.76 *L 0.004 *D DFFRHQX1
*I *825:RN I *C 74.91 48.44 *L 0.004 *D DFFRHQX1
*I *821:RN I *C 65.01 62.44 *L 0.004 *D DFFRHQX1
*I *816:RN I *C 74.25 52.36 *L 0.004 *D DFFRHQX1
*I *815:RN I *C 89.43 38.36 *L 0.004 *D DFFRHQX1
*I *751:RN I *C 113.85 52.36 *L 0.00239 *D DFFRX1
*I *711:RN I *C 103.29 42.28 *L 0.00239 *D DFFRX1
*I *651:RN I *C 105.27 48.44 *L 0.00239 *D DFFRX1
*I *650:RN I *C 80.19 68.6 *L 0.00239 *D DFFRX1
*I *577:RN I *C 61.05 48.44 *L 0.004 *D DFFRHQX1
*I *575:RN I *C 55.11 42.28 *L 0.004 *D DFFRHQX1
*I *557:RN I *C 103.95 32.2 *L 0.004 *D DFFRHQX1
*I *555:RN I *C 104.61 38.36 *L 0.004 *D DFFRHQX1
*I *538:RN I *C 63.03 32.2 *L 0.004 *D DFFRHQX1
*I *537:RN I *C 63.69 72.52 *L 0.004 *D DFFRHQX1
*I *534:RN I *C 77.55 32.2 *L 0.004 *D DFFRHQX1
*I *532:RN I *C 54.45 78.68 *L 0.004 *D DFFRHQX1
*I *529:RN I *C 88.11 42.28 *L 0.004 *D DFFRHQX1
*I *528:RN I *C 84.81 72.52 *L 0.004 *D DFFRHQX1
*I *526:RN I *C 80.19 62.44 *L 0.004 *D DFFRHQX1
*I *523:RN I *C 74.25 68.6 *L 0.004 *D DFFRHQX1

*CAP
1 *522:A 0.000139836
2 *20 0.00201737
3 *954:RN 0.000139836
4 *953:RN 0.000139836
5 *952:RN 0.000139836
6 *951:RN 0.000139836
7 *950:RN 6.33098e-05
8 *949:RN 0.000139836
9 *948:RN 0.000139836
10 *947:RN 0.000139836
11 *946:RN 6.33098e-05
12 *945:RN 0.000139836
13 *940:RN 0.000139836
14 *939:RN 0.000139836
15 *938:RN 0.000139836
16 *937:RN 0.000139836
17 *936:RN 0.000139836
18 *935:RN 0.000139836
19 *921:RN 0.000139836
20 *915:RN 0.000139836
21 *912:RN 0.000139836
22 *910:RN 0.000139836
23 *906:RN 0.000139836
24 *904:RN 0.000139836
25 *903:RN 0.000139836
26 *902:RN 3.98687e-05
27 *825:RN 0.000139836
28 *821:RN 0.000139836
29 *816:RN 0.000139836
30 *815:RN 0.000139836
31 *751:RN 6.33098e-05
32 *711:RN 6.33098e-05
33 *651:RN 6.33098e-05
34 *650:RN 6.33098e-05
35 *577:RN 0.000139836
36 *575:RN 0.000139836
37 *557:RN 0.000139836
38 *555:RN 0.000139836
39 *538:RN 0.000139836
40 *537:RN 0.000139836
41 *534:RN 0.000139836
42 *532:RN 0.000139836
43 *529:RN 0.000139836
44 *528:RN 0.000139836
45 *526:RN 0.000139836
46 *523:RN 0.000139836
47 *20:46 8.72809e-05
48 *20:47 0.000125435
49 *20:48 0.000621222
50 *20:49 0.000579576
51 *20:50 0.000186501
52 *20:51 0.000434441
53 *20:52 0.000596845
54 *20:53 0.00059111
55 *20:54 0.00120946
56 *20:55 0.00072359
57 *20:56 0.000638086
58 *20:57 0.000710716
59 *20:58 0.000710716
60 *20:59 0.000381511
61 *20:60 0.000429671
62 *20:61 0.000469259
63 *20:62 0.000469259
64 *20:63 0.000302771
65 *20:64 0.0002264
66 *20:65 0.000410501
67 *20:66 0.000491017
68 *20:67 0.00107259
69 *20:68 0.0002514
70 *20:69 0.000619133
71 *20:70 0.000619133
72 *20:71 0.000152554
73 *20:72 0.000291861
74 *20:73 0.000317141
75 *20:74 0.000430014
76 *20:75 0.000399341
77 *20:76 0.000213277
78 *20:77 0.000169699
79 *20:78 0.000898619
80 *20:79 0.000898619
81 *20:80 0.000203489
82 *20:81 0.000236219
83 *20:82 0.000116707
84 *20:83 0.000453892
85 *20:84 0.000420413
86 *20:85 0.000353394
87 *20:86 0.000353394
88 *20:87 0.000233757
89 *20:88 0.000178895
90 *20:89 0.000789611
91 *20:90 0.000719943
92 *20:91 0.000200746
93 *20:92 0.000255608
94 *20:93 0.00030034
95 *20:94 0.00062864
96 *20:95 0.000482788
97 *20:96 0.000106296
98 *20:97 0.000285845
99 *20:98 0.000643946
100 *20:99 0.000371505
101 *20:100 0.000806662
102 *20:101 0.000706882
103 *20:102 0.000349716
104 *20:103 0.000358413
105 *20:104 0.000214306
106 *20:105 0.000205609
107 *20:106 0.000379235
108 *20:107 0.000379235
109 *20:108 0.00030433
110 *20:109 0.000466236
111 *20:110 0.000401056
112 *20:111 0.000224904
113 *20:112 0.000518386
114 *20:113 0.00066215
115 *20:114 0.000224904
116 *20:115 0.00185007
117 *20:116 0.000815235
118 *20:117 0.00104827
119 *20:118 0.000120603
120 *20:119 0.000402708
121 *20:120 0.000417514
122 *20:121 0.000884342
123 *20:122 0.000705884
124 *20:123 0.000235471
125 *20:124 0.000120603
126 *20:125 0.000691077
127 *20:126 0.000606228
128 *20:127 0.000606228
129 *20:128 0.00030514
130 *20:129 0.00109958
131 *20:130 0.00204284
132 *20:131 0.000900863
133 *20:132 0.000426336
134 *20:133 9.39204e-05
135 *20:134 0.000142112
136 *20:135 0.000954011
137 *20:136 7.51862e-05
138 *20:137 0.00134528
139 *20:138 0.00033254
140 *20:139 0.00033254
141 *20:140 0.000152212
142 *20:141 0.00124344
143 *20:142 0.000152212
144 *20:143 0.000236032
145 *20:144 0.000250652
146 *20:145 0.000477395
147 *20:146 0.000480481
148 *20:147 0.000143265
149 *20:148 0.000109039
150 *20:149 0.000151993
151 *20:150 0.000363712
152 *20:151 8.47871e-05
153 *20:152 0.000154456
154 *20:153 0.000117175
155 *20:154 0.000363712
156 *20:155 0.000934342
157 *20:156 0.000185129
158 *20:157 6.79856e-05
159 *20:158 0.000178146
160 *20:159 0.000152212
161 *20:160 0.000799056
162 *20:161 0.000336094
163 *20:162 0.000397346
164 *20:163 0.000112187
165 *20:164 0.000182355
166 *20:165 6.571e-05
167 *20:166 0.000276743
168 *20:167 0.000242267
169 *20:168 0.000142112
170 *20:169 0.000138995
171 *20:170 6.93259e-05
172 *20:108 *116:8 9.405e-05
173 *20:109 *116:9 9.405e-05
174 *20:109 *116:12 5.896e-05
175 *20:55 *116:13 5.896e-05
176 *20:110 *116:8 4.834e-05
177 *20:100 *116:9 4.834e-05
178 *20:110 *116:6 5.17e-06
179 *20:100 *116:7 5.17e-06
180 *20:100 *116:8 5.868e-05
181 *20:101 *116:9 5.868e-05
182 *20:101 *116:8 3.283e-05
183 *20:111 *116:9 3.283e-05
184 *20:47 *116:2 1.034e-05
185 *20:112 *116:3 1.034e-05
186 *20:112 *116:2 2.645e-05
187 *20:113 *116:3 2.645e-05
188 *20:112 *116:6 4.287e-05
189 *20:113 *116:7 4.287e-05
190 *20:113 *116:6 3.283e-05
191 *20:114 *116:7 3.2829991e-05
192 *20:46 *126:6 4.067e-05
193 *20:47 *126:5 4.067e-05
194 *20:48 *126:3 0.00018471
195 *20:49 *126:2 0.00018471
196 *20:49 *126:3 0.00016465
197 *20:50 *126:2 0.000164649988
198 *20:48 *123:2 4.203e-05
199 *20:49 *123:3 4.203e-05
200 *20:48 *123:4 8.357e-05
201 *20:49 *123:5 8.357e-05
202 *20:112 *123:6 2.659e-05
203 *20:113 *123:7 2.659e-05
204 *20:47 *123:8 1.034e-05
205 *20:112 *123:9 1.034e-05
206 *20:112 *123:8 1.649e-05
207 *20:113 *123:9 1.649e-05
208 *20:48 *123:8 3.429e-05
209 *20:49 *123:9 3.429e-05
210 *20:49 *123:8 7.633e-05
211 *20:50 *123:9 7.63300156e-05

*RES
1 *20:61 *532:RN 3.19999
2 *20:62 *20:61 1.87203
3 *20:105 *20:62 3.19999
4 *20:105 *20:104 0.919297
5 *20:104 *20:103 0.156016
6 *20:103 *20:102 1.65464
7 *20:128 *939:RN 3.19999
8 *20:144 *537:RN 3.19999
9 *20:144 *20:102 3.19999
10 *20:127 *936:RN 3.19999
11 *20:127 *20:128 1.09195
12 *20:143 *20:144 0.78008
13 *20:126 *947:RN 3.19999
14 *20:126 *20:127 1.71601
15 *20:170 *751:RN 6.39999
16 *20:145 *821:RN 3.19999
17 *20:143 *20:148 0.367752
18 *20:123 *951:RN 3.19999
19 *20:123 *20:126 1.09195
20 *20:151 *522:A 3.19999
21 *20:169 *20:170 0.156016
22 *20:145 *20:146 1.87203
23 *20:146 *20:148 0.156016
24 *20:124 *20:123 3.19999
25 *20:60 *921:RN 3.19999
26 *20:134 *945:RN 3.19999
27 *20:151 *20:152 0.312032
28 *20:89 *20:169 3.19999
29 *20:147 *20:146 3.19999
30 *20:125 *20:124 3.19999
31 *20:60 *20:59 1.71601
32 *20:59 *20:134 0.183793
33 *20:117 *20:152 3.19999
34 *20:90 *20:89 2.20635
35 *20:147 *20:149 0.551545
36 *20:122 *20:125 3.58804
37 *20:115 *20:59 3.19999
38 *20:115 *20:117 5.33182
39 *20:87 *20:90 3.19999
40 *20:149 *20:150 0.156016
41 *20:120 *20:122 0.183793
42 *20:116 *20:115 4.04478
43 *20:88 *20:87 0.624064
44 *20:106 *528:RN 3.19999
45 *20:150 *20:154 1.65464
46 *902:RN *20:136 0.223878
47 *20:119 *20:120 2.02804
48 *20:51 *952:RN 3.19999
49 *20:51 *20:116 3.19999
50 *20:82 *20:88 0.183793
51 *20:161 *526:RN 3.19999
52 *20:163 *650:RN 6.39999
53 *20:107 *20:106 1.55999
54 *20:153 *20:154 0.156016
55 *20:93 *20:136 3.19999
56 *20:118 *20:119 3.19999
57 *20:52 *938:RN 3.19999
58 *20:52 *20:51 1.71601
59 *20:83 *651:RN 6.39999
60 *20:83 *20:82 0.312032
61 *20:161 *20:162 1.24796
62 *20:162 *20:163 0.468048
63 *20:97 *20:107 3.19999
64 *20:153 *20:158 0.367752
65 *20:94 *910:RN 3.19999
66 *20:94 *20:93 1.09195
67 *20:92 *915:RN 3.19999
68 *20:48 *935:RN 3.19999
69 *20:48 *20:118 3.19999
70 *20:48 *20:52 1.09195
71 *20:75 *557:RN 3.19999
72 *20:168 *555:RN 3.19999
73 *20:165 *711:RN 6.39999
74 *20:84 *20:83 1.71601
75 *20:98 *20:162 3.19999
76 *20:98 *20:97 1.28705
77 *20:157 *20:158 3.19999
78 *20:95 *906:RN 3.19999
79 *20:95 *20:94 1.71601
80 *20:92 *20:91 0.78008
81 *20:49 *950:RN 6.39999
82 *20:49 *20:48 2.80796
83 *20:75 *20:74 1.71601
84 *20:74 *20:168 0.183793
85 *20:165 *20:167 0.183793
86 *20:167 *20:84 0.367752
87 *20:99 *20:98 1.65464
88 *20:156 *523:RN 3.19999
89 *20:156 *20:157 0.156016
90 *20:96 *20:95 0.312032
91 *20:96 *20:91 0.183793
92 *20:50 *20:49 1.40398
93 *20:74 *20:166 0.468048
94 *20:166 *20:167 0.624064
95 *20:155 *20:99 3.19999
96 *20:155 *20:156 0.468048
97 *20:135 *20:96 3.19999
98 *20:50 *20:46 0.183793
99 *20:78 *20:166 3.19999
100 *20:67 *816:RN 3.19999
101 *20:67 *20:155 4.05592
102 *20:121 *20:135 4.22873
103 *20:47 *946:RN 6.39999
104 *20:47 *20:46 0.312032
105 *20:79 *20:78 4.41253
106 *20:80 *529:RN 3.19999
107 *20:68 *20:67 1.09195
108 *20:112 *20:121 3.19999
109 *20:112 *20:47 0.312032
110 *20:164 *815:RN 3.19999
111 *20:81 *20:79 3.19999
112 *20:81 *20:80 0.624064
113 *20:63 *825:RN 3.19999
114 *20:68 *20:63 0.183793
115 *20:113 *953:RN 3.19999
116 *20:113 *20:112 2.49592
117 *20:76 *20:164 0.367752
118 *20:76 *20:81 0.468048
119 *20:64 *20:63 1.24796
120 *20:114 *20:113 1.09195
121 *20:77 *20:76 0.624064
122 *20:64 *20:65 0.183793
123 *20:110 *904:RN 3.19999
124 *20:114 *20:110 0.183793
125 *20:69 *20:77 3.19999
126 *20:66 *20:65 2.02804
127 *20:100 *948:RN 3.19999
128 *20:100 *20:110 1.71601
129 *20:85 *577:RN 3.19999
130 *20:70 *20:69 2.94168
131 *20:66 *20:71 0.551545
132 *20:101 *940:RN 3.19999
133 *20:101 *20:100 2.80796
134 *20:86 *20:85 1.71601
135 *20:72 *20:70 3.19999
136 *20:72 *20:71 0.156016
137 *20:111 *20:101 1.09195
138 *20:139 *20:86 3.19999
139 *20:73 *534:RN 3.19999
140 *20:73 *20:72 1.09195
141 *20:133 *949:RN 3.19999
142 *20:111 *20:133 0.183793
143 *20:138 *20:139 1.65464
144 *20:142 *538:RN 3.19999
145 *20:159 *20:73 0.312032
146 *20:133 *20:108 0.183793
147 *20:57 *575:RN 3.19999
148 *20:57 *20:138 3.19999
149 *20:140 *20:142 0.312032
150 *20:160 *20:159 3.19999
151 *20:109 *912:RN 3.19999
152 *20:109 *20:108 1.71601
153 *20:58 *20:57 3.11999
154 *20:141 *20:140 3.19999
155 *20:141 *20:160 4.04478
156 *20:55 *903:RN 3.19999
157 *20:55 *20:109 1.09195
158 *20:137 *20:58 3.19999
159 *20:137 *20:141 2.20635
160 *20:56 *937:RN 3.19999
161 *20:56 *20:55 2.80796
162 *20:131 *20:137 4.41253
163 *20:132 *20:56 0.183793
164 *20:53 *20:131 3.19999
165 *20:53 *20:132 2.02804
166 *20:54 *954:RN 3.19999
167 *20:54 *20:53 0.78008
168 *20:129 *20:54 5.14803
169 *20:130 *20:129 3.19999
170 *20 *20:130 10.9005003
*END

*D_NET *21 0.00634818

*CONN
*P *21 I *C 0 176.12 *L 0
*I *939:D I *C 27.39 144.76 *L 0.00184 *D DFFRHQX1

*CAP
1 *21 0.0014031
2 *939:D 6.33026e-05
3 *21:2 0.000118256
4 *21:3 0.000103455
5 *21:4 0.000906728
6 *21:5 0.000906728
7 *21:6 0.000496743
8 *21:7 0.000551609
9 *21:8 0.00142856
10 *21:2 *22:9 1.427e-05
11 *21:3 *22:8 1.427e-05
12 *21:4 *22:6 0.00017058
13 *21:5 *22:5 0.000170580005

*RES
1 *21:3 *939:D 6.39999
2 *21:3 *21:2 0.467955
3 *21:5 *21:2 0.183823
4 *21:5 *21:4 5.77195
5 *21:4 *21:6 0.183823
6 *21:6 *21:7 2.49603
7 *21:8 *21:7 3.20005
8 *21 *21:8 7.59107161
*END

*D_NET *22 0.00652964

*CONN
*P *22 I *C 0 166.04 *L 0
*I *936:D I *C 27.39 137.48 *L 0.00184 *D DFFRHQX1

*CAP
1 *22 0.00147352
2 *936:D 6.32895e-05
3 *22:2 0.00010597
4 *22:3 0.000357321
5 *22:4 0.000317042
6 *22:5 0.00084845
7 *22:6 0.000903345
8 *22:7 0.00149898
9 *22:8 0.000295999
10 *22:9 0.000295999
11 *22:9 *21:2 1.427e-05
12 *22:8 *21:3 1.427e-05
13 *22:6 *21:4 0.00017058
14 *22:5 *21:5 0.000170580005

*RES
1 *22:2 *936:D 6.39996
2 *22:2 *22:3 0.367725
3 *22:3 *22:4 1.40398
4 *22:4 *22:8 0.183862
5 *22:8 *22:9 1.40398
6 *22:5 *22:9 0.183862
7 *22:5 *22:6 5.14802
8 *22:7 *22:6 3.19998
9 *22 *22:7 7.95878553
*END

*D_NET *23 0.00609047

*CONN
*P *23 I *C 0 156.52 *L 0
*I *947:D I *C 27.39 134.68 *L 0.00184 *D DFFRHQX1

*CAP
1 *23 4.37566e-05
2 *947:D 6.3307e-05
3 *23:2 0.00135009
4 *23:3 0.00128042
5 *23:4 0.000109021
6 *23:5 0.000163902
7 *23:6 0.000534536
8 *23:7 0.000534536
9 *23:8 0.000496733
10 *23:9 0.000551614
11 *23:10 6.92195e-05
12 *23:11 0.000120599
13 *23:2 *25:4 0.00026787
14 *23:3 *25 0.000267870003
15 *23:4 *24:5 2.659e-05
16 *23:5 *24:4 2.659e-05
17 *23:6 *24:5 9.191e-05
18 *23:7 *24:4 9.19100019e-05

*RES
1 *23:11 *947:D 6.39999
2 *23:2 *23:11 3.19999
3 *23:3 *23:2 7.35428572
4 *23:5 *23:3 3.19999
5 *23:5 *23:4 0.467947
6 *23:7 *23:4 0.183812
7 *23:7 *23:6 3.11998
8 *23:6 *23:8 0.183812
9 *23:8 *23:9 2.49605
10 *23:10 *23:9 3.19999
11 *23 *23:10 0.236779
*END

*D_NET *24 0.00564108

*CONN
*P *24 I *C 0 146.44 *L 0
*I *951:D I *C 27.39 127.4 *L 0.00184 *D DFFRHQX1

*CAP
1 *24 0.000113663
2 *951:D 6.33089e-05
3 *24:2 0.00128054
4 *24:3 0.00121086
5 *24:4 0.000937187
6 *24:5 0.000937187
7 *24:6 0.000139123
8 *24:7 8.25165e-05
9 *24:8 8.25165e-05
10 *24:2 *26:5 0.00027859
11 *24:3 *26 0.000278589986
12 *24:5 *23:4 2.659e-05
13 *24:4 *23:5 2.659e-05
14 *24:5 *23:6 9.191e-05
15 *24:4 *23:7 9.19100019e-05

*RES
1 *24:7 *951:D 6.40002
2 *24:7 *24:8 0.312038
3 *24:2 *24:8 3.20001
4 *24:3 *24:2 6.98657131
5 *24:4 *24:3 3.20001
6 *24:4 *24:5 4.99196
7 *24:6 *24:5 3.20001
8 *24 *24:6 0.60446
*END

*D_NET *25 0.00690632

*CONN
*P *25 I *C 0 136.92 *L 0
*I *945:D I *C 41.91 117.32 *L 0.00184 *D DFFRHQX1

*CAP
1 *25 0.00199927
2 *945:D 6.33047e-05
3 *25:2 0.00117647
4 *25:3 0.0011068
5 *25:4 0.00202473
6 *25:4 *23:2 0.00026787
7 *25 *23:3 0.000267870003

*RES
1 *25:3 *945:D 6.39997
2 *25:3 *25:2 5.46002
3 *25:4 *25:2 3.19999
4 *25 *25:4 11.6359282
*END

*D_NET *26 0.00407453

*CONN
*P *26 I *C 0 126.84 *L 0
*I *952:D I *C 26.73 117.32 *L 0.00184 *D DFFRHQX1

*CAP
1 *26 0.00116618
2 *952:D 6.32959e-05
3 *26:2 3.00387e-05
4 *26:3 0.000487821
5 *26:4 0.000578373
6 *26:5 0.00119164
7 *26:5 *24:2 0.00027859
8 *26 *24:3 0.000278589986

*RES
1 *26:2 *952:D 6.40005
2 *26:2 *26:3 0.0209096
3 *26:3 *26:4 2.49605
4 *26:5 *26:4 3.19997
5 *26 *26:5 7.40721416
*END

*D_NET *27 0.00327396

*CONN
*P *27 I *C 0 117.32 *L 0
*I *938:D I *C 26.73 114.52 *L 0.00184 *D DFFRHQX1

*CAP
1 *27 0.00133512
2 *938:D 6.33084e-05
3 *27:2 7.01825e-05
4 *27:3 0.00136928
5 *27:4 0.000152442
6 *27:5 0.000222123
7 *27:6 6.14907e-05

*RES
1 *27:4 *938:D 6.40002
2 *27:4 *27:5 0.623954
3 *27:6 *27:5 3.20001
4 *27:2 *27:6 0.183846
5 *27:2 *27:3 0.155961
6 *27 *27:3 7.2233572
*END

*D_NET *28 0.00292696

*CONN
*P *28 I *C 0 107.24 *L 0
*I *935:D I *C 26.73 107.24 *L 0.00184 *D DFFRHQX1

*CAP
1 *28 0.00135881
2 *935:D 6.32829e-05
3 *28:2 0.000120588
4 *28:3 0.00138426

*RES
1 *28:2 *935:D 6.40005
2 *28:3 *28:2 3.19997
3 *28 *28:3 7.40721416
*END

*D_NET *29 0.0029953

*CONN
*P *29 I *C 0 97.72 *L 0
*I *950:D I *C 26.73 97.16 *L 0.00184 *D DFFRHQX1

*CAP
1 *29 0.00072344
2 *950:D 6.33038e-05
3 *29:2 0.000669534
4 *29:3 0.0007576
5 *29:4 0.000120596
6 *29:5 0.000660841

*RES
1 *29:4 *950:D 6.4000001
2 *29:5 *29:4 3.2
3 *29:2 *29:5 3.49326
4 *29:2 *29:3 0.155957
5 *29 *29:3 3.91396
*END

*D_NET *30 0.00371496

*CONN
*P *30 I *C 0 88.2 *L 0
*I *946:D I *C 27.39 94.36 *L 0.00184 *D DFFRHQX1

*CAP
1 *30 0.00140568
2 *946:D 6.33078e-05
3 *30:2 0.000442259
4 *30:3 0.00143114
5 *30:4 0.000372575

*RES
1 *30:4 *946:D 6.39999
2 *30:2 *30:4 1.71603
3 *30:3 *30:2 3.20005
4 *30 *30:3 7.59107161
*END

*D_NET *31 0.00372381

*CONN
*P *31 I *C 0 78.12 *L 0
*I *953:D I *C 27.39 84.28 *L 0.00184 *D DFFRHQX1

*CAP
1 *31 0.00123318
2 *953:D 6.32926e-05
3 *31:2 0.0013015
4 *31:3 0.000256983
5 *31:4 0.0003622
6 *31:5 0.000214126
7 *31:6 0.000292512

*RES
1 *31:6 *953:D 6.39997
2 *31:4 *31:6 1.40397
3 *31:5 *31:4 3.19999
4 *31:3 *31:5 0.919284
5 *31:2 *31:3 0.312027
6 *31 *31:2 6.67178583
*END

*D_NET *32 0.00376343

*CONN
*P *32 I *C 0 68.6 *L 0
*I *948:D I *C 28.05 74.2 *L 0.00184 *D DFFRHQX1

*CAP
1 *32 0.0014538
2 *948:D 6.32921e-05
3 *32:2 0.00147926
4 *32:3 0.000418373
5 *32:4 0.000348693

*RES
1 *32:4 *948:D 6.40006
2 *32:3 *32:4 1.55994
3 *32:2 *32:3 3.19997
4 *32 *32:2 7.77492857
*END

*D_NET *33 0.00373685

*CONN
*P *33 I *C 0 58.52 *L 0
*I *940:D I *C 28.05 64.12 *L 0.00184 *D DFFRHQX1

*CAP
1 *33 0.00126717
2 *940:D 6.33037e-05
3 *33:2 0.00130132
4 *33:3 0.000229526
5 *33:4 0.000362209
6 *33:5 0.000220828
7 *33:6 0.000292512

*RES
1 *33:6 *940:D 6.39997
2 *33:4 *33:6 1.40395
3 *33:5 *33:4 3.19998
4 *33:3 *33:5 0.919302
5 *33:2 *33:3 0.155972
6 *33 *33:2 6.8556428
*END

*D_NET *34 0.00409794

*CONN
*P *34 I *C 0 49 *L 0
*I *949:D I *C 28.71 56.84 *L 0.00184 *D DFFRHQX1

*CAP
1 *34 0.00138495
2 *949:D 6.32947e-05
3 *34:2 0.000559343
4 *34:3 0.000533711
5 *34:4 0.00141041
6 *34:5 0.000146238

*RES
1 *34:5 *949:D 6.40005
2 *34:2 *34:5 0.551563
3 *34:3 *34:2 2.18398
4 *34:4 *34:3 3.19997
5 *34 *34:4 7.40721416
*END

*D_NET *35 0.00351171

*CONN
*P *35 I *C 0 38.92 *L 0
*I *937:D I *C 29.37 36.68 *L 0.00184 *D DFFRHQX1

*CAP
1 *35 0.00153705
2 *937:D 6.33015e-05
3 *35:2 0.000139573
4 *35:3 0.000209265
5 *35:4 0.00156251

*RES
1 *35:2 *937:D 6.39996
2 *35:2 *35:3 0.623968
3 *35:4 *35:3 3.19998
4 *35 *35:4 8.14264297
*END

*D_NET *36 0.00349726

*CONN
*P *36 I *C 0 29.4 *L 0
*I *954:D I *C 28.71 26.6 *L 0.00184 *D DFFRHQX1

*CAP
1 *36 0.00147366
2 *954:D 6.32954e-05
3 *36:2 0.000195742
4 *36:3 0.00026542
5 *36:4 0.00149912

*RES
1 *36:2 *954:D 6.39996
2 *36:2 *36:3 0.780018
3 *36:4 *36:3 3.19998
4 *36 *36:4 7.95878553
*END

*D_NET *37 0.0129378

*CONN
*P *37 O *C 182.16 35.56 *L 0
*I *848:A1N I *C 83.49 32.76 *L 0.00223 *D AOI2BB1XL
*I *839:B I *C 86.79 33.32 *L 0.00439 *D NOR3X1
*I *815:Q O *C 90.75 36.68 *L 0 *D DFFRHQX1

*CAP
1 *37 0.000519532
2 *848:A1N 0.000139836
3 *839:B 6.33069e-05
4 *815:Q 6.33069e-05
5 *37:4 0.000297123
6 *37:5 0.000121283
7 *37:6 0.000843147
8 *37:7 0.000826069
9 *37:8 0.000165956
10 *37:9 0.000165956
11 *37:10 0.000107154
12 *37:11 0.000124232
13 *37:12 0.000319468
14 *37:13 0.000319468
15 *37:14 0.000111042
16 *37:15 0.000447929
17 *37:16 0.000260681
18 *37:17 0.00018015
19 *37:18 0.000112679
20 *37:19 0.00106189422
21 *37:20 0.00100092
22 *37:21 0.000908545
23 *37:22 0.000298209
24 *37:23 0.000908545
25 *37:24 0.000298209
26 *37:25 0.000849758
27 *37:26 0.000622019
28 *37:27 0.000918072
29 *37:8 *258:6 9.718e-05
30 *37:9 *258:7 9.718e-05
31 *37:10 *258:6 0.00012676
32 *37:11 *258:7 0.00012676
33 *37:20 *258:6 1.263e-05
34 *37:19 *258:7 1.26300034e-05
35 *37:6 *261:17 6.199e-05
36 *37:7 *261:14 6.199e-05
37 *37:8 *261:17 3.413e-05
38 *37:9 *261:14 3.413e-05
39 *37:8 *261:14 8.406e-05
40 *37:9 *261:11 8.406e-05
41 *37:10 *261:14 2.489e-05
42 *37:11 *261:11 2.48900024e-05

*RES
1 *37:26 *37 2.81074
2 *37:26 *37:27 0.467969
3 *37:25 *37:27 4.4126
4 *37:24 *37:25 0.155957
5 *37:22 *37:24 1.4709
6 *37:22 *37:23 0.155957
7 *37:21 *37:23 4.4126
8 *37:21 *37:12 0.155957
9 *37:13 *37:12 1.28701
10 *37:6 *37:13 0.155957
11 *37:7 *37:6 4.04482
12 *37:8 *37:7 0.0780273
13 *37:9 *37:8 1.28701
14 *37:9 *37:10 0.0780273
15 *37:11 *37:10 0.735449
16 *37:20 *37:11 0.155957
17 *37:19 *37:20 4.96416
18 *37:18 *37:19 3.2
19 *37:18 *815:Q 6.4000001
20 *37:17 *37:18 0.367676
21 *37:14 *839:B 6.4000001
22 *37:16 *37:17 0.467969
23 *37:14 *37:15 0.467969
24 *37:15 *37:16 0.735449
25 *37:4 *37:15 0.919238
26 *37:5 *37:4 0.624023
27 *848:A1N *37:5 3.2
*END

*D_NET *38 0.0130555

*CONN
*P *38 O *C 182.16 44.52 *L 0
*I *871:A1 I *C 64.35 43.4 *L 0.00324 *D OAI21XL
*I *854:AN I *C 68.31 43.4 *L 0.0024 *D NAND3BX1
*I *825:Q O *C 76.23 46.76 *L 0 *D DFFRHQX1

*CAP
1 *38 0.000961302
2 *871:A1 6.33173e-05
3 *854:AN 6.33173e-05
4 *825:Q 0.000139842
5 *38:4 0.000187233
6 *38:5 0.00016326
7 *38:6 0.000205934
8 *38:7 0.000205934
9 *38:8 0.000341947
10 *38:9 0.000341947
11 *38:10 0.000503653
12 *38:11 0.000503653
13 *38:12 6.58145e-05
14 *38:13 0.000256599
15 *38:14 0.000256599
16 *38:15 5.09424e-05
17 *38:16 0.00356702
18 *38:17 7.24181e-05
19 *38:18 0.00363672
20 *38:19 0.000986773
21 *38:20 0.000268141
22 *38:21 0.000213259

*RES
1 *38:19 *38 5.20103
2 *38:20 *38:19 3.19993
3 *38:20 *38:21 0.936054
4 *38:17 *38:21 0.183756
5 *38:18 *38:17 3.19993
6 *38:16 *38:18 24.0852852
7 *38:13 *38:16 3.19993
8 *38:6 *825:Q 3.19993
9 *38:14 *38:13 0.779861
10 *38:7 *38:6 0.467843
11 *38:10 *38:14 3.19993
12 *38:10 *38:7 3.19993
13 *38:11 *38:10 2.20618
14 *38:4 *38:11 3.19993
15 *38:5 *854:AN 6.39986
16 *38:5 *38:4 0.467843
17 *38:12 *38:5 0.155825
18 *38:8 *38:12 6.39986
19 *38:9 *38:8 1.10327
20 *38:15 *38:9 6.39986
21 *871:A1 *38:15 6.39986
*END

*D_NET *39 0.0127281

*CONN
*P *39 O *C 182.16 53.48 *L 0
*I *866:A1N I *C 70.29 57.96 *L 0.00223 *D AOI2BB1XL
*I *838:B I *C 77.55 57.4 *L 0.00439 *D NOR3X1
*I *816:Q O *C 75.57 54.04 *L 0 *D DFFRHQX1

*CAP
1 *39 0.00230255
2 *866:A1N 0.000139853
3 *838:B 6.33015e-05
4 *816:Q 6.33015e-05
5 *39:4 0.00232798344
6 *39:5 0.000294342
7 *39:6 0.000224681
8 *39:7 0.000464957
9 *39:8 0.000334802
10 *39:9 0.000143583
11 *39:10 5.51313e-05
12 *39:11 0.000124791
13 *39:12 0.0001206
14 *39:13 0.0001206
15 *39:14 0.00226521
16 *39:15 0.000312352
17 *39:16 0.000312352
18 *39:17 0.00226521
19 *39:17 *40:12 0.00039629
20 *39:14 *40:13 0.000396289992

*RES
1 *39:4 *39 12.1875
2 *39:15 *39:4 3.19993
3 *39:15 *39:16 1.09202
4 *39:17 *39:16 3.19993
5 *39:14 *39:17 16.9148579
6 *39:12 *838:B 6.40011
7 *39:13 *39:14 3.19993
8 *39:6 *816:Q 6.40011
9 *39:9 *39:12 3.19993
10 *39:9 *39:13 3.19993
11 *39:6 *39:5 0.935871
12 *39:7 *39:9 0.55156
13 *39:7 *39:5 3.19993
14 *39:10 *866:A1N 3.19993
15 *39:8 *39:7 1.47091
16 *39:11 *39:10 0.155893
17 *39:11 *39:8 3.19993
*END

*D_NET *40 0.015406

*CONN
*P *40 O *C 182.16 61.88 *L 0
*I *879:A1 I *C 49.17 63.56 *L 0.00324 *D OAI21XL
*I *855:AN I *C 45.21 63.56 *L 0.0024 *D NAND3BX1
*I *821:Q O *C 66.33 64.12 *L 0 *D DFFRHQX1

*CAP
1 *40 0.00174497
2 *879:A1 0.000139839
3 *855:AN 0.000139839
4 *821:Q 0.000139839
5 *40:4 0.000235253
6 *40:5 0.000235253
7 *40:6 0.0011048
8 *40:7 0.000244451
9 *40:8 0.000873712
10 *40:9 8.68286e-05
11 *40:10 0.000156488
12 *40:11 0.00177045
13 *40:12 0.00196643
14 *40:13 0.00200929
15 *40:14 0.000120585
16 *40:15 0.000120585
17 *40:16 0.00089775
18 *40:17 0.000940612
19 *40:18 0.000181659
20 *40:19 0.000181659
21 *40:12 *329:21 0.0002384
22 *40:13 *329:22 0.0002384
23 *40:12 *329:22 0.00027608
24 *40:13 *329:23 0.000276079995
25 *40:12 *39:17 0.00039629
26 *40:13 *39:14 0.000396289992
27 *40:8 *348:11 3.79e-05
28 *40:6 *348:3 3.79e-05
29 *40:8 *348:3 7.543e-05
30 *40:6 *348:4 7.543e-05
31 *40:6 *348:3 2.489e-05
32 *40:7 *348:4 2.489e-05
33 *40:9 *348:6 8.86e-06
34 *40:10 *348:5 8.86000219e-06

*RES
1 *40:11 *40 9.42969
2 *40:19 *40:11 3.19993
3 *40:18 *40:19 0.467936
4 *40:12 *40:18 3.19993
5 *40:13 *40:12 16.9148579
6 *40:13 *40:17 0.312043
7 *40:16 *40:17 5.8834
8 *40:9 *879:A1 3.19993
9 *40:15 *40:16 3.19993
10 *40:14 *821:Q 3.19993
11 *40:10 *40:9 0.467936
12 *40:8 *40:15 3.19993
13 *40:8 *40:14 3.19993
14 *40:6 *40:10 3.19993
15 *40:6 *40:8 4.78027
16 *40:4 *855:AN 3.19993
17 *40:7 *40:6 1.10312
18 *40:5 *40:4 0.624086
19 *40:5 *40:7 3.19993
*END

*D_NET *41 0.00735635

*CONN
*P *41 O *C 182.16 70.84 *L 0
*I *858:A1N I *C 138.93 73.08 *L 0.00223 *D AOI2BB1XL
*I *834:B I *C 131.67 67.48 *L 0.00439 *D NOR3X1
*I *824:Q O *C 154.77 74.2 *L 0 *D DFFRHQX1

*CAP
1 *41 0.000655449
2 *858:A1N 0.00013985
3 *834:B 0.00013985
4 *824:Q 0.00013985
5 *41:4 0.000223521
6 *41:5 0.000223521
7 *41:6 0.000305204
8 *41:7 0.000235525
9 *41:8 0.000407219
10 *41:9 0.00116752
11 *41:10 0.000120617
12 *41:11 0.00153339
13 *41:12 0.00068961
14 *41:13 0.000781798
15 *41:11 *18:97 3.79e-05
16 *41:9 *18:98 3.79e-05
17 *41:9 *18:84 0.00010026
18 *41:8 *18:85 0.00010026
19 *41:11 *18:82 0.00013725
20 *41:9 *18:83 0.00013725
21 *41:9 *18:82 2.131e-05
22 *41:8 *18:83 2.13100105e-05

*RES
1 *41:12 *41 3.54623
2 *41:4 *858:A1N 3.20002
3 *41:12 *41:13 0.156005
4 *41:10 *824:Q 3.20002
5 *41:5 *41:4 0.468014
6 *41:11 *41:13 4.04488
7 *41:11 *41:10 3.20002
8 *41:9 *41:5 3.20002
9 *41:9 *41:11 4.41257143
10 *41:8 *41:9 2.02241
11 *41:6 *41:8 3.20002
12 *41:7 *41:6 1.09203
13 *834:B *41:7 3.20002
*END

*D_NET *42 0.0140735

*CONN
*P *42 O *C 182.16 79.8 *L 0
*I *870:A1 I *C 61.05 83.72 *L 0.00324 *D OAI21XL
*I *851:AN I *C 65.01 83.72 *L 0.0024 *D NAND3BX1
*I *819:Q O *C 69.63 87.08 *L 0 *D DFFRHQX1

*CAP
1 *42 0.00211672
2 *870:A1 0.00013983
3 *851:AN 6.33112e-05
4 *819:Q 6.33112e-05
5 *42:4 0.000207645
6 *42:5 0.000313784
7 *42:6 0.000377139
8 *42:7 0.000446816
9 *42:8 0.000168801
10 *42:9 0.00010064
11 *42:10 0.000122335
12 *42:11 0.000283385
13 *42:12 0.000251772
14 *42:13 0.000298714
15 *42:14 0.000231896
16 *42:15 0.000157109
17 *42:16 0.000157109
18 *42:17 0.000304431
19 *42:18 0.000304431
20 *42:19 0.000146239
21 *42:20 0.00283796
22 *42:21 0.00214219
23 *42:22 0.00283796

*RES
1 *42:21 *42 11.4522
2 *42:18 *42:21 3.20007
3 *42:18 *42:17 1.09197
4 *42:22 *42:17 3.20007
5 *42:20 *42:22 18.7534294
6 *42:16 *42:20 3.20007
7 *42:16 *42:15 0.311909
8 *42:6 *42:15 3.20007
9 *42:19 *819:Q 6.40013
10 *42:7 *42:6 1.65483
11 *42:12 *42:19 0.551706
12 *42:13 *42:7 3.20007
13 *42:13 *42:12 0.624103
14 *42:14 *42:13 0.735417
15 *42:8 *851:AN 6.40013
16 *42:8 *42:14 0.311909
17 *42:9 *42:8 0.311909
18 *42:10 *42:9 0.183997
19 *42:4 *870:A1 3.20007
20 *42:11 *42:10 0.467863
21 *42:5 *42:4 0.624103
22 *42:5 *42:11 0.919415
*END

*D_NET *43 0.0120214

*CONN
*P *43 O *C 182.16 88.2 *L 0
*I *862:A1N I *C 70.95 88.2 *L 0.00223 *D AOI2BB1XL
*I *843:B I *C 76.23 87.64 *L 0.00439 *D NOR3X1
*I *817:Q O *C 72.27 94.36 *L 0 *D DFFRHQX1

*CAP
1 *43 0.00147105
2 *862:A1N 0.000139843
3 *843:B 6.3311e-05
4 *817:Q 4.12221e-05
5 *43:4 0.000422646
6 *43:5 0.000352944
7 *43:6 0.000276092
8 *43:7 0.000301896
9 *43:8 0.000123666
10 *43:9 7.65324e-05
11 *43:10 0.00014208
12 *43:11 5.09284e-05
13 *43:12 0.00012059
14 *43:13 0.000700535
15 *43:14 0.00261772
16 *43:15 0.000709203
17 *43:16 0.000152825
18 *43:17 0.00260901
19 *43:18 0.00149654
20 *43:19 0.000152825

*RES
1 *43:18 *43 7.9588
2 *43:19 *43:18 3.19987
3 *43:16 *43:19 0.31197
4 *43:17 *43:16 3.19987
5 *43:14 *43:17 17.2825718
6 *43:14 *43:15 0.156117
7 *43:13 *43:15 4.22861
8 *43:9 *817:Q 0.223891
9 *43:11 *843:B 6.40001
10 *43:12 *43:13 3.19987
11 *43:10 *43:9 3.19987
12 *43:4 *43:11 6.40001
13 *43:4 *43:12 3.19987
14 *43:6 *43:10 0.183807
15 *43:5 *43:4 1.47098
16 *43:7 *862:A1N 3.19987
17 *43:7 *43:6 1.09203
18 *43:8 *43:5 3.19987
19 *43:8 *43:7 0.156117
*END

*D_NET *44 0.0119851

*CONN
*P *44 O *C 182.16 97.16 *L 0
*I *880:A1 I *C 85.47 97.72 *L 0.00324 *D OAI21XL
*I *852:AN I *C 81.51 97.72 *L 0.0024 *D NAND3BX1
*I *826:Q O *C 99.99 94.36 *L 0 *D DFFRHQX1

*CAP
1 *44 0.00171752
2 *880:A1 6.33036e-05
3 *852:AN 6.33036e-05
4 *826:Q 6.33036e-05
5 *44:4 0.000685034
6 *44:5 0.000719175
7 *44:6 0.000208539
8 *44:7 0.000217243
9 *44:8 6.35284e-05
10 *44:9 7.22322e-05
11 *44:10 0.00174295
12 *44:11 0.000232017
13 *44:12 0.000238729
14 *44:13 5.09062e-05
15 *44:14 0.000201634
16 *44:15 0.000278651
17 *44:16 5.09062e-05
18 *44:17 0.000270526
19 *44:18 0.00210482
20 *44:19 0.000270526
21 *44:20 0.00028273
22 *44:21 0.00210482
23 *44:22 0.00028273

*RES
1 *44:10 *44 9.06184
2 *44:22 *44:10 3.20009
3 *44:20 *44:22 0.936104
4 *44:21 *44:20 3.20009
5 *44:18 *44:21 13.7892857
6 *44:17 *44:18 3.20009
7 *44:12 *826:Q 6.39997
8 *44:17 *44:19 0.936104
9 *44:12 *44:11 0.779982
10 *44:6 *44:19 3.20009
11 *44:6 *44:11 3.20009
12 *44:7 *44:6 0.735375
13 *44:16 *880:A1 6.39997
14 *44:4 *44:7 0.155912
15 *44:8 *44:16 6.39997
16 *44:5 *44:4 3.49319
17 *44:9 *44:8 0.183896
18 *44:5 *44:15 0.312035
19 *44:15 *44:9 0.155912
20 *44:14 *44:15 0.919272
21 *44:13 *44:14 6.39997
22 *852:AN *44:13 6.39997
*END

*D_NET *45 0.00951198

*CONN
*P *45 O *C 182.16 106.12 *L 0
*I *859:A1N I *C 115.17 108.36 *L 0.00223 *D AOI2BB1XL
*I *837:B I *C 112.53 107.8 *L 0.00439 *D NOR3X1
*I *811:Q O *C 131.01 107.24 *L 0 *D DFFRHQX1

*CAP
1 *45 0.000655465
2 *859:A1N 0.000139845
3 *837:B 6.33044e-05
4 *811:Q 0.000139845
5 *45:4 0.000139227
6 *45:5 0.00012444
7 *45:6 0.000689783
8 *45:7 0.000689783
9 *45:8 0.00029782
10 *45:9 0.000280729
11 *45:10 0.000314941
12 *45:11 0.000314941
13 *45:12 0.000102937
14 *45:13 0.000180999
15 *45:14 0.000986834297
16 *45:15 0.000986834297
17 *45:16 0.000186495
18 *45:17 0.000204535
19 *45:18 0.000156966
20 *45:19 0.000171105
21 *45:20 0.000138655
22 *45:21 0.000193542
23 *45:22 0.000831675
24 *45:23 0.000689617
25 *45:24 0.000831675

*RES
1 *45:23 *45 3.54619
2 *45:23 *45:24 0.155957
3 *45:22 *45:24 4.22871
4 *45:6 *45:22 0.155957
5 *45:7 *45:6 3.30947
6 *45:7 *45:8 0.155957
7 *45:9 *45:8 1.4709
8 *45:10 *45:9 0.0780273
9 *45:11 *45:10 1.4709
10 *45:11 *45:12 0.0780273
11 *45:13 *45:12 0.367676
12 *45:5 *45:13 3.2
13 *45:5 *45:4 0.467969
14 *45:4 *45:20 0.183887
15 *45:20 *45:21 0.467969
16 *45:21 *811:Q 3.2
17 *45:14 *45:21 3.2
18 *45:15 *45:14 4.4126
19 *45:19 *45:15 3.2
20 *45:18 *859:A1N 3.2
21 *45:18 *45:19 0.467969
22 *45:17 *45:18 0.155957
23 *45:16 *45:17 0.735449
24 *837:B *45:16 6.4000001
*END

*D_NET *46 0.0130222

*CONN
*P *46 O *C 182.16 115.08 *L 0
*I *869:A1 I *C 87.45 107.8 *L 0.00324 *D OAI21XL
*I *856:AN I *C 84.15 107.8 *L 0.0024 *D NAND3BX1
*I *823:Q O *C 103.29 107.24 *L 0 *D DFFRHQX1

*CAP
1 *46 0.00311184
2 *869:A1 6.33091e-05
3 *856:AN 6.33091e-05
4 *823:Q 6.33091e-05
5 *46:4 0.000170352
6 *46:5 0.000161615
7 *46:6 9.49159e-05
8 *46:7 0.000116401
9 *46:8 0.000585967
10 *46:9 0.000664029
11 *46:10 6.14948e-05
12 *46:11 7.01843e-05
13 *46:12 0.000731779
14 *46:13 0.000740182
15 *46:14 0.000225449
16 *46:15 0.000225449
17 *46:16 0.00312893
18 *46:17 0.000150872
19 *46:18 0.000142517
20 *46:19 0.000345192
21 *46:20 0.000345192
22 *46:21 0.000120602
23 *46:22 6.56963e-05
24 *46:23 5.09433e-05
25 *46:24 0.000407546
26 *46:25 0.000407546
27 *46:14 *85:25 8.768e-05
28 *46:15 *85:19 8.768e-05
29 *46:14 *85:19 3.413e-05
30 *46:15 *85:16 3.413e-05
31 *46 *85:25 0.00013897
32 *46:16 *85:19 0.00013897
33 *46:12 *85:19 9.299e-05
34 *46:13 *85:16 9.2989999e-05

*RES
1 *46:16 *46 16.9677849
2 *46:16 *46:14 0.0779313
3 *46:15 *46:14 1.28703
4 *46:12 *46:15 0.0779313
5 *46:13 *46:12 3.67727
6 *46:25 *46:13 3.2001
7 *46:24 *46:25 1.55992
8 *46:23 *823:Q 6.39994
9 *46:17 *46:24 3.2001
10 *46:17 *46:23 6.39994
11 *46:18 *46:17 0.551474
12 *46:18 *46:19 0.0779313
13 *46:20 *46:19 1.47086
14 *46:8 *46:20 0.0779313
15 *46:9 *46:8 2.57406
16 *46:22 *869:A1 6.39994
17 *46:6 *46:9 3.2001
18 *46:7 *46:22 0.183825
19 *46:7 *46:6 0.311984
20 *46:10 *46:7 6.39994
21 *46:11 *46:10 0.183825
22 *46:4 *46:11 0.156121
23 *46:5 *46:4 0.551474
24 *46:21 *46:5 3.2001
25 *856:AN *46:21 6.39994
*END

*D_NET *47 0.013854

*CONN
*P *47 O *C 182.16 123.48 *L 0
*I *861:A1N I *C 91.41 113.4 *L 0.00223 *D AOI2BB1XL
*I *833:B I *C 96.69 113.96 *L 0.00439 *D NOR3X1
*I *827:Q O *C 98.67 117.32 *L 0 *D DFFRHQX1

*CAP
1 *47 0.0014031
2 *861:A1N 0.000139842
3 *833:B 6.32903e-05
4 *827:Q 0.000139842
5 *47:4 0.000270427
6 *47:5 0.00020074
7 *47:6 0.000142312
8 *47:7 0.000455149
9 *47:8 0.000326254
10 *47:9 0.00147078
11 *47:10 0.00147078
12 *47:11 0.00170407844
13 *47:12 0.00166994
14 *47:13 0.000433983
15 *47:14 0.000494959
16 *47:15 0.000183292
17 *47:16 0.000534587
18 *47:17 0.000332573
19 *47:18 0.0001206
20 *47:19 0.00147141
21 *47:11 *18:145 2.216e-05
22 *47:12 *18:146 2.216e-05
23 *47:17 *18:63 0.00020616
24 *47:16 *18:61 0.00020616
25 *47:17 *18:61 6.267e-05
26 *47:16 *18:62 6.267e-05
27 *47:16 *18:61 0.00012204
28 *47:15 *18:62 0.000122040011

*RES
1 *47:19 *47 7.59112
2 *47:19 *47:11 0.311959
3 *47:12 *47:11 7.90585709
4 *47:12 *47:9 0.15598
5 *47:10 *47:9 6.43497
6 *47:13 *47:10 0.15598
7 *47:14 *47:13 1.83858
8 *47:15 *833:B 6.39999
9 *47:17 *47:14 3.20005
10 *47:18 *827:Q 3.20005
11 *47:15 *47:16 0.935998
12 *47:16 *47:17 2.02797
13 *47:6 *47:18 3.20005
14 *47:7 *47:16 3.20005
15 *47:7 *47:6 0.551538
16 *47:8 *47:7 1.47089
17 *47:4 *47:8 3.20005
18 *47:5 *47:4 1.09198
19 *861:A1N *47:5 3.20005
*END

*D_NET *48 0.0105169

*CONN
*P *48 O *C 182.16 132.44 *L 0
*I *857:A1N I *C 99.99 133.56 *L 0.00223 *D AOI2BB1XL
*I *832:B I *C 108.57 134.12 *L 0.00439 *D NOR3X1
*I *822:Q O *C 98.67 134.68 *L 0 *D DFFRHQX1

*CAP
1 *48 0.00143708
2 *857:A1N 7.97041e-05
3 *832:B 6.33136e-05
4 *822:Q 0.000219529
5 *48:4 0.000185489
6 *48:5 0.000240349
7 *48:6 0.000722373
8 *48:7 0.000608382
9 *48:8 0.000120759
10 *48:9 0.000120759
11 *48:10 6.57194e-05
12 *48:11 0.000348517
13 *48:12 0.000136093
14 *48:13 0.000348517
15 *48:14 0.000262136
16 *48:15 0.000262136
17 *48:16 0.00147345828
18 *48:17 0.00147345828
19 *48:18 0.00147123
20 *48:17 *18:149 0.00013537
21 *48:16 *18:150 0.00013537
22 *48:17 *18:158 1.506e-05
23 *48:16 *18:151 1.506e-05
24 *48:17 *18:151 0.00014763
25 *48:16 *18:152 0.00014763
26 *48:15 *18:152 6.024e-05
27 *48:14 *18:153 6.024e-05
28 *48:13 *18:152 7.545e-05
29 *48:11 *18:153 7.545e-05
30 *48:8 *18:159 5.17e-06
31 *48:9 *18:147 5.16999928e-06

*RES
1 *48:18 *48 7.77488
2 *48:17 *48:18 0.156022
3 *48:16 *48:17 8.45742893
4 *48:15 *48:16 0.156022
5 *48:14 *48:15 1.47091
6 *48:10 *832:B 6.39998
7 *48:13 *48:14 0.156022
8 *48:10 *48:4 0.183896
9 *48:11 *48:13 2.02247
10 *48:5 *48:4 0.779979
11 *48:11 *48:12 0.156022
12 *822:Q *857:A1N 0.447675
13 *48:6 *48:5 3.20006
14 *48:6 *48:12 0.55156
15 *48:7 *48:6 2.9417
16 *48:8 *822:Q 3.20006
17 *48:9 *48:7 3.20006
18 *48:9 *48:8 0.156022
*END

*D_NET *49 0.0108229

*CONN
*P *49 O *C 182.16 141.4 *L 0
*I *868:A1N I *C 146.85 93.24 *L 0.00223 *D AOI2BB1XL
*I *842:B I *C 144.21 93.8 *L 0.00439 *D NOR3X1
*I *818:Q O *C 154.77 97.16 *L 0 *D DFFRHQX1

*CAP
1 *49 0.000791391
2 *868:A1N 0.000139852
3 *842:B 0.000111903
4 *818:Q 0.000139852
5 *49:4 0.000511011
6 *49:5 0.000511011
7 *49:6 0.000142749
8 *49:7 0.000102343
9 *49:8 0.000252729
10 *49:9 0.000245065
11 *49:10 0.000153095
12 *49:11 7.65338e-05
13 *49:12 6.58364e-05
14 *49:13 0.000155532
15 *49:14 0.00177482
16 *49:15 0.00168502
17 *49:16 0.000368099
18 *49:17 0.000422994
19 *49:18 0.000637159
20 *49:19 0.00049812
21 *49:20 0.00049812
22 *49:21 0.000680029
23 *49:22 0.000859719

*RES
1 *49:22 *49 4.28162
2 *49:21 *49:22 0.311995
3 *49:18 *49:21 3.30946
4 *49:17 *49:18 3.19995
5 *49:16 *49:17 1.71597
6 *49:16 *49:20 0.183798
7 *49:19 *49:20 2.33996
8 *49:15 *49:19 0.183798
9 *49:14 *49:15 7.95599985
10 *49:14 *818:Q 3.19995
11 *49:13 *49:14 0.311995
12 *49:4 *49:13 3.19995
13 *49:5 *49:4 2.2063
14 *49:8 *49:5 3.19995
15 *49:9 *868:A1N 3.19995
16 *49:9 *49:8 0.779988
17 *49:6 *49:9 0.367717
18 *49:7 *49:6 0.311995
19 *49:12 *49:7 0.183798
20 *49:11 *49:12 6.40003
21 *49:10 *842:B 0.569725
22 *49:10 *49:11 0.22386
*END

*D_NET *50 0.00763723

*CONN
*P *50 O *C 182.16 149.8 *L 0
*I *878:A1 I *C 132.33 144.2 *L 0.00324 *D OAI21XL
*I *853:AN I *C 131.67 148.12 *L 0.0024 *D NAND3BX1
*I *814:Q O *C 141.57 137.48 *L 0 *D DFFRHQX1

*CAP
1 *50 0.00201479
2 *878:A1 3.98494e-05
3 *853:AN 0.000139847
4 *814:Q 0.000139847
5 *50:4 0.00055453
6 *50:5 0.00055453
7 *50:6 0.000336354
8 *50:7 0.000336354
9 *50:8 7.51847e-05
10 *50:9 0.000315091
11 *50:10 0.000443356
12 *50:11 0.00023424
13 *50:12 0.000199154
14 *50:13 0.000213786
15 *50:14 0.00204026

*RES
1 *50:14 *50 10.9005003
2 *50:13 *50:14 3.19999
3 *50:12 *50:13 0.624064
4 *50:9 *814:Q 3.19999
5 *50:11 *50:12 0.367752
6 *50:9 *50:10 1.09195
7 *50:10 *50:11 0.93593
8 *50:4 *50:10 3.19999
9 *50:6 *853:AN 3.19999
10 *50:5 *50:4 2.75789
11 *50:7 *50:6 1.09195
12 *50:7 *50:5 3.19999
13 *50:8 *878:A1 0.223878
14 *50:8 *50:7 3.19999
*END

*D_NET *51 0.0118291

*CONN
*P *51 O *C 182.16 158.76 *L 0
*I *860:A1N I *C 144.87 108.36 *L 0.00223 *D AOI2BB1XL
*I *841:B I *C 140.91 107.8 *L 0.00439 *D NOR3X1
*I *820:Q O *C 154.11 114.52 *L 0 *D DFFRHQX1

*CAP
1 *51 0.000145732
2 *860:A1N 7.76856e-05
3 *841:B 6.32855e-05
4 *820:Q 0.000225424
5 *51:4 0.000682881
6 *51:5 0.000940568
7 *51:6 0.000114984
8 *51:7 0.000271083
9 *51:8 0.000292132
10 *51:9 0.000346998
11 *51:10 5.09117e-05
12 *51:11 0.000156532
13 *51:12 0.00012061
14 *51:13 7.24134e-05
15 *51:14 0.000850705
16 *51:15 0.000122892
17 *51:16 0.000850705
18 *51:17 0.000602363
19 *51:18 0.00128921828
20 *51:19 0.00128921828
21 *51:20 0.000600396
22 *51:21 0.00110997
23 *51:22 0.00105508
24 *51:23 0.00013562
25 *51:24 0.000190486
26 *51:25 0.000171188

*RES
1 *51:25 *51 0.788307
2 *51:24 *51:25 3.20002
3 *51:23 *51:24 0.467986
4 *51:19 *51:23 0.183855
5 *51:18 *51:19 6.55200005
6 *51:18 *51:22 0.183855
7 *51:21 *51:22 5.304
8 *51:20 *51:21 3.20002
9 *51:17 *51:20 3.35738
10 *51:16 *51:17 0.189954
11 *51:14 *51:16 4.70035
12 *51:14 *51:15 0.189954
13 *820:Q *51:15 0.447691
14 *51:13 *820:Q 3.20002
15 *51:6 *860:A1N 0.447691
16 *51:8 *51:13 0.183855
17 *51:11 *51:6 0.189954
18 *51:9 *51:8 1.09203
19 *51:12 *51:11 3.20002
20 *51:4 *51:9 3.20002
21 *51:5 *51:12 3.20002
22 *51:5 *51:4 2.75783
23 *51:7 *51:5 0.73542
24 *51:10 *51:7 6.40004
25 *841:B *51:10 6.40004
*END

*D_NET *52 0.0102597

*CONN
*P *52 O *C 182.16 167.72 *L 0
*I *867:A1N I *C 146.85 128.52 *L 0.00223 *D AOI2BB1XL
*I *840:B I *C 141.57 127.96 *L 0.00439 *D NOR3X1
*I *808:Q O *C 154.11 134.68 *L 0 *D DFFRHQX1

*CAP
1 *52 7.77359e-05
2 *867:A1N 0.000139845
3 *840:B 6.33086e-05
4 *808:Q 0.000225437
5 *52:4 0.000145844
6 *52:5 0.000160471
7 *52:6 0.000389879
8 *52:7 0.000592318
9 *52:8 0.000215838
10 *52:9 0.000346912
11 *52:10 0.000401821
12 *52:11 0.00187226
13 *52:12 0.00187226
14 *52:13 0.00010599
15 *52:14 0.000183041
16 *52:15 0.000113361
17 *52:16 7.24221e-05
18 *52:17 0.000850695
19 *52:18 0.000122903
20 *52:19 0.000850695
21 *52:20 0.00067771
22 *52:21 0.000675739
23 *52:22 0.000103191

*RES
1 *52:22 *52 0.420623
2 *52:11 *52:22 3.19997
3 *52:12 *52:11 9.20400047
4 *52:21 *52:12 3.19997
5 *52:20 *52:21 3.80499
6 *52:19 *52:20 0.189877
7 *52:17 *52:19 4.70031
8 *52:17 *52:18 0.189877
9 *808:Q *52:18 0.447588
10 *52:16 *808:Q 3.19997
11 *52:9 *52:16 0.183838
12 *52:15 *867:A1N 3.19997
13 *52:10 *52:9 1.404
14 *52:14 *52:15 0.467952
15 *52:6 *52:10 3.19997
16 *52:7 *52:14 3.19997
17 *52:7 *52:6 1.83852
18 *52:8 *52:7 1.10317
19 *52:5 *52:8 3.19997
20 *52:5 *52:4 0.312062
21 *52:13 *52:4 0.367677
22 *840:B *52:13 6.39994
*END

*D_NET *53 0.0105704

*CONN
*P *53 O *C 182.16 0.84 *L 0
*I *759:B1 I *C 126.39 37.24 *L 0.00434 *D AOI22X1
*I *740:Q O *C 140.91 33.88 *L 0 *D DFFRHQX1

*CAP
1 *53 0.00211674
2 *759:B1 8.85894e-05
3 *740:Q 0.000139836
4 *53:3 0.000379497
5 *53:4 0.000449148
6 *53:5 0.00163269
7 *53:6 0.001563
8 *53:7 0.000822611
9 *53:8 0.000200485
10 *53:9 0.00218506
11 *53:10 0.000170144
12 *53:11 0.000822611

*RES
1 *53:9 *53 11.4520712
2 *53:9 *53:10 0.311919
3 *53:6 *53:10 3.19993
4 *53:6 *53:5 8.112
5 *53:5 *740:Q 3.19993
6 *53:8 *759:B1 0.447696
7 *53:11 *53:5 3.19993
8 *53:3 *53:8 3.19993
9 *53:7 *53:11 4.41265
10 *53:4 *53:3 1.71599
11 *53:4 *53:7 3.19993
*END

*D_NET *54 0.00826467

*CONN
*P *54 O *C 182.16 9.24 *L 0
*I *767:A0N I *C 146.85 43.4 *L 0.00186 *D OAI2BB2X1
*I *760:Q O *C 156.09 33.88 *L 0 *D DFFRHQX1

*CAP
1 *54 0.00133513
2 *767:A0N 0.000451153
3 *760:Q 0.000139841
4 *54:3 0.000299847
5 *54:4 0.000299847
6 *54:5 0.000180099
7 *54:6 9.95835e-05
8 *54:7 0.000267574
9 *54:8 0.0004865
10 *54:9 0.000322466
11 *54:10 0.00146003
12 *54:11 0.00136059
13 *54:12 0.00156204

*RES
1 *54:11 *54 7.2233572
2 *54:10 *54:11 3.20001
3 *54:10 *54:12 6.86404
4 *54:12 *760:Q 3.20001
5 *54:5 *54:12 0.551539
6 *54:5 *54:6 0.312032
7 *54:3 *54:6 0.183846
8 *54:3 *54:4 1.24802
9 *54:4 *54:7 0.183846
10 *54:7 *54:9 1.09195
11 *54:8 *54:9 3.20001
12 *767:A0N *54:8 2.46209
*END

*D_NET *55 0.00804838

*CONN
*P *55 O *C 182.16 18.2 *L 0
*I *696:A1 I *C 146.19 47.32 *L 0.00314 *D AOI21XL
*I *671:Q O *C 156.75 36.68 *L 0 *D DFFRHQX1

*CAP
1 *55 0.000519538
2 *696:A1 0.000139848
3 *671:Q 0.000222232
4 *55:3 0.000525074
5 *55:4 0.000525074
6 *55:5 0.000120595
7 *55:6 0.000179619
8 *55:7 0.000277166
9 *55:8 0.00011864
10 *55:9 0.000277166
11 *55:10 0.00027204
12 *55:11 0.000263334
13 *55:12 0.000119708
14 *55:13 0.000708093
15 *55:14 0.000187981
16 *55:15 0.000708093
17 *55:16 0.00107658
18 *55:17 0.000545001
19 *55:18 0.000186009
20 *55:19 0.00107658

*RES
1 *55:17 *55 2.81076
2 *55:16 *55:17 3.19998
3 *55:16 *55:19 5.14799976
4 *55:18 *55:19 3.19998
5 *55:14 *55:18 0.895338
6 *55:14 *55:15 0.189939
7 *55:13 *55:15 3.80507
8 *55:12 *55:13 0.189939
9 *671:Q *55:12 0.447669
10 *55:4 *671:Q 3.19998
11 *55:4 *55:3 2.18399
12 *55:11 *55:3 3.19998
13 *55:10 *55:11 1.287
14 *55:9 *55:10 0.156005
15 *55:7 *55:9 1.287
16 *55:7 *55:8 0.156005
17 *55:6 *55:8 0.367703
18 *55:5 *55:6 3.19998
19 *696:A1 *55:5 3.19998
*END

*D_NET *56 0.00694576

*CONN
*P *56 O *C 182.16 27.16 *L 0
*I *712:A0N I *C 138.27 43.4 *L 0.00189 *D OAI2BB1XL
*I *706:Q O *C 142.89 36.68 *L 0 *D DFFRHQX1

*CAP
1 *56 0.00204879
2 *712:A0N 0.000254631
3 *706:Q 4.12094e-05
4 *56:3 0.000266089
5 *56:4 0.00101647
6 *56:5 0.000801305
7 *56:6 0.00207424
8 *56:7 7.65318e-05
9 *56:8 0.000366485

*RES
1 *56:6 *56 11.0843573
2 *56:5 *56:6 3.20001
3 *56:7 *706:Q 0.223764
4 *56:5 *56:4 3.27595
5 *56:4 *56:7 3.20001
6 *56:4 *56:3 1.24804
7 *56:8 *56:3 3.20001
8 *712:A0N *56:8 1.34292
*END

*D_NET *57 0.0211471

*CONN
*P *57 O *C 182.16 176.12 *L 0
*I *944:AN I *C 131.01 42.84 *L 0.00218 *D NOR2BX1
*I *772:Q O *C 142.89 46.76 *L 0 *D DFFRHQX1

*CAP
1 *57 0.00194682
2 *944:AN 6.32899e-05
3 *772:Q 0.000139852
4 *57:3 0.000322198
5 *57:4 0.000342331
6 *57:5 0.000345582
7 *57:6 0.000325388
8 *57:7 0.000296436
9 *57:8 0.000311063
10 *57:9 0.000626007
11 *57:10 0.000626007
12 *57:11 0.000448146
13 *57:12 0.000488533
14 *57:13 0.000505417
15 *57:14 0.000505417
16 *57:15 0.000701967
17 *57:16 0.000702118
18 *57:17 0.000342241
19 *57:18 0.000342241
20 *57:19 0.000276664
21 *57:20 0.000276664
22 *57:21 0.00116471
23 *57:22 0.00114458
24 *57:23 0.000120591
25 *57:24 0.000472131
26 *57:25 0.000375797
27 *57:26 0.000415673
28 *57:27 0.000415673
29 *57:28 0.00132409
30 *57:29 0.00137899
31 *57:30 0.00197228
32 *57:31 0.000430811
33 *57:32 0.000430811
34 *57:33 0.000493559
35 *57:34 0.000493559
36 *57:35 0.000289605
37 *57:36 0.000289605

*RES
1 *57:30 *57 10.5327854
2 *57:29 *57:30 3.20005
3 *57:28 *57:29 7.01998
4 *57:28 *57:19 0.183861
5 *57:20 *57:19 1.24797
6 *57:21 *57:20 0.183861
7 *57:22 *57:21 5.61595
8 *57:22 *57:32 0.0919304
9 *57:31 *57:32 2.02793
10 *57:31 *57:3 0.0919304
11 *57:4 *57:3 1.55992
12 *57:17 *57:4 0.183861
13 *57:18 *57:17 1.87204
14 *57:18 *57:36 0.183861
15 *57:35 *57:36 1.24797
16 *57:15 *57:35 0.183861
17 *57:16 *57:15 3.27607
18 *57:16 *57:34 0.183861
19 *57:33 *57:34 2.34005
20 *57:27 *57:33 0.183861
21 *57:26 *57:27 1.87204
22 *57:26 *57:13 0.183861
23 *57:14 *57:13 2.34005
24 *57:5 *57:14 0.183861
25 *57:6 *57:5 1.55992
26 *57:11 *57:6 0.0919304
27 *57:12 *57:11 2.18399
28 *57:25 *57:12 0.275791
29 *57:24 *57:25 1.87204
30 *57:24 *772:Q 3.20005
31 *57:7 *57:24 0.367722
32 *57:8 *57:7 1.09208
33 *57:9 *57:8 3.20005
34 *57:10 *57:9 2.94177
35 *57:23 *57:10 3.20005
36 *944:AN *57:23 6.39993
*END

*D_NET *58 0.0164501

*CONN
*P *58 I *C 0 19.32 *L 0
*I *944:B I *C 132.33 42.84 *L 0.0041 *D NOR2BX1

*CAP
1 *58 0.00565601
2 *944:B 0.000139838
3 *58:2 0.00131142
4 *58:3 0.00138104
5 *58:4 0.0056815
6 *58:5 0.000120592
7 *58:6 0.000654194
8 *58:7 0.000365329
9 *58:8 0.000120592
10 *58:9 0.000654194
11 *58:10 0.000365329

*RES
1 *58:2 *944:B 3.19979
2 *58:3 *58:2 6.55214
3 *58:10 *58:3 3.19979
4 *58:7 *58:10 1.83852
5 *58:8 *58:7 3.19979
6 *58:9 *58:8 3.19979
7 *58:6 *58:9 4.41272
8 *58:5 *58:6 3.19979
9 *58:4 *58:5 3.19979
10 *58 *58:4 30.5732136
*END

*D_NET *59 0.00764634

*CONN
*I *958:A I *C 74.25 87.64 *L 0.0026 *D INVXL
*I *925:A1 I *C 83.49 77.56 *L 0.00324 *D OAI21XL
*I *872:C0 I *C 81.51 78.12 *L 0.00438 *D AOI211X1
*I *843:A I *C 76.89 88.76 *L 0.0047 *D NOR3X1
*I *614:B1 I *C 71.61 78.68 *L 0.0045 *D AOI2BB2X1
*I *614:A1N I *C 69.63 77.56 *L 0.00205 *D AOI2BB2X1
*I *523:Q O *C 75.57 66.92 *L 0 *D DFFRHQX1

*CAP
1 *958:A 4.22697e-05
2 *925:A1 0.000139834
3 *872:C0 0.000139834
4 *843:A 0.000139834
5 *614:B1 6.32984e-05
6 *614:A1N 0.000139834
7 *523:Q 0.000139834
8 *59:7 0.00051576
9 *59:8 0.000467643
10 *59:9 0.000455051
11 *59:10 0.000455051
12 *59:11 0.000266517
13 *59:12 0.000196844
14 *59:13 0.000168725
15 *59:14 0.000107921
16 *59:15 0.000107921
17 *59:16 0.000111109
18 *59:17 0.000150089
19 *59:18 6.97754e-05
20 *59:19 0.000112911
21 *59:20 0.000173887
22 *59:21 0.000159761
23 *59:22 0.000272215
24 *59:23 0.000192862
25 *59:24 0.000386102
26 *59:25 0.000261378
27 *59:26 0.000170826
28 *59:27 0.000101137
29 *59:28 0.000279991
30 *59:29 0.00021031
31 *59:30 7.75981e-05
32 *59:31 0.000297179
33 *59:32 0.000297179
34 *59:33 0.0001206
35 *59:34 5.09189e-05
36 *59:35 6.81384e-05
37 *59:36 0.000134561
38 *59:37 0.000200811
39 *59:38 0.000200811

*RES
1 *59:27 *925:A1 3.2
2 *59:10 *523:Q 3.2
3 *59:11 *843:A 3.2
4 *59:37 *872:C0 3.2
5 *59:27 *59:26 0.467969
6 *59:10 *59:9 1.71602
7 *59:12 *59:11 0.77998
8 *59:37 *59:38 0.467969
9 *59:21 *59:26 3.2
10 *59:15 *59:9 3.2
11 *59:28 *59:12 3.2
12 *59:30 *958:A 0.223828
13 *59:22 *59:38 3.2
14 *59:22 *59:21 0.551562
15 *59:15 *59:14 0.367676
16 *59:29 *59:28 0.919238
17 *59:13 *59:30 3.2
18 *59:36 *59:22 0.551562
19 *59:32 *59:14 3.2
20 *59:7 *59:29 3.2
21 *59:7 *59:13 0.467969
22 *59:23 *59:36 0.155957
23 *59:32 *59:31 0.936035
24 *59:8 *59:7 1.87197
25 *59:24 *59:23 0.735449
26 *59:24 *59:31 3.2
27 *59:25 *59:8 3.2
28 *59:25 *59:24 0.919238
29 *59:35 *59:25 0.183887
30 *59:34 *614:B1 6.4000001
31 *59:16 *59:35 0.155957
32 *59:17 *59:34 6.4000001
33 *59:17 *59:16 0.367676
34 *59:18 *59:17 0.183887
35 *59:19 *59:18 0.155957
36 *59:20 *59:19 0.367676
37 *59:33 *59:20 3.2
38 *614:A1N *59:33 3.2
*END

*D_NET *60 0.0029803

*CONN
*I *925:A0 I *C 84.15 77.56 *L 0.00336 *D OAI21XL
*I *872:B0 I *C 82.17 78.68 *L 0.00492 *D AOI211X1
*I *596:B I *C 74.25 77.56 *L 0.00375 *D NAND2X1
*I *572:A1 I *C 76.23 77.56 *L 0.00324 *D OAI21XL
*I *528:Q O *C 86.13 74.2 *L 0 *D DFFRHQX1

*CAP
1 *925:A0 0.000139841
2 *872:B0 6.32981e-05
3 *596:B 6.32981e-05
4 *572:A1 6.32981e-05
5 *528:Q 6.32981e-05
6 *60:5 5.72355e-05
7 *60:6 6.39401e-05
8 *60:7 0.000288383
9 *60:8 0.000273103
10 *60:9 0.000179618
11 *60:10 0.000155889
12 *60:11 6.80495e-05
13 *60:12 0.000246329
14 *60:13 0.00035956
15 *60:14 0.000135331
16 *60:15 5.09205e-05
17 *60:16 0.000120599
18 *60:17 0.000123996
19 *60:18 0.000146238
20 *60:9 *156:5 2.003e-05
21 *60:10 *156:3 2.003e-05
22 *60:10 *156:5 7.53e-06
23 *60:11 *156:3 7.53e-06
24 *60:12 *156:5 1.263e-05
25 *60:13 *156:3 1.263e-05
26 *60:12 *156:3 8.214e-05
27 *60:13 *156:4 8.214e-05
28 *60:13 *156:3 3.67e-05
29 *60:14 *156:4 3.66999951e-05

*RES
1 *60:18 *528:Q 6.4000001
2 *60:8 *60:18 0.551562
3 *60:7 *925:A0 3.2
4 *60:8 *60:7 0.936035
5 *60:7 *60:17 0.312012
6 *60:16 *872:B0 6.4000001
7 *60:9 *60:17 3.2
8 *60:10 *60:16 3.2
9 *60:10 *60:9 0.551562
10 *60:11 *60:10 0.183887
11 *60:15 *572:A1 6.4000001
12 *60:12 *60:11 0.155957
13 *60:13 *60:15 6.4000001
14 *60:13 *60:12 1.4709
15 *60:14 *60:13 0.551562
16 *60:5 *60:14 6.4000001
17 *60:6 *60:5 0.155957
18 *596:B *60:6 6.4000001
*END

*D_NET *61 0.00693753

*CONN
*I *966:A I *C 94.05 113.96 *L 0.0026 *D INVXL
*I *926:A0 I *C 107.25 113.96 *L 0.00336 *D OAI21XL
*I *876:B0 I *C 107.25 119 *L 0.00492 *D AOI211X1
*I *833:A I *C 97.35 112.84 *L 0.0047 *D NOR3X1
*I *620:B1 I *C 101.31 119 *L 0.0045 *D AOI2BB2X1
*I *620:A1N I *C 99.33 117.88 *L 0.00205 *D AOI2BB2X1
*I *524:Q O *C 98.01 127.4 *L 0 *D DFFRHQX1

*CAP
1 *966:A 0.000139837
2 *926:A0 6.32995e-05
3 *876:B0 0.000139837
4 *833:A 3.98623e-05
5 *620:B1 6.32995e-05
6 *620:A1N 0.000139837
7 *524:Q 6.32995e-05
8 *61:7 0.000398657
9 *61:8 0.000146331
10 *61:9 0.000287119
11 *61:10 0.000226142
12 *61:11 6.89559e-05
13 *61:12 0.000565938906
14 *61:13 0.000510386
15 *61:14 0.000385851
16 *61:15 0.00021774
17 *61:16 0.000135615
18 *61:17 0.000417362
19 *61:18 0.00031123
20 *61:19 0.00031123
21 *61:20 0.00018236
22 *61:21 0.000138369
23 *61:22 0.000193249
24 *61:23 0.00028319
25 *61:24 7.51908e-05
26 *61:25 0.000105977
27 *61:26 0.000120597
28 *61:27 0.00028319
29 *61:28 9.16072e-05
30 *61:29 0.000120597
31 *61:30 8.29111e-05
32 *61:31 0.000120597
33 *61:32 0.000335315
34 *61:33 0.000172541

*RES
1 *61:13 *926:A0 6.4000001
2 *61:12 *876:B0 3.2
3 *61:13 *61:12 1.404
4 *61:26 *524:Q 6.4000001
5 *61:12 *61:11 0.155957
6 *61:27 *61:26 3.2
7 *61:9 *61:11 3.2
8 *61:23 *61:27 0.735449
9 *61:29 *620:A1N 3.2
10 *61:10 *61:9 0.919238
11 *61:22 *61:23 3.2
12 *61:30 *61:29 3.2
13 *61:31 *620:B1 6.4000001
14 *61:33 *61:10 0.155957
15 *61:21 *61:22 0.467969
16 *61:28 *61:30 0.183887
17 *61:32 *61:31 3.2
18 *61:32 *61:33 0.735449
19 *61:18 *61:21 0.183887
20 *61:24 *833:A 0.223828
21 *61:28 *61:14 0.155957
22 *61:14 *61:32 0.735449
23 *61:19 *61:18 1.55996
24 *61:25 *61:24 6.4000001
25 *61:15 *61:14 0.919238
26 *61:19 *61:16 0.183887
27 *61:8 *61:25 0.367676
28 *61:17 *61:15 3.2
29 *61:17 *61:16 0.467969
30 *61:8 *61:7 0.312012
31 *61:7 *61:17 1.404
32 *61:20 *61:7 0.367676
33 *966:A *61:20 3.2
*END

*D_NET *62 0.00366976

*CONN
*I *926:A1 I *C 106.59 113.96 *L 0.00324 *D OAI21XL
*I *876:C0 I *C 106.59 118.44 *L 0.00438 *D AOI211X1
*I *597:B I *C 107.25 124.04 *L 0.00375 *D NAND2X1
*I *571:A1 I *C 104.61 124.04 *L 0.00324 *D OAI21XL
*I *527:Q O *C 111.87 127.4 *L 0 *D DFFRHQX1

*CAP
1 *926:A1 0.000139843
2 *876:C0 6.32959e-05
3 *597:B 6.32959e-05
4 *571:A1 6.32959e-05
5 *527:Q 6.32959e-05
6 *62:5 0.00075516
7 *62:6 0.00046637
8 *62:7 0.000393372
9 *62:8 0.000410657
10 *62:9 0.000160515
11 *62:10 5.09201e-05
12 *62:11 7.24221e-05
13 *62:12 0.000306201
14 *62:13 0.000263554
15 *62:14 0.000291578
16 *62:15 0.000105977

*RES
1 *62:15 *527:Q 6.4000001
2 *62:6 *926:A1 3.2
3 *62:14 *62:15 0.367676
4 *62:5 *876:C0 6.4000001
5 *62:6 *62:5 1.24805
6 *62:11 *597:B 6.4000001
7 *62:12 *62:14 0.936035
8 *62:5 *62:7 1.55996
9 *62:7 *62:11 0.183887
10 *62:13 *62:12 3.2
11 *62:8 *62:7 3.2
12 *62:8 *62:13 1.10312
13 *62:9 *62:8 0.551562
14 *62:10 *62:9 6.4000001
15 *571:A1 *62:10 6.4000001
*END

*D_NET *63 0.00748589

*CONN
*I *963:A I *C 147.51 107.8 *L 0.0026 *D INVXL
*I *930:A1 I *C 133.65 97.72 *L 0.00324 *D OAI21XL
*I *882:C0 I *C 131.67 98.28 *L 0.00438 *D AOI211X1
*I *841:A I *C 141.57 108.92 *L 0.0047 *D NOR3X1
*I *613:B1 I *C 132.99 102.76 *L 0.0045 *D AOI2BB2X1
*I *613:A1N I *C 131.01 103.88 *L 0.00205 *D AOI2BB2X1
*I *525:Q O *C 154.77 104.44 *L 0 *D DFFRHQX1

*CAP
1 *963:A 0.000139833
2 *930:A1 0.000139833
3 *882:C0 0.000139833
4 *841:A 7.45938e-05
5 *613:B1 6.33007e-05
6 *613:A1N 6.33007e-05
7 *525:Q 8.31993e-05
8 *63:7 7.51365e-05
9 *63:8 0.000269768
10 *63:9 0.000846787344
11 *63:10 0.000502439
12 *63:11 0.000843686
13 *63:12 7.31854e-05
14 *63:13 7.31854e-05
15 *63:14 0.000220228
16 *63:15 0.000234997
17 *63:16 0.000165326
18 *63:17 0.000424576
19 *63:18 0.000424576
20 *63:19 0.000499312
21 *63:20 0.000530684
22 *63:21 0.000461001
23 *63:22 0.000174978
24 *63:23 9.39238e-05
25 *63:24 0.000120606
26 *63:25 6.57169e-05
27 *63:26 0.000223019
28 *63:27 9.02413e-05
29 *63:28 0.000120606
30 *63:29 0.000129509
31 *63:30 0.000118539

*RES
1 *525:Q *63:30 0.447656
2 *63:18 *63:30 3.2
3 *841:A *63:29 0.379785
4 *63:16 *963:A 3.2
5 *63:18 *63:17 1.55996
6 *63:27 *63:29 0.223828
7 *63:16 *63:15 0.624023
8 *63:19 *63:17 3.2
9 *63:28 *63:27 3.2
10 *63:11 *63:15 3.2
11 *63:11 *63:19 2.39014
12 *63:9 *63:28 3.2
13 *63:9 *63:11 1.83857
14 *63:10 *63:9 2.57402
15 *63:25 *613:B1 6.4000001
16 *63:20 *63:10 3.2
17 *63:12 *63:25 0.183887
18 *63:21 *63:20 2.18398
19 *63:13 *63:12 0.155957
20 *63:24 *63:21 3.2
21 *63:26 *930:A1 3.2
22 *63:7 *613:A1N 6.4000001
23 *63:23 *63:13 0.183887
24 *63:23 *63:24 3.2
25 *63:22 *882:C0 3.2
26 *63:22 *63:26 0.551562
27 *63:8 *63:7 0.312012
28 *63:8 *63:23 0.183887
29 *63:14 *63:22 0.183887
30 *63:14 *63:8 1.09199
*END

*D_NET *64 0.00394579

*CONN
*I *930:A0 I *C 134.31 97.72 *L 0.00336 *D OAI21XL
*I *882:B0 I *C 132.33 98.84 *L 0.00492 *D AOI211X1
*I *604:B I *C 136.95 107.8 *L 0.00375 *D NAND2X1
*I *560:A1 I *C 134.31 107.8 *L 0.00324 *D OAI21XL
*I *530:Q O *C 138.93 114.52 *L 0 *D DFFRHQX1

*CAP
1 *930:A0 0.00013984
2 *882:B0 6.32947e-05
3 *604:B 6.32947e-05
4 *560:A1 0.00013984
5 *530:Q 0.00013984
6 *64:5 0.000516395
7 *64:6 0.00055843
8 *64:7 0.000108942
9 *64:8 0.00024453
10 *64:9 0.00036155
11 *64:10 0.000313065
12 *64:11 0.000166187
13 *64:12 0.000254815
14 *64:13 0.000213862
15 *64:14 0.000270647
16 *64:15 0.000120599
17 *64:16 0.000270647

*RES
1 *64:15 *530:Q 3.2
2 *64:16 *64:15 3.2
3 *64:14 *64:16 1.28701
4 *64:7 *604:B 6.4000001
5 *64:10 *64:14 3.2
6 *64:8 *64:7 0.467969
7 *64:9 *560:A1 3.2
8 *64:9 *64:10 1.09199
9 *64:13 *930:A0 3.2
10 *64:5 *64:8 0.735449
11 *64:5 *64:9 0.467969
12 *64:13 *64:6 0.936035
13 *64:6 *64:5 1.404
14 *64:12 *64:6 0.551562
15 *64:11 *64:12 0.624023
16 *882:B0 *64:11 6.4000001
*END

*D_NET *65 0.00692361

*CONN
*I *957:A I *C 74.25 57.4 *L 0.0026 *D INVXL
*I *929:A0 I *C 87.45 53.48 *L 0.00336 *D OAI21XL
*I *873:B0 I *C 87.45 48.44 *L 0.00492 *D AOI211X1
*I *838:A I *C 78.21 58.52 *L 0.0047 *D NOR3X1
*I *619:B1 I *C 84.15 52.36 *L 0.0045 *D AOI2BB2X1
*I *619:A1N I *C 82.17 53.48 *L 0.00205 *D AOI2BB2X1
*I *526:Q O *C 81.51 64.12 *L 0 *D DFFRHQX1

*CAP
1 *957:A 4.38654e-05
2 *929:A0 6.32955e-05
3 *873:B0 0.000139835
4 *838:A 0.000139835
5 *619:B1 6.32955e-05
6 *619:A1N 0.000139835
7 *526:Q 0.000139835
8 *65:7 0.000155724
9 *65:8 0.000117442
10 *65:9 0.000117442
11 *65:10 0.000160827
12 *65:11 9.11371e-05
13 *65:12 0.00019365
14 *65:13 0.000123972
15 *65:14 0.000343003
16 *65:15 0.000221073
17 *65:16 0.00034561
18 *65:17 0.00034561
19 *65:18 0.0003394
20 *65:19 0.000233235
21 *65:20 0.00011283
22 *65:21 0.00011283
23 *65:22 0.000349103
24 *65:23 0.000418793
25 *65:24 0.000486073
26 *65:25 0.00080592
27 *65:26 0.000370771
28 *65:27 0.000303135
29 *65:28 0.00012059
30 *65:29 0.00012059
31 *65:30 0.000205025

*RES
1 *65:9 *619:A1N 3.2
2 *65:13 *619:B1 6.4000001
3 *65:9 *65:8 0.312012
4 *65:11 *929:A0 6.4000001
5 *65:13 *65:12 0.624023
6 *65:15 *65:8 3.2
7 *65:28 *873:B0 3.2
8 *65:11 *65:10 0.312012
9 *65:14 *65:12 3.2
10 *65:15 *65:14 0.551562
11 *65:29 *65:28 3.2
12 *65:30 *65:10 3.2
13 *65:14 *65:30 0.919238
14 *65:26 *65:29 3.2
15 *65:25 *65:30 3.2
16 *65:26 *65:25 1.71602
17 *65:25 *65:24 1.87197
18 *65:16 *65:24 3.2
19 *65:17 *65:16 1.65469
20 *65:27 *65:17 3.2
21 *65:27 *526:Q 3.2
22 *65:18 *65:27 0.919238
23 *65:19 *838:A 3.2
24 *65:19 *65:18 0.77998
25 *65:22 *65:19 3.2
26 *65:23 *65:22 1.28701
27 *65:20 *65:23 3.2
28 *65:21 *65:20 0.312012
29 *65:7 *957:A 0.223828
30 *65:7 *65:21 3.2
*END

*D_NET *66 0.00388689

*CONN
*I *929:A1 I *C 86.79 53.48 *L 0.00324 *D OAI21XL
*I *873:C0 I *C 86.79 47.88 *L 0.00438 *D AOI211X1
*I *598:B I *C 83.49 47.32 *L 0.00375 *D NAND2X1
*I *573:A1 I *C 80.85 47.32 *L 0.00324 *D OAI21XL
*I *529:Q O *C 89.43 43.96 *L 0 *D DFFRHQX1

*CAP
1 *929:A1 0.000139839
2 *873:C0 6.33018e-05
3 *598:B 6.33018e-05
4 *573:A1 0.000139839
5 *529:Q 0.000139839
6 *66:5 0.000156721
7 *66:6 0.000222622
8 *66:7 0.0002735
9 *66:8 0.0002735
10 *66:9 0.000230154
11 *66:10 0.000169181
12 *66:11 0.00035454
13 *66:12 0.00035424
14 *66:13 0.00047976
15 *66:14 8.47733e-05
16 *66:15 0.000129115
17 *66:16 6.81408e-05
18 *66:17 0.000120601
19 *66:18 0.000423918

*RES
1 *66:7 *929:A1 3.2
2 *66:8 *873:C0 6.4000001
3 *66:8 *66:7 1.404
4 *66:9 *66:8 3.2
5 *66:17 *529:Q 3.2
6 *66:10 *66:9 0.735449
7 *66:18 *66:17 3.2
8 *66:16 *66:10 0.155957
9 *66:12 *66:18 1.65469
10 *66:15 *66:16 0.183887
11 *66:11 *66:12 3.2
12 *66:14 *598:B 6.4000001
13 *66:14 *66:15 3.2
14 *66:5 *573:A1 3.2
15 *66:11 *66:13 1.24805
16 *66:13 *66:14 0.312012
17 *66:6 *66:5 0.312012
18 *66:6 *66:13 0.735449
*END

*D_NET *67 0.00251245

*CONN
*I *974:B I *C 73.59 108.92 *L 0.00635 *D XNOR2X1
*I *962:A I *C 84.81 103.88 *L 0.00346 *D INVX1
*I *531:Q O *C 82.83 104.44 *L 0 *D DFFRHQX1

*CAP
1 *974:B 0.00013984
2 *962:A 0.000119593
3 *531:Q 0.000259433
4 *67:3 0.000231871
5 *67:4 0.00030155
6 *67:5 0.000111494
7 *67:6 0.000181164
8 *67:7 0.000548911
9 *67:8 0.00061859

*RES
1 *531:Q *962:A 0.671484
2 *67:6 *531:Q 3.20000005
3 *67:6 *67:5 0.312012
4 *67:8 *67:5 3.20000005
5 *67:3 *974:B 3.20000005
6 *67:7 *67:8 2.57402
7 *67:4 *67:3 0.935986
8 *67:4 *67:7 3.20000005
*END

*D_NET *68 0.00255807

*CONN
*I *934:AN I *C 88.11 111.72 *L 0.0021 *D NAND2BX1
*I *612:B I *C 85.47 113.96 *L 0.00375 *D NAND2X1
*I *589:A1 I *C 82.83 113.96 *L 0.00324 *D OAI21XL
*I *542:Q O *C 80.85 114.52 *L 0 *D DFFRHQX1

*CAP
1 *934:AN 0.000145153
2 *612:B 0.000111888
3 *589:A1 0.000139841
4 *542:Q 0.000139841
5 *68:4 0.0001625
6 *68:5 0.000264516
7 *68:6 0.00035594
8 *68:7 0.00042562
9 *68:8 0.00022262
10 *68:9 0.000198506
11 *68:10 0.000147121
12 *68:11 0.000123922
13 *68:12 0.000120604

*RES
1 *68:9 *612:B 0.569727
2 *68:9 *68:11 0.447656
3 *68:10 *68:11 0.189893
4 *68:10 *934:AN 0.447656
5 *68:12 *934:AN 3.20000005
6 *68:6 *68:12 3.20000005
7 *68:7 *68:6 1.47085
8 *68:4 *589:A1 3.20000005
9 *68:5 *68:7 3.20000005
10 *68:5 *68:4 0.468018
11 *68:8 *68:5 0.551562
12 *542:Q *68:8 3.20000005
*END

*D_NET *69 0.00196926

*CONN
*I *973:B I *C 55.11 82.6 *L 0.00635 *D XNOR2X1
*I *968:A I *C 59.73 83.72 *L 0.00346 *D INVX1
*I *532:Q O *C 55.77 77 *L 0 *D DFFRHQX1

*CAP
1 *973:B 0.000139842
2 *968:A 0.000139842
3 *532:Q 0.000139842
4 *69:3 0.000163651
5 *69:4 0.000163651
6 *69:5 0.000154459
7 *69:6 0.000232768
8 *69:7 0.000144033
9 *69:8 0.000274541
10 *69:9 7.24209e-05
11 *69:10 0.00034422

*RES
1 *69:3 *968:A 3.20000005
2 *69:4 *69:3 0.624023
3 *69:10 *69:4 3.20000005
4 *69:8 *69:10 1.28701
5 *69:5 *973:B 3.20000005
6 *69:6 *69:8 3.20000005
7 *69:6 *69:5 0.312012
8 *69:9 *532:Q 3.20000005
9 *69:7 *69:6 0.468018
10 *69:7 *69:9 0.183838
*END

*D_NET *70 0.00223382

*CONN
*I *932:AN I *C 66.99 79.8 *L 0.0021 *D NAND2BX1
*I *607:B I *C 62.37 77.56 *L 0.00375 *D NAND2X1
*I *588:A1 I *C 64.35 77.56 *L 0.00324 *D OAI21XL
*I *537:Q O *C 65.01 74.2 *L 0 *D DFFRHQX1

*CAP
1 *932:AN 6.32982e-05
2 *607:B 0.000139839
3 *588:A1 6.32982e-05
4 *537:Q 6.32982e-05
5 *70:4 0.000213103
6 *70:5 0.00034868
7 *70:6 0.000131582
8 *70:7 7.05979e-05
9 *70:8 0.000106213
10 *70:9 5.09227e-05
11 *70:10 0.000181621
12 *70:11 0.0001865
13 *70:12 0.000106213
14 *70:13 0.000112912
15 *70:14 0.00018061
16 *70:15 0.000104208
17 *70:16 0.000110933

*RES
1 *70:16 *932:AN 6.4000001
2 *70:14 *70:16 0.312012
3 *70:15 *70:14 3.2
4 *70:13 *70:15 0.367676
5 *70:9 *588:A1 6.4000001
6 *70:12 *70:13 0.155957
7 *70:10 *70:9 6.4000001
8 *70:10 *70:12 0.367676
9 *70:8 *70:10 0.367676
10 *70:7 *70:8 0.155957
11 *70:6 *70:7 0.183887
12 *70:4 *607:B 3.2
13 *70:4 *70:6 3.2
14 *70:11 *537:Q 6.4000001
15 *70:5 *70:4 0.936035
16 *70:5 *70:11 0.735449
*END

*D_NET *71 0.00376381

*CONN
*I *975:B I *C 114.51 149.24 *L 0.00635 *D XNOR2X1
*I *969:A I *C 127.71 144.2 *L 0.00346 *D INVX1
*I *533:Q O *C 125.73 137.48 *L 0 *D DFFRHQX1

*CAP
1 *975:B 6.33008e-05
2 *969:A 3.878e-05
3 *533:Q 0.000139839
4 *71:3 0.000485372
5 *71:4 0.00049999
6 *71:5 0.000105979
7 *71:6 0.0001212
8 *71:7 0.000416616
9 *71:8 0.000129897
10 *71:9 0.000416616
11 *71:10 0.00011383
12 *71:11 0.000202414
13 *71:12 0.000154235
14 *71:13 0.000174811
15 *71:14 0.000166785
16 *71:15 0.000142097
17 *71:16 0.000204085
18 *71:17 0.000187964

*RES
1 *71:17 *969:A 0.223828
2 *71:16 *71:17 0.759668
3 *71:14 *71:16 0.223828
4 *71:11 *533:Q 3.2
5 *71:15 *71:14 3.2
6 *71:11 *71:12 0.467969
7 *71:12 *71:15 0.183887
8 *71:13 *71:12 3.2
9 *71:10 *71:13 0.367676
10 *71:9 *71:10 0.155957
11 *71:7 *71:9 1.83857
12 *71:7 *71:8 0.155957
13 *71:6 *71:8 0.551562
14 *71:4 *71:6 3.2
15 *71:4 *71:3 2.02803
16 *71:5 *71:3 0.367676
17 *975:B *71:5 6.4000001
*END

*D_NET *72 0.00235634

*CONN
*I *933:AN I *C 129.03 141.96 *L 0.0021 *D NAND2BX1
*I *610:B I *C 127.71 148.12 *L 0.00375 *D NAND2X1
*I *590:A1 I *C 124.41 148.12 *L 0.00324 *D OAI21XL
*I *540:Q O *C 124.41 144.76 *L 0 *D DFFRHQX1

*CAP
1 *933:AN 5.49155e-05
2 *610:B 4.22696e-05
3 *590:A1 0.000139841
4 *540:Q 6.33023e-05
5 *72:4 7.75964e-05
6 *72:5 0.00047794
7 *72:6 0.000401554
8 *72:7 0.00027756
9 *72:8 0.000190724
10 *72:9 0.000126918
11 *72:10 0.000115563
12 *72:11 0.000115563
13 *72:12 9.0235e-05
14 *72:13 0.000182359

*RES
1 *72:12 *933:AN 0.223828
2 *72:13 *72:12 3.2
3 *72:4 *610:B 0.223828
4 *72:6 *72:13 0.367676
5 *72:5 *72:4 3.2
6 *72:6 *72:5 1.71602
7 *72:11 *72:5 0.367676
8 *72:10 *72:11 0.155957
9 *72:9 *590:A1 3.2
10 *72:7 *72:10 0.367676
11 *72:7 *72:9 0.155957
12 *72:8 *72:7 0.77998
13 *540:Q *72:8 6.4000001
*END

*D_NET *73 0.00270666

*CONN
*I *972:B I *C 72.93 38.36 *L 0.00635 *D XNOR2X1
*I *970:A I *C 70.29 37.24 *L 0.00346 *D INVX1
*I *534:Q O *C 78.87 33.88 *L 0 *D DFFRHQX1

*CAP
1 *972:B 0.000139839
2 *970:A 0.000139839
3 *534:Q 8.32e-05
4 *73:3 0.000259491
5 *73:4 0.000174533
6 *73:5 9.95802e-05
7 *73:6 0.00050092
8 *73:7 0.00050092
9 *73:8 0.00016254
10 *73:9 0.00016254
11 *73:10 0.000222618
12 *73:11 0.000142101
13 *73:12 0.000118536

*RES
1 *534:Q *73:12 0.447656
2 *73:9 *73:12 3.20000005
3 *73:9 *73:8 0.312012
4 *73:6 *73:8 3.20000005
5 *73:7 *73:6 2.2063
6 *73:11 *972:B 3.20000005
7 *73:4 *73:7 3.20000005
8 *73:5 *73:11 0.183838
9 *73:4 *73:3 0.624023
10 *73:3 *73:5 0.312012
11 *73:10 *73:3 0.551562
12 *970:A *73:10 3.20000005
*END

*D_NET *74 0.00226328

*CONN
*I *927:AN I *C 61.71 41.16 *L 0.0021 *D NAND2BX1
*I *608:B I *C 63.03 37.24 *L 0.00375 *D NAND2X1
*I *587:A1 I *C 60.39 37.24 *L 0.00324 *D OAI21XL
*I *538:Q O *C 64.35 33.88 *L 0 *D DFFRHQX1

*CAP
1 *927:AN 0.000109819
2 *608:B 6.32976e-05
3 *587:A1 0.000139838
4 *538:Q 0.000139838
5 *74:4 0.000233739
6 *74:5 0.000314608
7 *74:6 0.000145151
8 *74:7 0.000299527
9 *74:8 0.000207501
10 *74:9 0.00034508
11 *74:10 8.25222e-05
12 *74:11 0.000182358

*RES
1 *74:6 *927:AN 0.447656
2 *74:11 *538:Q 3.2
3 *74:7 *74:6 3.2
4 *74:8 *74:11 0.367676
5 *74:10 *608:B 6.4000001
6 *74:5 *587:A1 3.2
7 *74:5 *74:7 0.936035
8 *74:8 *74:9 0.624023
9 *74:9 *74:10 0.312012
10 *74:4 *74:5 0.467969
11 *74:4 *74:9 0.735449
*END

*D_NET *75 0.00325032

*CONN
*I *961:A I *C 102.63 134.12 *L 0.00346 *D INVX1
*I *832:A I *C 109.23 133 *L 0.0047 *D NOR3X1
*I *636:B1 I *C 107.91 139.16 *L 0.0045 *D AOI2BB2X1
*I *636:A1N I *C 105.93 138.04 *L 0.00205 *D AOI2BB2X1
*I *535:Q O *C 99.33 137.48 *L 0 *D DFFRHQX1

*CAP
1 *961:A 0.000139839
2 *832:A 3.98597e-05
3 *636:B1 6.32999e-05
4 *636:A1N 0.000139839
5 *535:Q 4.12098e-05
6 *75:5 9.22083e-05
7 *75:6 7.85042e-05
8 *75:7 9.02356e-05
9 *75:8 0.000182361
10 *75:9 0.000138729
11 *75:10 0.000406908
12 *75:11 0.0001474
13 *75:12 0.000142097
14 *75:13 0.00049157
15 *75:14 0.000154691
16 *75:15 0.000150895
17 *75:16 0.00040786
18 *75:17 0.000201909
19 *75:18 7.51888e-05
20 *75:19 6.57227e-05

*RES
1 *75:18 *832:A 0.223828
2 *75:19 *75:18 6.4000001
3 *75:15 *75:19 0.183887
4 *75:17 *636:B1 6.4000001
5 *75:12 *961:A 3.2
6 *75:15 *75:16 0.77998
7 *75:16 *75:17 0.936035
8 *75:14 *636:A1N 3.2
9 *75:9 *75:12 0.183887
10 *75:13 *75:16 0.551562
11 *75:13 *75:14 0.624023
12 *75:9 *75:10 0.467969
13 *75:10 *75:13 1.10312
14 *75:10 *75:11 0.312012
15 *75:8 *75:11 0.367676
16 *75:7 *75:8 3.2
17 *75:5 *75:7 0.223828
18 *75:5 *75:6 0.189941
19 *535:Q *75:6 0.223828
*END

*D_NET *76 0.00334573

*CONN
*I *928:AN I *C 103.95 131.88 *L 0.0021 *D NAND2BX1
*I *611:B I *C 105.27 144.2 *L 0.00375 *D NAND2X1
*I *591:A1 I *C 101.97 144.2 *L 0.00324 *D OAI21XL
*I *541:Q O *C 98.67 144.76 *L 0 *D DFFRHQX1

*CAP
1 *928:AN 0.000139835
2 *611:B 6.32972e-05
3 *591:A1 7.97321e-05
4 *541:Q 3.9855e-05
5 *76:4 5.62678e-05
6 *76:5 0.000125942
7 *76:6 0.000307268
8 *76:7 0.000222341
9 *76:8 7.51896e-05
10 *76:9 0.000182365
11 *76:10 0.00013758
12 *76:11 0.000115056
13 *76:12 0.000152203
14 *76:13 0.000120604
15 *76:14 0.000654634
16 *76:15 0.00072432
17 *76:16 5.09185e-05
18 *76:17 9.83223e-05

*RES
1 *76:5 *928:AN 3.2
2 *76:5 *76:4 0.155957
3 *76:13 *76:4 3.2
4 *76:14 *76:13 3.2
5 *76:16 *611:B 6.4000001
6 *76:14 *76:15 3.27598
7 *76:17 *76:16 6.4000001
8 *76:6 *76:15 3.2
9 *76:6 *76:17 0.367676
10 *76:11 *591:A1 0.447656
11 *76:7 *76:6 0.919238
12 *76:12 *76:11 3.2
13 *76:12 *76:7 3.2
14 *76:10 *76:12 0.312012
15 *76:9 *76:10 0.367676
16 *76:8 *76:9 3.2
17 *541:Q *76:8 0.223828
*END

*D_NET *77 0.0061925

*CONN
*I *964:A I *C 144.87 127.96 *L 0.0026 *D INVXL
*I *942:B I *C 131.01 118.44 *L 0.00385 *D NOR2X1
*I *840:A I *C 142.23 129.08 *L 0.0047 *D NOR3X1
*I *631:B1 I *C 141.57 122.92 *L 0.0045 *D AOI2BB2X1
*I *631:A1N I *C 139.59 124.04 *L 0.00205 *D AOI2BB2X1
*I *536:Q O *C 140.25 134.68 *L 0 *D DFFRHQX1

*CAP
1 *964:A 0.000139835
2 *942:B 0.000139835
3 *840:A 3.98654e-05
4 *631:B1 6.32994e-05
5 *631:A1N 6.32994e-05
6 *536:Q 0.000139835
7 *77:6 0.000169591
8 *77:7 0.000232575
9 *77:8 0.000315521
10 *77:9 0.000308824
11 *77:10 0.0001423
12 *77:11 0.000646358203
13 *77:12 0.000554979
14 *77:13 0.000202463
15 *77:14 0.000272144
16 *77:15 0.000322829
17 *77:16 0.000253148
18 *77:17 0.000207977
19 *77:18 0.000207977
20 *77:19 7.24225e-05
21 *77:20 0.000483967
22 *77:21 0.000520903
23 *77:22 0.000151729
24 *77:23 0.000142103
25 *77:24 0.000120602
26 *77:25 0.000157538
27 *77:26 0.000120602

*RES
1 *77:19 *536:Q 3.2
2 *77:19 *77:17 0.183887
3 *77:22 *840:A 0.223828
4 *77:18 *77:17 0.77998
5 *77:26 *964:A 3.2
6 *77:23 *77:22 3.2
7 *77:18 *77:23 0.183887
8 *77:15 *77:26 3.2
9 *77:24 *77:23 3.2
10 *77:16 *77:15 0.919238
11 *77:25 *77:24 3.2
12 *77:6 *631:B1 6.4000001
13 *77:21 *77:16 3.2
14 *77:21 *77:25 0.312012
15 *77:8 *631:A1N 6.4000001
16 *77:7 *77:6 0.624023
17 *77:20 *77:21 2.02803
18 *77:9 *77:8 0.77998
19 *77:10 *77:7 3.2
20 *77:10 *77:20 3.2
21 *77:11 *77:9 3.2
22 *77:11 *77:10 0.551562
23 *77:12 *77:11 2.39014
24 *77:13 *77:12 3.2
25 *77:14 *77:13 0.624023
26 *942:B *77:14 3.2
*END

*D_NET *78 0.00346572

*CONN
*I *942:A I *C 131.67 117.88 *L 0.0043 *D NOR2X1
*I *609:B I *C 133.65 117.88 *L 0.00375 *D NAND2X1
*I *586:A1 I *C 132.33 124.04 *L 0.00324 *D OAI21XL
*I *539:Q O *C 139.59 127.4 *L 0 *D DFFRHQX1

*CAP
1 *942:A 6.32955e-05
2 *609:B 3.98599e-05
3 *586:A1 0.000139839
4 *539:Q 6.32955e-05
5 *78:4 0.000103829
6 *78:5 0.000451629
7 *78:6 0.000405603
8 *78:7 0.000474042
9 *78:8 0.000418982
10 *78:9 0.000438041
11 *78:10 7.24219e-05
12 *78:11 7.51876e-05
13 *78:12 0.000105983
14 *78:13 0.00050772
15 *78:14 0.000105983

*RES
1 *78:14 *539:Q 6.4000001
2 *78:7 *78:14 0.367676
3 *78:8 *78:7 1.55996
4 *78:10 *586:A1 3.2
5 *78:13 *78:8 3.2
6 *78:11 *609:B 0.223828
7 *78:4 *78:10 0.183887
8 *78:9 *78:13 1.83857
9 *78:12 *78:11 6.4000001
10 *78:5 *78:4 0.312012
11 *78:5 *78:9 3.2
12 *78:6 *78:12 0.367676
13 *78:6 *78:5 1.24805
14 *942:A *78:6 6.4000001
*END

*D_NET *79 0.00550947

*CONN
*I *956:A I *C 149.49 93.8 *L 0.0026 *D INVXL
*I *955:B I *C 135.63 88.2 *L 0.00385 *D NOR2X1
*I *842:A I *C 144.87 92.68 *L 0.0047 *D NOR3X1
*I *649:B1 I *C 140.25 92.68 *L 0.0045 *D AOI2BB2X1
*I *649:A1N I *C 138.27 93.8 *L 0.00205 *D AOI2BB2X1
*I *549:Q O *C 155.43 87.08 *L 0 *D DFFRHQX1

*CAP
1 *956:A 0.000139839
2 *955:B 7.45876e-05
3 *842:A 6.32987e-05
4 *649:B1 6.32987e-05
5 *649:A1N 6.32987e-05
6 *549:Q 0.000139839
7 *79:6 0.000249927
8 *79:7 0.000264282
9 *79:8 0.000169758
10 *79:9 0.000140104
11 *79:10 0.00069532
12 *79:11 0.000381044
13 *79:12 7.6752e-05
14 *79:13 0.00030478
15 *79:14 0.000198193
16 *79:15 0.000235466
17 *79:16 6.58451e-05
18 *79:17 0.000106237
19 *79:18 8.74044e-05
20 *79:19 0.000150385
21 *79:20 7.07574e-05
22 *79:21 0.000120603
23 *79:22 0.000380864
24 *79:23 0.000315082
25 *79:24 0.000315082
26 *79:25 0.000332769
27 *79:13 *343:7 1.263e-05
28 *79:10 *343:8 1.263e-05
29 *79:10 *343:7 7.752e-05
30 *79:11 *343:8 7.752e-05
31 *79:10 *343:5 6.219e-05
32 *79:11 *343:6 6.21899915e-05

*RES
1 *79:23 *549:Q 3.2
2 *79:23 *79:24 1.09199
3 *79:21 *956:A 3.2
4 *79:25 *79:24 3.2
5 *79:22 *79:21 3.2
6 *79:22 *79:25 1.65469
7 *79:18 *842:A 6.4000001
8 *79:20 *79:22 0.183887
9 *79:18 *79:19 0.155957
10 *79:13 *79:20 0.155957
11 *79:10 *79:19 3.2
12 *79:10 *79:13 1.10312
13 *79:16 *649:A1N 6.4000001
14 *79:11 *79:10 1.65469
15 *79:17 *649:B1 6.4000001
16 *79:16 *79:12 0.183887
17 *79:12 *79:11 6.4000001
18 *79:8 *79:17 0.367676
19 *79:8 *79:12 0.155957
20 *79:9 *79:8 0.312012
21 *79:6 *79:9 0.367676
22 *79:7 *79:6 0.624023
23 *79:15 *79:7 3.2
24 *79:14 *79:15 0.671484
25 *955:B *79:14 0.379785
*END

*D_NET *80 0.00357201

*CONN
*I *955:A I *C 136.29 87.64 *L 0.0043 *D NOR2X1
*I *616:B I *C 135.63 83.72 *L 0.00375 *D NAND2X1
*I *603:A1 I *C 137.61 83.72 *L 0.00324 *D OAI21XL
*I *553:Q O *C 154.77 84.28 *L 0 *D DFFRHQX1

*CAP
1 *955:A 6.3298e-05
2 *616:B 6.3298e-05
3 *603:A1 6.3298e-05
4 *553:Q 0.000139843
5 *80:4 0.000199367
6 *80:5 0.000184445
7 *80:6 0.000112562
8 *80:7 0.000200204
9 *80:8 0.000124209
10 *80:9 8.57679e-05
11 *80:10 0.000181471
12 *80:11 0.000819
13 *80:12 0.000776147
14 *80:13 0.000240682
15 *80:14 0.000120597
16 *80:15 0.000197817

*RES
1 *80:14 *553:Q 3.2
2 *80:15 *80:14 3.2
3 *80:13 *80:15 0.919238
4 *80:13 *80:11 0.312012
5 *80:8 *603:A1 6.4000001
6 *80:12 *80:11 3.86104
7 *80:8 *80:7 0.467969
8 *80:7 *80:12 3.2
9 *80:9 *955:A 6.4000001
10 *80:7 *80:6 0.155957
11 *80:10 *80:9 0.467969
12 *80:10 *80:6 0.367676
13 *80:4 *80:10 0.183887
14 *80:5 *80:4 0.624023
15 *616:B *80:5 6.4000001
*END

*D_NET *81 0.00505665

*CONN
*I *960:A I *C 138.93 67.48 *L 0.0026 *D INVXL
*I *943:B I *C 134.31 68.04 *L 0.00385 *D NOR2X1
*I *834:A I *C 132.33 68.6 *L 0.0047 *D NOR3X1
*I *647:B1 I *C 136.95 62.44 *L 0.0045 *D AOI2BB2X1
*I *647:A1N I *C 134.97 63.56 *L 0.00205 *D AOI2BB2X1
*I *550:Q O *C 148.83 56.84 *L 0 *D DFFRHQX1

*CAP
1 *960:A 0.000139839
2 *943:B 3.9842e-05
3 *834:A 0.000139839
4 *647:B1 6.32971e-05
5 *647:A1N 0.000139839
6 *550:Q 0.000139839
7 *81:6 7.33102e-05
8 *81:7 7.33102e-05
9 *81:8 0.00012372
10 *81:9 0.000108786
11 *81:10 0.000255311
12 *81:11 0.000240951
13 *81:12 0.0001224
14 *81:13 0.000182823
15 *81:14 0.000116894
16 *81:15 0.000126148
17 *81:16 0.0004177
18 *81:17 0.0004177
19 *81:18 0.000158724
20 *81:19 0.000174677
21 *81:20 0.000290698
22 *81:21 0.000276338
23 *81:22 0.000142229
24 *81:23 7.21693e-05
25 *81:24 7.21693e-05
26 *81:25 7.51713e-05
27 *81:26 0.000142229
28 *81:27 0.000172835
29 *81:28 0.000142229
30 *81:29 0.000182103
31 *81:30 0.000120597
32 *81:31 0.000112935

*RES
1 *81:31 *550:Q 3.2
2 *81:11 *81:31 0.367676
3 *81:11 *81:10 0.77998
4 *81:14 *81:10 3.2
5 *81:15 *81:14 0.551562
6 *81:16 *81:15 0.155957
7 *81:17 *81:16 2.02246
8 *81:17 *81:12 0.155957
9 *81:28 *647:A1N 3.2
10 *81:13 *81:12 0.367676
11 *81:28 *81:7 0.183887
12 *81:9 *647:B1 6.4000001
13 *81:9 *81:13 3.2
14 *81:7 *81:6 0.155957
15 *81:9 *81:8 0.467969
16 *81:30 *960:A 3.2
17 *81:6 *81:21 0.183887
18 *81:21 *81:8 0.183887
19 *81:18 *81:30 3.2
20 *81:21 *81:20 0.936035
21 *81:19 *81:18 0.735449
22 *81:19 *81:20 3.2
23 *81:19 *81:29 0.155957
24 *81:25 *943:B 0.223828
25 *81:27 *81:29 0.735449
26 *81:26 *81:25 3.2
27 *81:26 *81:27 3.2
28 *81:23 *81:26 0.183887
29 *81:23 *81:24 0.155957
30 *81:22 *81:24 0.183887
31 *834:A *81:22 3.2
*END

*D_NET *82 0.0042884

*CONN
*I *943:A I *C 134.97 67.48 *L 0.0043 *D NOR2X1
*I *615:B I *C 145.53 63.56 *L 0.00375 *D NAND2X1
*I *599:A1 I *C 147.51 63.56 *L 0.00324 *D OAI21XL
*I *554:Q O *C 154.77 66.92 *L 0 *D DFFRHQX1

*CAP
1 *943:A 6.32888e-05
2 *615:B 0.000139831
3 *599:A1 6.32888e-05
4 *554:Q 0.000139831
5 *82:4 0.000162079
6 *82:5 0.00023175
7 *82:6 0.00110368
8 *82:7 0.000603247
9 *82:8 0.000513821
10 *82:9 0.000174625
11 *82:10 7.89004e-05
12 *82:11 0.000164066
13 *82:12 0.000221309
14 *82:13 0.000126342
15 *82:14 0.000207549
16 *82:15 0.000152681
17 *82:16 0.000142105

*RES
1 *82:10 *599:A1 6.4000001
2 *82:16 *554:Q 3.2
3 *82:11 *615:B 3.2
4 *82:10 *82:9 0.312012
5 *82:15 *82:16 0.183887
6 *82:11 *82:12 0.312012
7 *82:12 *82:9 0.551562
8 *82:14 *82:15 0.467969
9 *82:12 *82:13 0.155957
10 *82:8 *82:14 3.2
11 *82:6 *82:13 3.2
12 *82:6 *82:8 2.39014
13 *82:4 *943:A 6.4000001
14 *82:7 *82:6 2.9417
15 *82:5 *82:4 0.624023
16 *82:5 *82:7 3.2
*END

*D_NET *83 0.00800172

*CONN
*I *959:A I *C 88.77 33.32 *L 0.0026 *D INVXL
*I *924:A0 I *C 90.75 43.4 *L 0.00336 *D OAI21XL
*I *874:B0 I *C 94.71 42.28 *L 0.00492 *D AOI211X1
*I *839:A I *C 87.45 32.2 *L 0.0047 *D NOR3X1
*I *646:B1 I *C 92.07 22.12 *L 0.0045 *D AOI2BB2X1
*I *646:A1N I *C 90.09 23.24 *L 0.00205 *D AOI2BB2X1
*I *557:Q O *C 105.27 33.88 *L 0 *D DFFRHQX1

*CAP
1 *959:A 0.000139839
2 *924:A0 0.000139839
3 *874:B0 0.000139839
4 *839:A 3.98572e-05
5 *646:B1 6.32987e-05
6 *646:A1N 0.00035396
7 *557:Q 0.000139839
8 *83:7 0.000506496
9 *83:8 0.000514411
10 *83:9 6.96073e-05
11 *83:10 0.000109876
12 *83:11 0.000249449
13 *83:12 0.000280594
14 *83:13 0.000398997
15 *83:14 0.00025002
16 *83:15 0.00087039
17 *83:16 0.00087039
18 *83:17 0.000151726
19 *83:18 0.000147768
20 *83:19 0.000107499
21 *83:20 0.000284379
22 *83:21 0.000142097
23 *83:22 0.000178501
24 *83:23 0.00023577
25 *83:24 0.000340984
26 *83:25 8.54652e-05
27 *83:26 0.000105985
28 *83:27 6.78143e-05
29 *83:28 0.000340984
30 *83:29 6.78143e-05
31 *83:30 0.000160969
32 *83:31 0.000160969
33 *83:7 *341:6 8.047e-05
34 *83:8 *341:4 8.047e-05
35 *83:7 *341:4 6.267e-05
36 *83:8 *341:3 6.26699955e-05

*RES
1 *83:29 *874:B0 3.2
2 *83:27 *83:29 0.155957
3 *83:28 *83:27 3.2
4 *83:24 *83:28 1.10312
5 *83:25 *924:A0 3.2
6 *83:30 *557:Q 3.2
7 *83:23 *83:24 3.2
8 *83:23 *83:25 0.467969
9 *83:30 *83:31 0.312012
10 *83:22 *83:23 0.624023
11 *83:15 *83:31 3.2
12 *83:22 *83:12 0.183887
13 *83:16 *83:15 3.86104
14 *83:13 *83:12 1.24805
15 *83:13 *83:16 3.2
16 *83:26 *646:B1 6.4000001
17 *83:14 *83:13 0.467969
18 *83:10 *83:26 0.367676
19 *83:20 *959:A 3.2
20 *83:20 *83:14 0.735449
21 *83:10 *83:9 0.155957
22 *83:19 *83:20 0.183887
23 *83:21 *83:9 0.183887
24 *83:17 *839:A 0.223828
25 *83:18 *83:19 0.312012
26 *646:A1N *83:21 3.2
27 *83:7 *83:17 3.2
28 *83:7 *83:18 0.367676
29 *83:8 *83:7 2.496
30 *83:11 *646:A1N 1.11914
31 *83:11 *83:8 3.2
*END

*D_NET *84 0.00577668

*CONN
*I *924:A1 I *C 90.09 43.4 *L 0.00324 *D OAI21XL
*I *874:C0 I *C 94.05 42.84 *L 0.00438 *D AOI211X1
*I *618:B I *C 94.71 27.16 *L 0.00375 *D NAND2X1
*I *600:A1 I *C 97.35 27.16 *L 0.00324 *D OAI21XL
*I *555:Q O *C 105.93 36.68 *L 0 *D DFFRHQX1

*CAP
1 *924:A1 0.000139841
2 *874:C0 0.000139841
3 *618:B 0.000139841
4 *600:A1 0.000139841
5 *555:Q 0.000139841
6 *84:5 0.000706574
7 *84:6 0.000126309
8 *84:7 0.000290864
9 *84:8 0.000195533
10 *84:9 0.00073717
11 *84:10 0.000171281
12 *84:11 0.000110291
13 *84:12 0.000158424
14 *84:13 0.000149717
15 *84:14 0.000359074
16 *84:15 0.000359074
17 *84:16 0.000310515
18 *84:17 0.000380199
19 *84:18 0.000321459
20 *84:19 0.000387364
21 *84:20 0.000120606
22 *84:21 7.24178e-05
23 *84:22 0.000120606

*RES
1 *84:22 *555:Q 3.20000005
2 *84:10 *84:22 3.20000005
3 *84:11 *84:10 0.367725
4 *84:14 *84:11 0.156006
5 *84:21 *600:A1 3.20000005
6 *84:8 *618:B 3.20000005
7 *84:15 *84:14 1.65474
8 *84:6 *84:21 0.183838
9 *84:8 *84:7 0.77998
10 *84:15 *84:12 0.156006
11 *84:6 *84:5 0.624023
12 *84:7 *84:5 0.551562
13 *84:13 *84:12 0.551562
14 *84:5 *84:9 2.496
15 *84:9 *84:13 3.20000005
16 *84:19 *84:9 0.735449
17 *84:18 *874:C0 3.20000005
18 *84:19 *84:18 1.09199
19 *84:16 *84:18 3.20000005
20 *84:17 *84:16 1.10312
21 *84:20 *84:17 3.20000005
22 *924:A1 *84:20 3.20000005
*END

*D_NET *85 0.00645674

*CONN
*I *965:A I *C 117.81 113.96 *L 0.0026 *D INVXL
*I *923:A0 I *C 111.21 113.96 *L 0.00336 *D OAI21XL
*I *877:B0 I *C 111.21 119 *L 0.00492 *D AOI211X1
*I *837:A I *C 113.19 108.92 *L 0.0047 *D NOR3X1
*I *648:B1 I *C 121.77 112.84 *L 0.0045 *D AOI2BB2X1
*I *648:A1N I *C 119.79 113.96 *L 0.00205 *D AOI2BB2X1
*I *558:Q O *C 128.37 117.32 *L 0 *D DFFRHQX1

*CAP
1 *965:A 0.000139841
2 *923:A0 0.000139841
3 *877:B0 0.000139841
4 *837:A 3.98599e-05
5 *648:B1 6.32936e-05
6 *648:A1N 3.98599e-05
7 *558:Q 6.32936e-05
8 *85:7 0.000204708
9 *85:8 0.000149646
10 *85:9 0.00036055
11 *85:10 0.000226555
12 *85:11 0.000234338
13 *85:12 0.000198213
14 *85:13 0.000269676
15 *85:14 0.000261756
16 *85:15 0.000477906
17 *85:16 0.000326823
18 *85:17 0.000326374
19 *85:18 0.000151732
20 *85:19 0.00081862
21 *85:20 7.51854e-05
22 *85:21 0.000149309
23 *85:22 6.87773e-05
24 *85:23 6.57169e-05
25 *85:24 0.000160963
26 *85:25 0.000505187
27 *85:26 9.12867e-05
28 *85:25 *46:14 8.768e-05
29 *85:19 *46:15 8.768e-05
30 *85:19 *46:14 3.413e-05
31 *85:16 *46:15 3.413e-05
32 *85:25 *46 0.00013897
33 *85:19 *46:16 0.00013897
34 *85:19 *46:12 9.299e-05
35 *85:16 *46:13 9.2989999e-05

*RES
1 *85:23 *648:B1 6.4000001
2 *85:22 *85:23 0.183887
3 *85:21 *85:22 0.155957
4 *85:20 *648:A1N 0.223828
5 *85:12 *85:21 0.551562
6 *85:11 *85:20 3.2
7 *85:12 *85:11 0.467969
8 *85:26 *558:Q 6.4000001
9 *85:14 *965:A 3.2
10 *85:14 *85:11 0.367676
11 *85:24 *85:26 0.312012
12 *85:14 *85:13 0.624023
13 *85:25 *85:24 3.2
14 *85:19 *85:13 3.2
15 *85:19 *85:25 2.9417
16 *85:18 *837:A 0.223828
17 *85:17 *877:B0 3.2
18 *85:16 *85:19 1.83857
19 *85:8 *85:18 3.2
20 *85:15 *85:17 0.77998
21 *85:15 *85:16 3.2
22 *85:8 *85:7 0.624023
23 *85:9 *923:A0 3.2
24 *85:9 *85:15 0.624023
25 *85:10 *85:7 0.367676
26 *85:10 *85:9 0.77998
*END

*D_NET *86 0.0051127

*CONN
*I *923:A1 I *C 110.55 113.96 *L 0.00324 *D OAI21XL
*I *877:C0 I *C 110.55 118.44 *L 0.00438 *D AOI211X1
*I *617:B I *C 117.81 124.04 *L 0.00375 *D NAND2X1
*I *602:A1 I *C 115.17 124.04 *L 0.00324 *D OAI21XL
*I *556:Q O *C 125.73 127.4 *L 0 *D DFFRHQX1

*CAP
1 *923:A1 0.000139835
2 *877:C0 6.32997e-05
3 *617:B 6.32997e-05
4 *602:A1 6.32997e-05
5 *556:Q 6.32997e-05
6 *86:5 0.000557451
7 *86:6 0.000523412
8 *86:7 0.000257066
9 *86:8 0.00025037
10 *86:9 0.000317319
11 *86:10 0.000372201
12 *86:11 0.000186803
13 *86:12 7.55758e-05
14 *86:13 6.68806e-05
15 *86:14 0.000338647
16 *86:15 0.000268957
17 *86:16 0.00058501
18 *86:17 0.00064828
19 *86:18 0.000155049
20 *86:19 5.09246e-05
21 *86:20 6.57232e-05

*RES
1 *86:20 *556:Q 6.4000001
2 *86:9 *86:20 0.183887
3 *86:10 *86:9 0.936035
4 *86:19 *617:B 6.4000001
5 *86:16 *86:10 3.2
6 *86:17 *86:19 6.4000001
7 *86:17 *86:16 2.02246
8 *86:18 *86:17 0.551562
9 *86:12 *86:18 0.155957
10 *86:13 *86:12 0.183887
11 *86:7 *602:A1 6.4000001
12 *86:7 *86:13 6.4000001
13 *86:8 *86:7 0.77998
14 *86:14 *86:8 3.2
15 *86:15 *86:14 1.28701
16 *86:11 *86:15 3.2
17 *86:5 *877:C0 6.4000001
18 *86:5 *86:11 0.624023
19 *86:6 *86:5 1.24805
20 *923:A1 *86:6 3.2
*END

*D_NET *87 0.00484871

*CONN
*I *977:B I *C 47.85 58.52 *L 0.00635 *D XNOR2X1
*I *971:A I *C 45.87 53.48 *L 0.00346 *D INVX1
*I *575:Q O *C 56.43 43.96 *L 0 *D DFFRHQX1

*CAP
1 *977:B 0.000139838
2 *971:A 0.000126248
3 *575:Q 0.000139838
4 *87:3 0.000377208
5 *87:4 0.000585032
6 *87:5 0.000426203
7 *87:6 0.000426203
8 *87:7 0.000290899
9 *87:8 0.00081186
10 *87:9 0.000238113
11 *87:10 0.000212247
12 *87:11 0.000120599
13 *87:12 0.000212247
14 *87:13 0.000742176

*RES
1 *87:11 *977:B 3.20001
2 *87:12 *87:11 3.20001
3 *87:6 *575:Q 3.20001
4 *87:10 *87:12 1.10317
5 *87:6 *87:5 1.71599
6 *87:9 *971:A 0.671462
7 *87:3 *87:10 3.20001
8 *87:13 *87:5 3.20001
9 *87:4 *87:9 3.20001
10 *87:4 *87:3 1.40401
11 *87:8 *87:13 3.49328566
12 *87:7 *87:4 0.936006
13 *87:7 *87:8 3.20001
*END

*D_NET *88 0.00242987

*CONN
*I *931:AN I *C 59.73 51.24 *L 0.0021 *D NAND2BX1
*I *637:B I *C 57.75 53.48 *L 0.00375 *D NAND2X1
*I *606:A1 I *C 55.11 53.48 *L 0.00324 *D OAI21XL
*I *577:Q O *C 62.37 46.76 *L 0 *D DFFRHQX1

*CAP
1 *931:AN 5.49081e-05
2 *637:B 0.000139841
3 *606:A1 0.000139841
4 *577:Q 0.000139841
5 *88:4 0.000204529
6 *88:5 0.000138631
7 *88:6 0.00041087
8 *88:7 0.000117728
9 *88:8 0.00022725
10 *88:9 0.000247318
11 *88:10 8.32147e-05
12 *88:11 9.22114e-05
13 *88:12 0.000119703
14 *88:13 0.000313982

*RES
1 *88:11 *931:AN 0.223828
2 *88:11 *88:12 0.189893
3 *88:13 *577:Q 3.20000005
4 *88:7 *88:12 0.447656
5 *88:6 *88:13 1.28701
6 *88:8 *88:7 3.20000005
7 *88:6 *88:8 0.624023
8 *88:10 *637:B 3.20000005
9 *88:5 *606:A1 3.20000005
10 *88:8 *88:9 0.156006
11 *88:9 *88:10 0.312012
12 *88:4 *88:5 0.156006
13 *88:4 *88:9 0.735449
*END

*D_NET *89 0.00447264

*CONN
*I *976:B I *C 81.51 82.6 *L 0.00635 *D XNOR2X1
*I *967:A I *C 80.19 97.72 *L 0.00346 *D INVX1
*I *941:B I *C 86.79 83.16 *L 0.00385 *D NOR2X1
*I *578:Q O *C 86.13 94.36 *L 0 *D DFFRHQX1

*CAP
1 *976:B 0.000139844
2 *967:A 0.000139844
3 *941:B 0.000139844
4 *578:Q 6.32949e-05
5 *89:4 0.000208057
6 *89:5 0.00053454
7 *89:6 0.000278636
8 *89:7 0.000238367
9 *89:8 5.5122e-05
10 *89:9 0.000124803
11 *89:10 0.000356083
12 *89:11 0.000356083
13 *89:12 0.000173213
14 *89:13 0.000213473
15 *89:14 0.000322518
16 *89:15 0.000398277
17 *89:16 0.000142104
18 *89:17 0.000120603
19 *89:18 0.000467966

*RES
1 *89:8 *941:B 3.2
2 *89:9 *89:8 0.155957
3 *89:17 *578:Q 6.4000001
4 *89:10 *89:9 3.2
5 *89:18 *89:17 3.2
6 *89:11 *89:10 1.4709
7 *89:4 *967:A 3.2
8 *89:15 *89:18 1.65469
9 *89:16 *976:B 3.2
10 *89:16 *89:11 3.2
11 *89:5 *89:4 0.936035
12 *89:5 *89:15 3.2
13 *89:7 *89:16 0.183887
14 *89:14 *89:5 1.404
15 *89:7 *89:6 1.09199
16 *89:12 *89:14 0.183887
17 *89:13 *89:6 0.367676
18 *89:13 *89:12 0.77998
*END

*D_NET *90 0.0052365

*CONN
*I *941:A I *C 87.45 83.72 *L 0.0043 *D NOR2X1
*I *638:B I *C 90.75 87.64 *L 0.00375 *D NAND2X1
*I *605:A1 I *C 92.73 87.64 *L 0.00324 *D OAI21XL
*I *576:Q O *C 102.63 97.16 *L 0 *D DFFRHQX1

*CAP
1 *941:A 6.32995e-05
2 *638:B 0.000139842
3 *605:A1 6.32995e-05
4 *576:Q 0.000139842
5 *90:4 0.000181942
6 *90:5 0.000236823
7 *90:6 0.000165191
8 *90:7 0.00011031
9 *90:8 0.000396446
10 *90:9 0.000396446
11 *90:10 0.000241882
12 *90:11 0.000241882
13 *90:12 0.00012331
14 *90:13 0.000184291
15 *90:14 0.000147884
16 *90:15 0.0001206
17 *90:16 0.000304289
18 *90:17 0.0001206
19 *90:18 0.000311462
20 *90:19 0.000146349
21 *90:20 0.000513217188
22 *90:21 0.0001206
23 *90:22 0.000513217188
24 *90:6 *216:4 2.622e-05
25 *90:7 *216:2 2.622e-05
26 *90:4 *216:4 4.316e-05
27 *90:5 *216:2 4.316e-05
28 *90:8 *216:4 5.736e-05
29 *90:9 *216:2 5.7360004e-05

*RES
1 *90:21 *576:Q 3.2
2 *90:22 *90:21 3.2
3 *90:20 *90:22 2.20625
4 *90:6 *90:20 3.2
5 *90:7 *90:6 0.467969
6 *90:8 *90:7 0.183887
7 *90:9 *90:8 2.02803
8 *90:9 *90:4 0.183887
9 *90:5 *90:4 0.936035
10 *90:17 *605:A1 6.4000001
11 *90:19 *90:5 3.2
12 *90:15 *638:B 3.2
13 *90:18 *90:17 3.2
14 *90:18 *90:19 0.551562
15 *90:16 *90:15 3.2
16 *90:16 *90:18 0.551562
17 *90:14 *90:16 0.551562
18 *90:12 *90:14 0.155957
19 *90:13 *90:12 0.367676
20 *90:10 *90:13 3.2
21 *90:11 *90:10 0.936035
22 *941:A *90:11 6.4000001
*END

*D_NET *91 0.00667501

*CONN
*I *916:B1 I *C 110.55 92.68 *L 0.00309 *D OAI22XL
*I *812:A1 I *C 103.95 103.32 *L 0.00472 *D AOI22X1
*I *810:B1 I *C 105.27 103.32 *L 0.00419 *D OAI22X1
*I *745:C I *C 107.91 87.64 *L 0.00345 *D NAND4XL
*I *669:B1 I *C 107.91 83.16 *L 0.00335 *D OAI2BB2XL
*I *645:QN O *C 117.15 99.4 *L 0 *D DFFRX1

*CAP
1 *916:B1 0.00013984
2 *812:A1 6.32984e-05
3 *810:B1 0.00013984
4 *745:C 6.32984e-05
5 *669:B1 0.00013984
6 *645:QN 6.32984e-05
7 *91:6 0.000699443
8 *91:7 0.000343408
9 *91:8 0.000131458
10 *91:9 6.17853e-05
11 *91:10 0.000185088
12 *91:11 9.44589e-05
13 *91:12 0.000113286
14 *91:13 0.000345523
15 *91:14 0.000283765
16 *91:15 0.000439125
17 *91:16 0.000851616
18 *91:17 0.000877567656
19 *91:18 0.000109041
20 *91:19 0.000549077
21 *91:20 0.000549077
22 *91:21 0.000105975
23 *91:22 7.24444e-05
24 *91:23 0.000120598
25 *91:24 0.000132864

*RES
1 *91:23 *916:B1 3.2
2 *91:7 *669:B1 3.2
3 *91:24 *91:23 3.2
4 *91:6 *745:C 6.4000001
5 *91:7 *91:6 1.24805
6 *91:22 *91:24 0.183887
7 *91:6 *91:15 1.24805
8 *91:12 *91:22 0.155957
9 *91:10 *91:15 3.2
10 *91:10 *91:12 0.551562
11 *91:11 *91:10 0.367676
12 *91:9 *645:QN 6.4000001
13 *91:20 *91:11 3.2
14 *91:9 *91:8 0.155957
15 *91:20 *91:19 2.18398
16 *91:16 *91:8 3.2
17 *91:17 *91:19 3.2
18 *91:17 *91:16 2.9417
19 *91:18 *91:17 0.367676
20 *91:14 *91:18 3.2
21 *91:13 *810:B1 3.2
22 *91:14 *91:13 0.936035
23 *91:21 *91:13 0.367676
24 *812:A1 *91:21 6.4000001
*END

*D_NET *92 0.0123136

*CONN
*I *916:B0 I *C 111.21 93.8 *L 0.00339 *D OAI22XL
*I *885:A0N I *C 103.95 113.96 *L 0.00185 *D OAI2BB1X1
*I *875:A0N I *C 106.59 107.8 *L 0.00185 *D OAI2BB1X1
*I *735:B2 I *C 105.93 77.56 *L 0.00472 *D OAI33X1
*I *714:A I *C 117.15 77.56 *L 0.00377 *D MXI2X1
*I *710:QN O *C 122.43 102.2 *L 0 *D DFFRX1

*CAP
1 *916:B0 0.000139843
2 *885:A0N 0.000139843
3 *875:A0N 0.000139843
4 *735:B2 0.000139843
5 *714:A 0.000139843
6 *710:QN 0.000139843
7 *92:6 0.000271064
8 *92:7 0.000238728
9 *92:8 6.99147e-05
10 *92:9 0.000150441
11 *92:10 0.000865332
12 *92:11 0.000538762
13 *92:12 0.000349226
14 *92:13 7.01372e-05
15 *92:14 0.000139815
16 *92:15 9.21672e-05
17 *92:16 8.29046e-05
18 *92:17 0.000245293
19 *92:18 0.000190412
20 *92:19 0.000155281
21 *92:20 0.000146575
22 *92:21 0.000296863
23 *92:22 0.000296863
24 *92:23 0.000406665
25 *92:24 0.000476357
26 *92:25 0.000389266
27 *92:26 0.000495147
28 *92:27 0.000560722
29 *92:28 0.000575353
30 *92:29 0.000120595
31 *92:30 0.000120595
32 *92:31 0.00020005
33 *92:32 0.000171609
34 *92:33 0.000571473
35 *92:34 0.00020005
36 *92:35 0.00091145
37 *92:36 0.000391088
38 *92:37 0.000214292
39 *92:38 0.000120595
40 *92:39 0.0002056
41 *92:36 *371:7 0.00011671
42 *92:35 *371:8 0.00011671
43 *92:35 *371:7 7.703e-05
44 *92:33 *371:8 7.703e-05
45 *92:25 *371:7 4.506e-05
46 *92:26 *371:8 4.506e-05
47 *92:26 *371:7 2.453e-05
48 *92:32 *371:8 2.45300015e-05
49 *92:10 *311:6 0.00030858
50 *92:11 *311:4 0.000308580002

*RES
1 *92:29 *735:B2 3.20000005
2 *92:16 *92:29 3.20000005
3 *92:13 *714:A 3.20000005
4 *92:16 *92:15 0.183838
5 *92:14 *92:13 0.156006
6 *92:11 *92:15 0.156006
7 *92:12 *92:14 3.20000005
8 *92:11 *92:10 2.2063
9 *92:10 *92:12 0.735449
10 *92:38 *710:QN 3.20000005
11 *92:30 *916:B0 3.20000005
12 *92:28 *92:10 3.20000005
13 *92:39 *92:38 3.20000005
14 *92:31 *92:30 3.20000005
15 *92:28 *92:27 2.18398
16 *92:37 *92:39 0.919287
17 *92:31 *92:34 0.551562
18 *92:33 *92:27 0.367725
19 *92:21 *92:37 0.156006
20 *92:35 *92:34 3.20000005
21 *92:33 *92:35 2.496
22 *92:22 *92:21 1.28701
23 *92:35 *92:36 2.18398
24 *92:22 *92:19 0.156006
25 *92:32 *92:36 0.183838
26 *92:20 *92:19 0.551562
27 *92:32 *92:26 0.77998
28 *92:26 *92:20 3.20000005
29 *92:26 *92:25 1.56001
30 *92:23 *92:25 3.20000005
31 *92:7 *875:A0N 3.20000005
32 *92:24 *92:23 1.65474
33 *92:7 *92:6 0.624023
34 *92:6 *92:24 3.20000005
35 *92:9 *92:6 0.551562
36 *92:17 *885:A0N 3.20000005
37 *92:9 *92:8 0.156006
38 *92:18 *92:17 0.935986
39 *92:18 *92:8 0.183838
*END

*D_NET *93 0.00674458

*CONN
*I *920:A1 I *C 93.39 68.04 *L 0.00472 *D AOI22X1
*I *807:A1 I *C 97.35 78.12 *L 0.00472 *D AOI22X1
*I *739:D I *C 100.65 77.56 *L 0.00376 *D AND4X2
*I *668:B1 I *C 109.23 73.08 *L 0.00335 *D OAI2BB2XL
*I *650:QN O *C 89.43 69.16 *L 0 *D DFFRX1

*CAP
1 *920:A1 6.32959e-05
2 *807:A1 6.32959e-05
3 *739:D 0.000139841
4 *668:B1 0.000139841
5 *650:QN 0.000139841
6 *93:5 0.000293733
7 *93:6 0.000230756
8 *93:7 0.000611929
9 *93:8 0.000907282109
10 *93:9 0.000200672
11 *93:10 0.000200672
12 *93:11 0.000308754
13 *93:12 0.000243049
14 *93:13 0.000243049
15 *93:14 7.09102e-05
16 *93:15 7.09102e-05
17 *93:16 0.000176971
18 *93:17 0.000114007
19 *93:18 0.000120597
20 *93:19 0.000250373
21 *93:20 0.000320051
22 *93:21 7.24192e-05
23 *93:22 0.000513317
24 *93:23 0.000848292
25 *93:24 0.000400694

*RES
1 *93:10 *668:B1 3.2
2 *93:17 *807:A1 6.4000001
3 *93:5 *739:D 3.2
4 *93:10 *93:9 0.624023
5 *93:17 *93:16 0.624023
6 *93:6 *93:5 0.624023
7 *93:7 *93:9 6.4000001
8 *93:12 *93:16 3.2
9 *93:8 *93:6 6.4000001
10 *93:8 *93:7 2.39014
11 *93:13 *93:12 0.919238
12 *93:11 *93:8 1.83857
13 *93:24 *93:13 3.2
14 *93:23 *93:11 3.2
15 *93:23 *93:24 1.404
16 *93:14 *920:A1 6.4000001
17 *93:22 *93:23 2.34004
18 *93:15 *93:14 0.312012
19 *93:21 *93:22 0.183887
20 *93:20 *93:15 3.2
21 *93:20 *93:21 3.2
22 *93:19 *93:20 1.10312
23 *93:18 *93:19 3.2
24 *650:QN *93:18 3.2
*END

*D_NET *94 0.0102654

*CONN
*I *920:A0 I *C 92.73 67.48 *L 0.00465 *D AOI22X1
*I *888:A1 I *C 91.41 73.64 *L 0.00324 *D OAI21XL
*I *886:B1 I *C 90.75 78.12 *L 0.00444 *D OAI2BB2X1
*I *886:A0N I *C 88.77 77.56 *L 0.00186 *D OAI2BB2X1
*I *735:A2 I *C 109.89 78.12 *L 0.00497 *D OAI33X1
*I *715:A I *C 117.81 73.64 *L 0.00377 *D MXI2X1
*I *708:QN O *C 123.09 69.16 *L 0 *D DFFRX1

*CAP
1 *920:A0 6.33067e-05
2 *888:A1 0.000139846
3 *886:B1 0.000139846
4 *886:A0N 6.33067e-05
5 *735:A2 6.33067e-05
6 *715:A 0.000139846
7 *708:QN 6.33067e-05
8 *94:7 0.000343303
9 *94:8 0.000343303
10 *94:9 0.000175678
11 *94:10 0.000106012
12 *94:11 0.000271866
13 *94:12 0.000341532
14 *94:13 0.000134838
15 *94:14 0.000105784
16 *94:15 0.000235158
17 *94:16 0.000165473
18 *94:17 0.000141293
19 *94:18 0.000268401
20 *94:19 0.000104851
21 *94:20 0.00019348
22 *94:21 0.000244811
23 *94:22 0.000244811
24 *94:23 0.000232378
25 *94:24 0.000232378
26 *94:25 0.000178496
27 *94:26 0.000248181
28 *94:27 0.000132154
29 *94:28 6.24689e-05
30 *94:29 0.000194699
31 *94:30 0.000194699
32 *94:31 0.000645214
33 *94:32 0.000714899
34 *94:33 0.00124776
35 *94:34 0.000948991
36 *94:35 0.000120597
37 *94:36 0.000142112
38 *94:37 5.09119e-05
39 *94:38 0.000349681
40 *94:15 *311:6 9.047e-05
41 *94:16 *311:4 9.04700009e-05
42 *94:7 *252:8 0.00014062
43 *94:8 *252:6 0.00014062
44 *94:9 *252:12 7.17e-06
45 *94:10 *252:10 7.1699946e-06

*RES
1 *94:10 *708:QN 6.4000001
2 *94:10 *94:9 0.467969
3 *94:7 *94:9 3.2
4 *94:8 *94:7 1.4709
5 *94:24 *94:8 3.2
6 *94:25 *735:A2 6.4000001
7 *94:23 *715:A 3.2
8 *94:24 *94:23 0.77998
9 *94:26 *94:25 0.624023
10 *94:21 *94:23 3.2
11 *94:15 *94:26 3.2
12 *94:22 *94:21 0.919238
13 *94:16 *94:15 0.551562
14 *94:30 *94:22 3.2
15 *94:37 *920:A0 6.4000001
16 *94:27 *94:16 3.2
17 *94:30 *94:29 0.467969
18 *94:11 *94:37 6.4000001
19 *94:28 *94:27 0.155957
20 *94:38 *94:29 3.2
21 *94:12 *94:11 0.551562
22 *94:33 *94:28 3.2
23 *94:33 *94:38 1.83857
24 *94:32 *94:12 3.2
25 *94:34 *94:33 4.78027
26 *94:36 *888:A1 3.2
27 *94:32 *94:31 2.18398
28 *94:31 *94:34 3.2
29 *94:14 *94:36 0.183887
30 *94:35 *94:31 3.2
31 *94:14 *94:13 0.467969
32 *94:13 *94:35 3.2
33 *94:17 *886:B1 3.2
34 *94:19 *886:A0N 6.4000001
35 *94:13 *94:18 0.155957
36 *94:18 *94:17 0.624023
37 *94:20 *94:19 0.467969
38 *94:20 *94:18 0.551562
*END

*D_NET *95 0.00619704

*CONN
*I *917:B1 I *C 101.31 52.92 *L 0.00419 *D OAI22X1
*I *809:B1 I *C 97.35 47.88 *L 0.00419 *D OAI22X1
*I *805:A1 I *C 92.73 53.48 *L 0.00443 *D AOI21X1
*I *785:A2 I *C 95.37 53.48 *L 0.00458 *D AOI31X1
*I *670:B1 I *C 107.25 52.92 *L 0.00335 *D OAI2BB2XL
*I *651:QN O *C 114.51 49 *L 0 *D DFFRX1

*CAP
1 *917:B1 0.000139842
2 *809:B1 0.000139842
3 *805:A1 0.000139842
4 *785:A2 6.33013e-05
5 *670:B1 0.000139842
6 *651:QN 6.33013e-05
7 *95:6 0.000125941
8 *95:7 5.62666e-05
9 *95:8 0.00027542
10 *95:9 0.00027542
11 *95:10 0.000352477
12 *95:11 0.00073528
13 *95:12 0.0003962
14 *95:13 0.000418269
15 *95:14 0.000307194
16 *95:15 0.000259264
17 *95:16 0.000300664
18 *95:17 0.000236163
19 *95:18 0.000332315
20 *95:19 0.000147067
21 *95:20 0.0001206
22 *95:21 5.09148e-05
23 *95:22 0.0001206
24 *95:23 0.0001206
25 *95:24 8.99592e-05
26 *95:25 0.000159644
27 *95:10 *212:15 0.00013303
28 *95:11 *212:12 0.00013303
29 *95:11 *212:15 4.941e-05
30 *95:12 *212:12 4.941e-05
31 *95:11 *212:12 9.508e-05
32 *95:12 *212:4 9.508e-05
33 *95:11 *212:4 3.79e-05
34 *95:12 *212:5 3.78999969e-05

*RES
1 *95:24 *651:QN 6.4000001
2 *95:8 *670:B1 3.2
3 *95:24 *95:25 0.312012
4 *95:22 *809:B1 3.2
5 *95:9 *95:8 0.77998
6 *95:10 *95:25 3.2
7 *95:23 *95:22 3.2
8 *95:11 *95:9 3.2
9 *95:11 *95:10 2.02246
10 *95:7 *917:B1 3.2
11 *95:19 *95:23 3.2
12 *95:12 *95:11 2.75781
13 *95:7 *95:6 0.155957
14 *95:19 *95:18 0.624023
15 *95:18 *95:12 3.2
16 *95:16 *95:6 3.2
17 *95:18 *95:17 0.936035
18 *95:21 *785:A2 6.4000001
19 *95:13 *95:16 1.10312
20 *95:13 *95:17 3.2
21 *95:14 *95:21 6.4000001
22 *95:14 *95:13 0.551562
23 *95:15 *95:14 0.735449
24 *95:20 *95:15 3.2
25 *805:A1 *95:20 3.2
*END

*D_NET *96 0.0102068

*CONN
*I *917:B0 I *C 101.97 53.48 *L 0.00457 *D OAI22X1
*I *884:A0N I *C 89.43 47.32 *L 0.00185 *D OAI2BB1X1
*I *881:A0N I *C 90.09 53.48 *L 0.00185 *D OAI2BB1X1
*I *734:B I *C 104.61 61.88 *L 0.00323 *D AND2X2
*I *722:A1 I *C 106.59 63 *L 0.00472 *D AOI211X1
*I *716:A I *C 109.89 57.4 *L 0.00377 *D MXI2X1
*I *711:QN O *C 112.53 41.72 *L 0 *D DFFRX1

*CAP
1 *917:B0 0.000139838
2 *884:A0N 0.000139838
3 *881:A0N 0.000139838
4 *734:B 0.000139838
5 *722:A1 0.000139838
6 *716:A 0.000139838
7 *711:QN 0.000139838
8 *96:7 0.00022577
9 *96:8 0.000280644
10 *96:9 0.000234676
11 *96:10 0.000130842
12 *96:11 0.000455528
13 *96:12 0.00018056
14 *96:13 0.000111284
15 *96:14 0.000192069
16 *96:15 0.000421609
17 *96:16 0.000173538
18 *96:17 0.000228293
19 *96:18 0.000515768
20 *96:19 0.000653611641
21 *96:20 0.000279736
22 *96:21 0.000527687
23 *96:22 0.000484821
24 *96:23 0.000158708
25 *96:24 0.00011268
26 *96:25 0.000134572
27 *96:26 0.000144356
28 *96:27 0.000103963
29 *96:28 0.000142232
30 *96:29 0.000190324
31 *96:30 0.000142232
32 *96:31 0.000521373
33 *96:32 0.000591048
34 *96:33 0.000181058
35 *96:18 *245:11 1.188e-05
36 *96:19 *245:9 1.188e-05
37 *96:19 *245:8 2.131e-05
38 *96:20 *245:7 2.131e-05
39 *96:21 *245:7 6.338e-05
40 *96:22 *245:5 6.338e-05
41 *96:15 *245:12 6.267e-05
42 *96:11 *245:10 6.267e-05
43 *96:11 *245:12 4.043e-05
44 *96:12 *245:10 4.04300021e-05
45 *96:21 *248:9 0.00018781
46 *96:22 *248:6 0.000187809999
47 *96:18 *170:21 6.142e-05
48 *96:19 *170:22 6.142e-05
49 *96:33 *170:21 6.121e-05
50 *96:29 *170:22 6.121e-05
51 *96:32 *170:12 5.229e-05
52 *96:31 *170:13 5.229e-05
53 *96:32 *170:23 0.00022268
54 *96:31 *170:24 0.00022268
55 *96:15 *170:25 6.99e-06
56 *96:11 *170:26 6.99e-06
57 *96:9 *170:17 6.24e-05
58 *96:10 *170:18 6.23999959e-05

*RES
1 *96:28 *722:A1 3.20000005
2 *96:27 *96:28 0.183838
3 *96:26 *96:27 0.312012
4 *96:25 *734:B 3.20000005
5 *96:25 *96:26 0.367725
6 *96:31 *711:QN 3.20000005
7 *96:13 *96:25 0.183838
8 *96:30 *716:A 3.20000005
9 *96:31 *96:32 3.12002
10 *96:14 *96:13 0.312012
11 *96:16 *96:30 0.183838
12 *96:33 *96:32 3.20000005
13 *96:12 *917:B0 3.20000005
14 *96:15 *96:14 0.551562
15 *96:17 *96:16 0.468018
16 *96:29 *96:33 0.919287
17 *96:12 *96:11 0.624023
18 *96:11 *96:15 1.404
19 *96:18 *96:17 3.20000005
20 *96:29 *96:18 0.156006
21 *96:19 *96:11 3.20000005
22 *96:19 *96:18 2.02241
23 *96:20 *96:19 1.10312
24 *96:21 *96:20 0.312012
25 *96:22 *96:21 2.57402
26 *96:8 *884:A0N 3.20000005
27 *96:24 *881:A0N 3.20000005
28 *96:23 *96:22 3.20000005
29 *96:8 *96:7 0.935986
30 *96:9 *96:24 0.367725
31 *96:9 *96:23 0.312012
32 *96:10 *96:7 0.183838
33 *96:10 *96:9 0.77998
*END

*D_NET *97 0.00889664

*CONN
*I *979:B I *C 123.75 93.24 *L 0.0041 *D NOR2BX1
*I *918:A1 I *C 127.71 83.16 *L 0.00472 *D AOI22X1
*I *801:A1 I *C 119.79 93.8 *L 0.00443 *D AOI21X1
*I *782:A2 I *C 119.79 87.64 *L 0.00458 *D AOI31X1
*I *667:B1 I *C 120.45 73.08 *L 0.00335 *D OAI2BB2XL
*I *652:QN O *C 136.29 71.96 *L 0 *D DFFRX1

*CAP
1 *979:B 0.00013984
2 *918:A1 6.33024e-05
3 *801:A1 0.00013984
4 *782:A2 0.00013984
5 *667:B1 0.00013984
6 *652:QN 0.00013984
7 *97:6 0.000296714
8 *97:7 0.000241611
9 *97:8 0.000166482
10 *97:9 0.000166482
11 *97:10 0.000417156
12 *97:11 0.000347482
13 *97:12 0.000126923
14 *97:13 5.72394e-05
15 *97:14 0.000113043
16 *97:15 0.000113043
17 *97:16 0.000451034
18 *97:17 0.000375397
19 *97:18 0.000118469
20 *97:19 0.000125169
21 *97:20 0.000158711
22 *97:21 8.45456e-05
23 *97:22 0.000416647
24 *97:23 0.000415184
25 *97:24 0.000203088
26 *97:25 0.000148203
27 *97:26 0.000439672
28 *97:27 0.000439672
29 *97:28 0.000139585
30 *97:29 0.00059571
31 *97:30 0.000521836
32 *97:31 0.000147457
33 *97:32 0.000505592
34 *97:33 0.000152838
35 *97:34 0.000505592
36 *97:35 0.000143585

*RES
1 *97:13 *652:QN 3.2
2 *97:13 *97:12 0.155957
3 *97:35 *97:12 3.2
4 *97:33 *97:35 0.551562
5 *97:9 *667:B1 3.2
6 *97:33 *97:34 0.155957
7 *97:14 *918:A1 6.4000001
8 *97:9 *97:8 0.467969
9 *97:32 *97:34 2.57402
10 *97:15 *97:14 0.312012
11 *97:7 *97:8 3.2
12 *97:31 *97:32 0.155957
13 *97:10 *97:15 3.2
14 *97:7 *97:6 0.735449
15 *97:6 *97:31 0.551562
16 *97:11 *97:10 1.28701
17 *97:30 *97:6 3.2
18 *97:29 *97:11 3.2
19 *97:30 *97:29 2.02803
20 *97:29 *97:28 0.467969
21 *97:28 *97:27 0.183887
22 *97:18 *979:B 3.2
23 *97:27 *97:26 1.87197
24 *97:19 *97:18 0.312012
25 *97:25 *97:26 0.183887
26 *97:21 *97:19 6.4000001
27 *97:25 *97:24 0.467969
28 *97:22 *97:21 0.183887
29 *97:22 *97:24 3.2
30 *97:20 *801:A1 3.2
31 *97:23 *97:22 0.919238
32 *97:16 *97:20 0.312012
33 *97:16 *97:23 3.2
34 *97:17 *97:16 1.24805
35 *782:A2 *97:17 3.2
*END

*D_NET *98 0.00702645

*CONN
*I *918:A0 I *C 127.05 83.72 *L 0.00465 *D AOI22X1
*I *887:A1 I *C 131.67 87.64 *L 0.00324 *D OAI21XL
*I *883:B1 I *C 131.01 93.24 *L 0.00444 *D OAI2BB2X1
*I *883:A0N I *C 129.03 93.8 *L 0.00186 *D OAI2BB2X1
*I *713:A I *C 125.07 77.56 *L 0.00377 *D MXI2X1
*I *709:QN O *C 138.93 79.24 *L 0 *D DFFRX1

*CAP
1 *918:A0 6.3307e-05
2 *887:A1 6.3307e-05
3 *883:B1 0.000139834
4 *883:A0N 0.000139834
5 *713:A 0.000139834
6 *709:QN 6.3307e-05
7 *98:6 0.000293159
8 *98:7 0.000308088
9 *98:8 0.000308115
10 *98:9 0.000377795
11 *98:10 0.000196362
12 *98:11 0.000196362
13 *98:12 0.00023571
14 *98:13 0.000214585
15 *98:14 0.000544883
16 *98:15 0.000633084
17 *98:16 8.88658e-05
18 *98:17 8.06355e-05
19 *98:18 0.000212971
20 *98:19 0.000214273
21 *98:20 0.000154058
22 *98:21 8.31439e-05
23 *98:22 0.000152824
24 *98:23 0.00088859
25 *98:24 0.00088859
26 *98:25 0.000110859
27 *98:26 0.000113475
28 *98:27 0.000120594

*RES
1 *98:17 *887:A1 6.4000001
2 *98:17 *98:16 0.312012
3 *98:21 *883:A0N 3.2
4 *98:7 *98:16 0.183887
5 *98:22 *98:21 0.155957
6 *98:6 *883:B1 3.2
7 *98:7 *98:6 1.09199
8 *98:20 *98:22 3.2
9 *98:18 *98:6 3.2
10 *98:20 *98:19 0.183887
11 *98:19 *98:18 0.367676
12 *98:23 *98:19 3.2
13 *98:27 *709:QN 6.4000001
14 *98:24 *98:23 3.9
15 *98:14 *98:27 3.2
16 *98:15 *98:24 3.2
17 *98:15 *98:14 2.57402
18 *98:8 *918:A0 6.4000001
19 *98:25 *98:15 0.367676
20 *98:9 *98:8 1.09199
21 *98:25 *98:26 0.155957
22 *98:12 *98:9 3.2
23 *98:12 *98:26 0.367676
24 *98:13 *98:12 0.551562
25 *98:10 *98:13 3.2
26 *98:11 *98:10 0.624023
27 *713:A *98:11 3.2
*END

*D_NET *99 0.00652222

*CONN
*I *922:S0 I *C 121.11 42.84 *L 0.00672 *D MXI2X1
*I *780:B I *C 123.09 37.24 *L 0.00391 *D NAND2BX1
*I *778:A1 I *C 119.79 37.24 *L 0.00324 *D OAI21XL
*I *730:A0N I *C 129.69 53.48 *L 0.00185 *D OAI2BB1X1
*I *726:Q O *C 145.53 54.04 *L 0 *D DFFRHQX1

*CAP
1 *922:S0 6.32911e-05
2 *780:B 0.000139833
3 *778:A1 3.72926e-05
4 *730:A0N 0.000139833
5 *726:Q 0.000139833
6 *99:5 0.00033868
7 *99:6 0.000313045
8 *99:7 0.000182577
9 *99:8 0.000646008
10 *99:9 0.000584045
11 *99:10 0.000302478
12 *99:11 0.0001316
13 *99:12 0.000470574
14 *99:13 0.000479268
15 *99:14 9.36647e-05
16 *99:15 8.49566e-05
17 *99:16 7.7171e-05
18 *99:17 7.7171e-05
19 *99:18 7.99805e-05
20 *99:19 6.57232e-05
21 *99:20 0.000122515
22 *99:21 0.00091603
23 *99:22 0.0001206
24 *99:23 0.00091603

*RES
1 *99:22 *726:Q 3.2
2 *99:23 *99:22 3.2
3 *99:7 *730:A0N 3.2
4 *99:21 *99:23 4.4126
5 *99:8 *99:7 0.624023
6 *99:8 *99:21 3.2
7 *99:9 *99:8 2.18398
8 *99:12 *99:9 3.2
9 *99:13 *99:12 2.20625
10 *99:14 *99:13 0.155957
11 *99:6 *780:B 3.2
12 *99:15 *99:14 0.183887
13 *99:6 *99:5 1.09199
14 *99:20 *922:S0 6.4000001
15 *99:20 *99:15 6.4000001
16 *99:10 *99:5 0.551562
17 *99:10 *99:20 0.467969
18 *99:11 *99:10 0.624023
19 *99:19 *99:11 0.183887
20 *99:18 *99:19 6.4000001
21 *99:17 *99:18 0.189941
22 *99:16 *99:17 0.223828
23 *778:A1 *99:16 0.189941
*END

*D_NET *100 0.00616029

*CONN
*I *922:A I *C 124.41 43.4 *L 0.00377 *D MXI2X1
*I *792:A1 I *C 114.51 43.4 *L 0.00443 *D AOI21X1
*I *791:A1 I *C 116.49 47.32 *L 0.00443 *D AOI21X1
*I *789:B1 I *C 117.15 43.4 *L 0.00434 *D AOI22X1
*I *788:B1 I *C 119.13 47.32 *L 0.00434 *D AOI22X1
*I *770:B1 I *C 124.41 48.44 *L 0.0045 *D AOI2BB2X1
*I *770:A1N I *C 122.43 47.32 *L 0.00205 *D AOI2BB2X1
*I *764:B1 I *C 125.07 52.36 *L 0.00309 *D OAI22XL
*I *751:QN O *C 123.09 51.8 *L 0 *D DFFRX1

*CAP
1 *922:A 0.000139842
2 *792:A1 0.000139842
3 *791:A1 0.000139842
4 *789:B1 6.33001e-05
5 *788:B1 0.000139842
6 *770:B1 6.33001e-05
7 *770:A1N 0.000139842
8 *764:B1 0.000139842
9 *751:QN 6.33001e-05
10 *100:9 0.000286787
11 *100:10 0.000247182
12 *100:11 0.00012642
13 *100:12 0.0002148
14 *100:13 0.000273636
15 *100:14 0.00021827
16 *100:15 7.20538e-05
17 *100:16 0.000160103
18 *100:17 0.000105219
19 *100:18 0.000189762
20 *100:19 0.000164121
21 *100:20 0.000321212
22 *100:21 0.00030659
23 *100:22 0.000146349
24 *100:23 0.000176008
25 *100:24 6.99211e-05
26 *100:25 0.000142101
27 *100:26 0.000127203
28 *100:27 0.00026278
29 *100:28 0.00039482
30 *100:29 0.000142101
31 *100:30 0.000112298
32 *100:31 7.20357e-05
33 *100:32 6.58545e-05
34 *100:33 8.76876e-05
35 *100:34 0.000128082
36 *100:35 0.00039482
37 *100:36 0.00012313

*RES
1 *100:32 *751:QN 6.4000001
2 *100:32 *100:33 0.183887
3 *100:33 *100:34 0.312012
4 *100:34 *100:36 0.367676
5 *100:9 *764:B1 3.2
6 *100:9 *100:36 0.155957
7 *100:29 *770:A1N 3.2
8 *100:10 *100:9 0.624023
9 *100:29 *100:31 0.183887
10 *100:11 *100:10 0.183887
11 *100:30 *100:31 0.155957
12 *100:12 *770:B1 6.4000001
13 *100:12 *100:11 0.467969
14 *100:15 *922:A 3.2
15 *100:30 *100:13 0.367676
16 *100:13 *100:12 0.467969
17 *100:15 *100:14 0.312012
18 *100:14 *100:13 0.624023
19 *100:35 *100:14 3.2
20 *100:28 *100:35 1.65469
21 *100:16 *788:B1 3.2
22 *100:19 *100:28 3.2
23 *100:17 *100:16 0.467969
24 *100:26 *789:B1 6.4000001
25 *100:19 *100:18 0.312012
26 *100:18 *100:17 0.183887
27 *100:26 *100:27 0.624023
28 *100:27 *100:18 0.367676
29 *100:25 *791:A1 3.2
30 *100:22 *100:27 0.367676
31 *100:24 *100:25 0.183887
32 *100:22 *100:23 0.312012
33 *100:23 *100:24 0.155957
34 *100:21 *100:23 0.367676
35 *100:20 *100:21 0.936035
36 *792:A1 *100:20 3.2
*END

*D_NET *101 0.00314675

*CONN
*I *908:Q O *C 69.63 144.76 *L 0 *D DFFRHQX1
*I *900:A I *C 76.23 124.04 *L 0.00346 *D INVX1

*CAP
1 *908:Q 0.000247185
2 *900:A 0.000162063
3 *101:2 0.00112879
4 *101:3 0.00112879
5 *101:4 0.00019739
6 *101:5 0.000282529

*RES
1 *101:4 *900:A 0.895338
2 *101:3 *101:4 3.19998
3 *101:3 *101:2 5.14799976
4 *101:5 *101:2 3.19998
5 *908:Q *101:5 1.34293
*END

*D_NET *102 0.0118091

*CONN
*I *914:Q O *C 69.63 137.48 *L 0 *D DFFRHQX1
*I *871:B0 I *C 65.67 42.28 *L 0.00302 *D OAI21XL
*I *854:C I *C 68.97 42.28 *L 0.00444 *D NAND3BX1

*CAP
1 *914:Q 8.24055e-05
2 *871:B0 6.32544e-05
3 *854:C 0.00013978
4 *102:3 0.000106245
5 *102:4 0.000175936
6 *102:5 0.00023339
7 *102:6 0.00030316
8 *102:7 0.00520776
9 *102:8 0.000117768
10 *102:9 0.000120628
11 *102:10 0.000120628
12 *102:11 0.00513807

*RES
1 *914:Q *102:8 0.447557
2 *102:9 *102:8 3.20008
3 *102:10 *102:9 3.20008
4 *102:11 *102:10 3.20008
5 *102:7 *102:11 26.5200005
6 *102:3 *102:7 3.20008
7 *102:4 *102:3 0.551556
8 *102:6 *854:C 3.20008
9 *102:6 *102:4 3.20008
10 *102:5 *102:6 0.919395
11 *871:B0 *102:5 6.40015
*END

*D_NET *103 0.000956291

*CONN
*I *913:Q O *C 69.63 127.4 *L 0 *D DFFRHQX1
*I *897:A I *C 71.61 124.04 *L 0.00346 *D INVX1

*CAP
1 *913:Q 0.000123598
2 *897:A 0.00013984
3 *103:2 0.000191141
4 *103:3 7.99912e-05
5 *103:4 0.00026082
6 *103:5 0.000160902

*RES
1 *103:2 *897:A 3.20000005
2 *103:2 *103:4 0.77998
3 *103:3 *103:4 3.20000005
4 *103:3 *103:5 0.189893
5 *913:Q *103:5 0.671484
*END

*D_NET *104 0.00711324

*CONN
*I *921:Q O *C 53.13 114.52 *L 0 *D DFFRHQX1
*I *879:B0 I *C 50.49 62.44 *L 0.00302 *D OAI21XL
*I *855:C I *C 45.87 62.44 *L 0.00444 *D NAND3BX1

*CAP
1 *921:Q 0.000139836
2 *879:B0 6.32983e-05
3 *855:C 6.32983e-05
4 *104:3 0.00211107
5 *104:4 0.00199027
6 *104:5 0.000252871
7 *104:6 0.000252871
8 *104:7 0.000120605
9 *104:8 0.000373927
10 *104:9 0.00020365
11 *104:10 0.000373927
12 *104:11 0.000218435
13 *104:12 0.000193181
14 *104:3 *130:4 0.00029119
15 *104:4 *130:5 0.00029119
16 *104:3 *130:12 2.166e-05
17 *104:4 *130:10 2.166e-05
18 *104:3 *130:9 2.461e-05
19 *104:4 *130:8 2.461e-05
20 *104:5 *130:9 4.053e-05
21 *104:6 *130:8 4.05300092e-05

*RES
1 *104:12 *921:Q 3.20007
2 *104:3 *104:12 0.735416
3 *104:4 *104:3 11.5439997
4 *104:5 *104:4 0.183898
5 *104:6 *104:5 1.248
6 *104:6 *104:11 0.183898
7 *104:9 *879:B0 6.39997
8 *104:9 *104:11 0.936048
9 *104:10 *104:9 3.20007
10 *104:8 *104:10 1.28693
11 *104:7 *104:8 3.20007
12 *855:C *104:7 6.39997
*END

*D_NET *105 0.00254577

*CONN
*I *907:Q O *C 69.63 117.32 *L 0 *D DFFRHQX1
*I *896:A I *C 82.83 124.04 *L 0.00346 *D INVX1

*CAP
1 *907:Q 0.000288398
2 *896:A 0.000139839
3 *105:2 0.00043594
4 *105:3 0.000325696
5 *105:4 0.00043594
6 *105:5 0.000160899
7 *105:6 0.00015893
8 *105:7 0.000334903
9 *105:8 0.000265223

*RES
1 *105:8 *896:A 3.20000005
2 *105:7 *105:8 1.248
3 *105:6 *105:7 3.20000005
4 *105:5 *105:6 0.671484
5 *105:4 *105:5 0.189893
6 *105:2 *105:4 2.23828
7 *105:2 *105:3 0.189893
8 *907:Q *105:3 1.5668
*END

*D_NET *106 0.00284898

*CONN
*I *915:Q O *C 55.11 87.08 *L 0 *D DFFRHQX1
*I *870:B0 I *C 62.37 82.6 *L 0.00302 *D OAI21XL
*I *851:C I *C 65.67 82.6 *L 0.00444 *D NAND3BX1

*CAP
1 *915:Q 0.000139838
2 *870:B0 6.32995e-05
3 *851:C 0.000139838
4 *106:3 0.000240703
5 *106:4 0.000240703
6 *106:5 0.00044334
7 *106:6 0.00044334
8 *106:7 9.61838e-05
9 *106:8 0.000165856
10 *106:9 0.000152198
11 *106:10 0.000152198
12 *106:11 9.87478e-05
13 *106:12 0.000240852
14 *106:13 0.000231882

*RES
1 *106:7 *851:C 3.2
2 *106:8 *106:7 0.312012
3 *106:3 *106:8 3.2
4 *106:4 *106:3 0.919238
5 *106:11 *106:4 6.4000001
6 *106:12 *870:B0 6.4000001
7 *106:11 *106:12 0.312012
8 *106:12 *106:13 0.936035
9 *106:5 *106:13 3.2
10 *106:6 *106:5 2.02246
11 *106:10 *915:Q 3.2
12 *106:9 *106:6 3.2
13 *106:9 *106:10 0.312012
*END

*D_NET *107 0.00031892

*CONN
*I *906:Q O *C 54.45 94.36 *L 0 *D DFFRHQX1
*I *895:A I *C 57.09 93.8 *L 0.00346 *D INVX1

*CAP
1 *906:Q 0.00015946
2 *895:A 0.00015946

*RES
1 *906:Q *895:A 0.895304
*END

*D_NET *108 0.00257823

*CONN
*I *911:Q O *C 69.63 97.16 *L 0 *D DFFRHQX1
*I *880:B0 I *C 86.79 98.84 *L 0.00302 *D OAI21XL
*I *852:C I *C 82.17 98.84 *L 0.00444 *D NAND3BX1

*CAP
1 *911:Q 0.000637825
2 *880:B0 0.000117406
3 *852:C 0.00013984
4 *108:3 0.00067316
5 *108:4 0.00022262
6 *108:5 0.000295221
7 *108:6 0.000229276
8 *108:7 0.000262875

*RES
1 *108:6 *880:B0 0.671478
2 *108:7 *108:6 3.20001
3 *108:5 *852:C 3.20001
4 *108:5 *108:7 0.735413
5 *108:4 *108:5 0.551587
6 *108:3 *108:4 3.20001
7 *911:Q *108:3 3.58121729
*END

*D_NET *109 0.00117796

*CONN
*I *909:Q O *C 68.97 104.44 *L 0 *D DFFRHQX1
*I *898:A I *C 65.67 107.8 *L 0.00346 *D INVX1

*CAP
1 *909:Q 6.33005e-05
2 *898:A 0.000139841
3 *109:2 0.00018236
4 *109:3 0.00034324
5 *109:4 0.000302979
6 *109:5 0.000146236

*RES
1 *109:5 *909:Q 6.4000001
2 *109:3 *109:5 0.551562
3 *109:3 *109:4 0.936035
4 *109:2 *109:4 0.367676
5 *898:A *109:2 3.2
*END

*D_NET *110 0.00638781

*CONN
*I *910:Q O *C 54.45 97.16 *L 0 *D DFFRHQX1
*I *869:B0 I *C 88.77 108.92 *L 0.00302 *D OAI21XL
*I *856:C I *C 84.81 108.92 *L 0.00444 *D NAND3BX1

*CAP
1 *910:Q 0.000139833
2 *869:B0 8.8584e-05
3 *856:C 7.97472e-05
4 *110:3 0.000702947
5 *110:4 0.000702947
6 *110:5 0.000155454
7 *110:6 0.000170081
8 *110:7 0.000223469
9 *110:8 0.000175115
10 *110:9 0.00141594
11 *110:10 0.00141594
12 *110:11 0.000115073
13 *110:12 0.00012391
14 *110:9 *189:8 0.00031822
15 *110:10 *189:9 0.000318219998
16 *110:9 *498:10 6.579e-05
17 *110:10 *498:6 6.579e-05
18 *110:9 *498:3 5.539e-05
19 *110:10 *498:4 5.53899973e-05

*RES
1 *110:12 *869:B0 0.447613
2 *110:8 *110:12 6.40003
3 *110:8 *110:7 0.467947
4 *856:C *110:11 0.447613
5 *110:5 *110:7 0.367759
6 *110:6 *110:11 6.40003
7 *110:6 *110:5 0.467947
8 *110:9 *110:6 3.19995
9 *110:10 *110:9 8.82514286
10 *110:3 *110:10 3.19995
11 *110:4 *110:3 2.49594
12 *910:Q *110:4 3.19995
*END

*D_NET *111 0.000843408

*CONN
*I *902:Q O *C 53.79 104.44 *L 0 *D DFFRHQX1
*I *901:A I *C 54.45 107.8 *L 0.00346 *D INVX1

*CAP
1 *902:Q 6.32986e-05
2 *901:A 4.17172e-05
3 *111:2 0.000292399785
4 *111:3 0.000153591
5 *111:4 0.000292399785

*RES
1 *111:3 *901:A 0.223828
2 *111:4 *111:3 3.2
3 *111:2 *111:4 0.936035
4 *902:Q *111:2 6.4000001
*END

*D_NET *112 0.00334065

*CONN
*I *905:Q O *C 66.99 114.52 *L 0 *D DFFRHQX1
*I *892:A I *C 81.51 124.04 *L 0.00346 *D INVX1

*CAP
1 *905:Q 6.3302e-05
2 *892:A 0.000201733
3 *112:2 0.000284549
4 *112:3 0.000284549
5 *112:4 7.32035e-05
6 *112:5 8.7998e-05
7 *112:6 7.96007e-05
8 *112:7 0.000134481
9 *112:8 0.00054165
10 *112:9 0.000313601
11 *112:10 0.000120604
12 *112:11 0.00054165
13 *112:11 *180:3 0.00012061
14 *112:8 *180:4 0.00012061
15 *112:7 *180:5 1.551e-05
16 *112:6 *180:6 1.551e-05
17 *112:5 *180:5 1.427e-05
18 *112:4 *180:6 1.427e-05
19 *112:3 *180:5 5.275e-05
20 *112:2 *180:6 5.27499998e-05
21 *112:7 *18:139 8.86e-06
22 *112:6 *18:140 8.86e-06
23 *112:5 *18:141 4.178e-05
24 *112:4 *18:142 4.178e-05
25 *112:3 *18:139 2.766e-05
26 *112:2 *18:140 2.766e-05
27 *112:3 *18:140 1.551e-05
28 *112:2 *18:143 1.551e-05
29 *112:3 *18:143 9.92e-06
30 *112:2 *18:144 9.91999814e-06

*RES
1 *112:9 *892:A 1.11914
2 *112:10 *112:9 3.2
3 *112:11 *112:10 3.2
4 *112:8 *112:11 3.12559
5 *112:7 *112:8 3.2
6 *112:6 *112:7 0.467969
7 *112:4 *905:Q 6.4000001
8 *112:3 *112:6 0.183887
9 *112:4 *112:5 0.467969
10 *112:2 *112:3 1.71602
11 *112:2 *112:5 0.183887
*END

*D_NET *113 0.00202229

*CONN
*I *904:Q O *C 39.93 77 *L 0 *D DFFRHQX1
*I *889:A I *C 48.51 83.72 *L 0.00346 *D INVX1

*CAP
1 *904:Q 8.55877e-05
2 *889:A 0.000171188
3 *113:2 0.000197459
4 *113:3 0.000142889
5 *113:4 0.000324769
6 *113:5 0.000212573
7 *113:6 0.00040133
8 *113:7 0.000283077
9 *113:5 *116:6 0.00010171
10 *113:3 *116:7 0.00010171

*RES
1 *113:7 *889:A 0.895312
2 *113:6 *113:7 0.569727
3 *113:4 *113:6 1.5668
4 *113:5 *113:4 3.20000005
5 *113:3 *113:5 0.77998
6 *113:2 *113:3 3.20000005
7 *904:Q *113:2 0.447656
*END

*D_NET *114 0.0111739

*CONN
*I *919:Q O *C 69.63 124.6 *L 0 *D DFFRHQX1
*I *878:B0 I *C 133.65 143.08 *L 0.00302 *D OAI21XL
*I *853:C I *C 132.33 149.24 *L 0.00444 *D NAND3BX1

*CAP
1 *919:Q 0.000139839
2 *878:B0 6.32946e-05
3 *853:C 7.9709e-05
4 *114:3 0.000789452
5 *114:4 0.000789452
6 *114:5 0.00276534
7 *114:6 0.00275661
8 *114:7 0.000339386
9 *114:8 0.000339386
10 *114:9 0.000647166
11 *114:10 0.000436311
12 *114:11 0.000638431
13 *114:12 0.000813842
14 *114:13 0.00011507
15 *114:14 0.000460658

*RES
1 *853:C *114:13 0.447613
2 *114:14 *114:13 6.4001
3 *114:12 *878:B0 6.4001
4 *114:12 *114:14 1.71592
5 *114:10 *114:12 1.87206
6 *114:11 *114:10 3.19995
7 *114:9 *114:11 2.9418
8 *114:8 *114:9 0.155937
9 *114:7 *114:8 1.65471
10 *114:7 *114:5 0.155937
11 *114:6 *114:5 13.2377138
12 *114:3 *114:6 3.19995
13 *114:4 *114:3 3.2761
14 *919:Q *114:4 3.19995
*END

*D_NET *115 0.00229644

*CONN
*I *912:Q O *C 41.25 54.04 *L 0 *D DFFRHQX1
*I *899:A I *C 44.55 67.48 *L 0.00346 *D INVX1

*CAP
1 *912:Q 8.32006e-05
2 *899:A 0.000119587
3 *115:2 0.000118538
4 *115:3 0.00070886
5 *115:4 0.000154925
6 *115:5 0.00070886
7 *115:5 *116:8 0.00020124
8 *115:3 *116:9 0.000201240007

*RES
1 *115:4 *899:A 0.671493
2 *115:5 *115:4 3.20002
3 *115:3 *115:5 3.74399996
4 *115:2 *115:3 3.20002
5 *912:Q *115:2 0.447662
*END

*D_NET *116 0.010014

*CONN
*I *903:Q O *C 41.25 46.76 *L 0 *D DFFRHQX1
*I *893:A I *C 63.03 107.8 *L 0.00346 *D INVX1

*CAP
1 *903:Q 0.000139827
2 *893:A 3.98588e-05
3 *116:2 0.000285917
4 *116:3 0.000285917
5 *116:4 0.000155582
6 *116:5 8.05919e-05
7 *116:6 0.000393539
8 *116:7 0.000413665
9 *116:8 0.00116927
10 *116:9 0.00116927
11 *116:10 0.000811325
12 *116:11 0.000811325
13 *116:12 0.000103251
14 *116:13 0.000103251
15 *116:14 0.00100047
16 *116:15 7.24203e-05
17 *116:16 0.00100047
18 *116:17 7.51858e-05
19 *116:16 *17:173 2.926e-05
20 *116:14 *17:174 2.926e-05
21 *116:16 *17:174 0.00019364
22 *116:14 *17:175 0.00019364
23 *116:16 *17:175 1.506e-05
24 *116:14 *17:177 1.50600143e-05
25 *116:8 *115:5 0.00020124
26 *116:9 *115:3 0.000201240007
27 *116:6 *113:5 0.00010171
28 *116:7 *113:3 0.00010171
29 *116:8 *20:108 9.405e-05
30 *116:9 *20:109 9.405e-05
31 *116:12 *20:109 5.896e-05
32 *116:13 *20:55 5.896e-05
33 *116:8 *20:110 4.834e-05
34 *116:9 *20:100 4.834e-05
35 *116:6 *20:110 5.17e-06
36 *116:7 *20:100 5.17e-06
37 *116:8 *20:100 5.868e-05
38 *116:9 *20:101 5.868e-05
39 *116:8 *20:101 3.283e-05
40 *116:9 *20:111 3.283e-05
41 *116:2 *20:47 1.034e-05
42 *116:3 *20:112 1.034e-05
43 *116:2 *20:112 2.645e-05
44 *116:3 *20:113 2.645e-05
45 *116:6 *20:112 4.287e-05
46 *116:7 *20:113 4.287e-05
47 *116:6 *20:113 3.283e-05
48 *116:7 *20:114 3.2829991e-05

*RES
1 *116:17 *893:A 0.223831
2 *116:10 *116:17 3.20002
3 *116:15 *903:Q 3.20002
4 *116:11 *116:10 3.43196
5 *116:13 *116:15 0.183841
6 *116:16 *116:11 3.20002
7 *116:13 *116:12 0.468
8 *116:14 *116:16 6.06732
9 *116:12 *116:9 0.183841
10 *116:4 *116:14 3.20002
11 *116:9 *116:8 7.48799992
12 *116:5 *116:4 0.468
13 *116:7 *116:8 0.183841
14 *116:2 *116:5 0.0919775
15 *116:7 *116:6 2.808
16 *116:3 *116:2 1.55996
17 *116:3 *116:6 0.0919775
*END

*D_NET *117 0.00175404

*CONN
*I *514:A I *C 53.79 144.2 *L 0.00446 *D BUFX3
*I *939:Q O *C 39.27 144.76 *L 0 *D DFFRHQX1

*CAP
1 *514:A 0.00087702
2 *939:Q 0.00087702

*RES
1 *939:Q *514:A 4.92417
*END

*D_NET *118 0.00175404

*CONN
*I *515:A I *C 53.79 138.04 *L 0.00446 *D BUFX3
*I *936:Q O *C 39.27 137.48 *L 0 *D DFFRHQX1

*CAP
1 *515:A 0.00087702
2 *936:Q 0.00087702

*RES
1 *936:Q *515:A 4.92417
*END

*D_NET *119 0.00266078

*CONN
*I *511:A I *C 53.79 127.96 *L 0.00446 *D BUFX3
*I *947:Q O *C 39.27 134.68 *L 0 *D DFFRHQX1

*CAP
1 *511:A 0.000438522
2 *947:Q 8.23986e-05
3 *119:2 0.000119701
4 *119:3 0.000278338
5 *119:4 0.0001609
6 *119:5 0.000278338
7 *119:6 0.00047385
8 *119:7 0.000334902
9 *119:8 0.000158933
10 *119:9 0.000334902

*RES
1 *119:6 *511:A 2.46211
2 *119:7 *119:6 3.20000005
3 *119:7 *119:9 1.248
4 *119:8 *119:9 3.20000005
5 *119:4 *119:8 0.671484
6 *119:4 *119:5 0.189893
7 *119:3 *119:5 1.34297
8 *119:2 *119:3 0.189893
9 *947:Q *119:2 0.447656
*END

*D_NET *120 0.00306802

*CONN
*I *517:A I *C 41.25 107.8 *L 0.00446 *D BUFX3
*I *951:Q O *C 39.27 127.4 *L 0 *D DFFRHQX1

*CAP
1 *517:A 7.97368e-05
2 *951:Q 0.000139835
3 *120:2 0.000168059
4 *120:3 0.00112305
5 *120:4 0.00112305
6 *120:5 0.000228911
7 *120:6 0.000205366

*RES
1 *120:5 *517:A 0.447619
2 *120:4 *951:Q 3.19997
3 *120:5 *120:6 0.759684
4 *120:3 *120:4 4.83599997
5 *120:2 *120:6 0.22381
6 *120:2 *120:3 3.19997
*END

*D_NET *121 0.000796462

*CONN
*I *520:A I *C 53.79 124.04 *L 0.00446 *D BUFX3
*I *945:Q O *C 53.79 117.32 *L 0 *D DFFRHQX1

*CAP
1 *520:A 0.000139839
2 *945:Q 0.000139839
3 *121:2 0.00029323
4 *121:3 0.00022355

*RES
1 *121:3 *520:A 3.20000005
2 *121:2 *121:3 1.09199
3 *945:Q *121:2 3.20000005
*END

*D_NET *122 0.00525647

*CONN
*I *507:A I *C 43.23 83.72 *L 0.00446 *D BUFX3
*I *952:Q O *C 38.61 117.32 *L 0 *D DFFRHQX1

*CAP
1 *507:A 6.33082e-05
2 *952:Q 6.33082e-05
3 *122:2 0.000755089
4 *122:3 0.000700197
5 *122:4 0.00024514
6 *122:5 0.00024514
7 *122:6 9.57457e-05
8 *122:7 9.57457e-05
9 *122:8 0.00084862
10 *122:9 0.00084862
11 *122:10 0.000120595
12 *122:11 0.000362834
13 *122:12 6.57167e-05
14 *122:13 0.000293155
15 *122:4 *128:5 6.587e-05
16 *122:5 *128:3 6.587e-05
17 *122:8 *128:5 0.00013226
18 *122:9 *128:3 0.00013226
19 *122:6 *128:5 1.034e-05
20 *122:7 *128:3 1.034e-05
21 *122:2 *128:5 1.816e-05
22 *122:3 *128:3 1.81599975e-05

*RES
1 *122:12 *507:A 6.4000001
2 *122:12 *122:7 0.183887
3 *122:7 *122:6 0.312012
4 *122:6 *122:5 0.183887
5 *122:5 *122:4 1.24805
6 *122:9 *122:4 0.183887
7 *122:9 *122:8 4.52402
8 *122:3 *122:8 0.183887
9 *122:3 *122:2 3.27598
10 *122:13 *122:2 3.2
11 *122:11 *122:13 1.28701
12 *122:10 *122:11 3.2
13 *952:Q *122:10 6.4000001
*END

*D_NET *123 0.00465814

*CONN
*I *512:A I *C 39.27 87.64 *L 0.00446 *D BUFX3
*I *938:Q O *C 38.61 114.52 *L 0 *D DFFRHQX1

*CAP
1 *512:A 0.000168281
2 *938:Q 8.66176e-05
3 *123:2 0.000569422
4 *123:3 0.0006391
5 *123:4 9.51604e-05
6 *123:5 0.000109964
7 *123:6 9.6906e-05
8 *123:7 0.000151791
9 *123:8 0.000481848
10 *123:9 0.000481848
11 *123:10 0.000203603
12 *123:11 0.000303181
13 *123:12 0.000233503
14 *123:13 0.000198483
15 *123:2 *20:48 4.203e-05
16 *123:3 *20:49 4.203e-05
17 *123:4 *20:48 8.357e-05
18 *123:5 *20:49 8.357e-05
19 *123:6 *20:112 2.659e-05
20 *123:7 *20:113 2.659e-05
21 *123:8 *20:47 1.034e-05
22 *123:9 *20:112 1.034e-05
23 *123:8 *20:112 1.649e-05
24 *123:9 *20:113 1.649e-05
25 *123:8 *20:48 3.429e-05
26 *123:9 *20:49 3.429e-05
27 *123:8 *20:49 7.633e-05
28 *123:9 *20:50 7.63300156e-05
29 *123:4 *127:5 2.068e-05
30 *123:5 *127:2 2.068e-05
31 *123:6 *127:5 1.551e-05
32 *123:7 *127:2 1.551e-05
33 *123:8 *127:5 9.339e-05
34 *123:9 *127:2 9.33899987e-05

*RES
1 *938:Q *123:13 0.447641
2 *123:2 *123:13 3.20002
3 *123:3 *123:2 2.49599
4 *123:12 *123:3 3.20002
5 *123:11 *123:12 0.919276
6 *123:10 *512:A 0.895281
7 *123:4 *123:11 3.20002
8 *123:7 *123:10 3.20002
9 *123:5 *123:4 0.623998
10 *123:7 *123:6 0.467986
11 *123:8 *123:5 0.183855
12 *123:9 *123:6 0.183855
13 *123:9 *123:8 3.27600002
*END

*D_NET *124 0.00282002

*CONN
*I *508:A I *C 59.73 107.8 *L 0.00446 *D BUFX3
*I *935:Q O *C 38.61 107.24 *L 0 *D DFFRHQX1

*CAP
1 *508:A 0.000139838
2 *935:Q 6.3294e-05
3 *124:2 0.000120588
4 *124:3 0.00118785
5 *124:4 0.000120588
6 *124:5 0.00118785

*RES
1 *124:4 *508:A 3.2
2 *124:5 *124:4 3.2
3 *124:3 *124:5 5.8834
4 *124:2 *124:3 3.2
5 *935:Q *124:2 6.4000001
*END

*D_NET *125 0.00350865

*CONN
*I *509:A I *C 57.09 107.8 *L 0.00446 *D BUFX3
*I *950:Q O *C 38.61 97.16 *L 0 *D DFFRHQX1

*CAP
1 *509:A 6.22087e-05
2 *950:Q 0.000139839
3 *125:2 0.000482325
4 *125:3 0.000412645
5 *125:4 0.000120597
6 *125:5 0.000939939
7 *125:6 0.00100962
8 *125:7 9.75342e-05
9 *125:2 *17:182 0.00012197
10 *125:3 *17:183 0.000121970001

*RES
1 *125:7 *509:A 0.447641
2 *125:2 *125:7 3.20001
3 *125:3 *125:2 2.18401
4 *125:6 *125:3 3.20001
5 *125:5 *125:6 4.78028584
6 *125:4 *125:5 3.20001
7 *950:Q *125:4 3.20001
*END

*D_NET *126 0.00197705

*CONN
*I *519:A I *C 37.95 103.88 *L 0.00446 *D BUFX3
*I *946:Q O *C 39.27 94.36 *L 0 *D DFFRHQX1

*CAP
1 *519:A 0.000139842
2 *946:Q 3.9861e-05
3 *126:2 0.00034701
4 *126:3 0.00033221
5 *126:4 7.51895e-05
6 *126:5 0.000158877
7 *126:6 0.000104
8 *126:6 *20:46 4.067e-05
9 *126:5 *20:47 4.067e-05
10 *126:3 *20:48 0.00018471
11 *126:2 *20:49 0.00018471
12 *126:3 *20:49 0.00016465
13 *126:2 *20:50 0.000164649988

*RES
1 *126:4 *946:Q 0.223828
2 *126:5 *126:4 3.20000005
3 *126:3 *519:A 3.20000005
4 *126:5 *126:6 0.468018
5 *126:2 *126:3 2.652
6 *126:2 *126:6 0.183838
*END

*D_NET *127 0.00347996

*CONN
*I *516:A I *C 35.31 103.88 *L 0.00446 *D BUFX3
*I *953:Q O *C 39.27 84.28 *L 0 *D DFFRHQX1

*CAP
1 *516:A 7.97379e-05
2 *953:Q 4.12024e-05
3 *127:2 0.00104659
4 *127:3 0.000347234
5 *127:4 0.000115063
6 *127:5 0.00104659
7 *127:6 7.65439e-05
8 *127:7 0.000120605
9 *127:8 0.000347234
10 *127:5 *123:4 2.068e-05
11 *127:2 *123:5 2.068e-05
12 *127:5 *123:6 1.551e-05
13 *127:2 *123:7 1.551e-05
14 *127:5 *123:8 9.339e-05
15 *127:2 *123:9 9.33899987e-05

*RES
1 *953:Q *127:6 0.223862
2 *127:7 *127:6 3.19997
3 *127:4 *516:A 0.447641
4 *127:8 *127:7 3.19997
5 *127:5 *127:4 3.19997
6 *127:3 *127:8 1.65468
7 *127:2 *127:5 5.46000004
8 *127:2 *127:3 3.19997
*END

*D_NET *128 0.00562652

*CONN
*I *506:A I *C 51.81 107.8 *L 0.00446 *D BUFX3
*I *948:Q O *C 39.93 74.2 *L 0 *D DFFRHQX1

*CAP
1 *506:A 0.000372573
2 *948:Q 0.000372386
3 *128:2 0.000407705
4 *128:3 0.00153082
5 *128:4 0.000407915
6 *128:5 0.00153082
7 *128:5 *130:4 0.00027552
8 *128:3 *130:5 0.000275520003
9 *128:5 *122:4 6.587e-05
10 *128:3 *122:5 6.587e-05
11 *128:5 *122:8 0.00013226
12 *128:3 *122:9 0.00013226
13 *128:5 *122:6 1.034e-05
14 *128:3 *122:7 1.034e-05
15 *128:5 *122:2 1.816e-05
16 *128:3 *122:3 1.81599975e-05

*RES
1 *128:4 *506:A 2.01437
2 *128:5 *128:4 3.19993
3 *128:3 *128:5 9.35999966
4 *128:2 *128:3 3.19993
5 *948:Q *128:2 2.01437
*END

*D_NET *129 0.00394675

*CONN
*I *513:A I *C 24.09 77.56 *L 0.00446 *D BUFX3
*I *940:Q O *C 39.93 64.12 *L 0 *D DFFRHQX1

*CAP
1 *513:A 0.000139839
2 *940:Q 0.000139839
3 *129:2 0.000740523
4 *129:3 0.00089087
5 *129:4 0.000740523
6 *129:5 0.00020214
7 *129:6 0.00020214
8 *129:7 0.00089087

*RES
1 *129:5 *940:Q 3.20002
2 *129:5 *129:6 0.468014
3 *129:7 *129:6 3.20002
4 *129:4 *513:A 3.20002
5 *129:3 *129:7 4.41257143
6 *129:2 *129:4 3.27603
7 *129:2 *129:3 3.20002
*END

*D_NET *130 0.00903138

*CONN
*I *505:A I *C 51.15 124.04 *L 0.00446 *D BUFX3
*I *949:Q O *C 40.59 56.84 *L 0 *D DFFRHQX1

*CAP
1 *505:A 0.000239196
2 *949:Q 0.000216518
3 *130:2 0.000433248
4 *130:3 0.000327078
5 *130:4 0.00154654
6 *130:5 0.00154654
7 *130:6 0.000253804
8 *130:7 0.00015653
9 *130:8 0.000565472
10 *130:9 0.000404411
11 *130:10 0.000852809
12 *130:11 0.000274524
13 *130:12 0.000907676
14 *130:4 *104:3 0.00029119
15 *130:5 *104:4 0.00029119
16 *130:12 *104:3 2.166e-05
17 *130:10 *104:4 2.166e-05
18 *130:9 *104:3 2.461e-05
19 *130:8 *104:4 2.461e-05
20 *130:9 *104:5 4.053e-05
21 *130:8 *104:6 4.05300092e-05
22 *130:4 *128:5 0.00027552
23 *130:5 *128:3 0.000275520003

*RES
1 *130:11 *505:A 1.34291
2 *130:12 *130:11 3.19998
3 *130:10 *130:12 4.212
4 *130:10 *130:4 0.183879
5 *130:5 *130:4 9.98400021
6 *130:9 *130:5 0.183879
7 *130:8 *130:9 2.34
8 *130:2 *130:8 0.919242
9 *130:3 *130:2 1.404
10 *130:7 *130:3 3.19998
11 *130:6 *130:7 0.189973
12 *949:Q *130:6 1.11912
*END

*D_NET *131 0.00497674

*CONN
*I *510:A I *C 25.41 53.48 *L 0.00446 *D BUFX3
*I *937:Q O *C 41.25 36.68 *L 0 *D DFFRHQX1

*CAP
1 *510:A 7.9732e-05
2 *937:Q 0.00013984
3 *131:2 0.000129237
4 *131:3 0.000184117
5 *131:4 0.000314737
6 *131:5 0.000314737
7 *131:6 0.000201106
8 *131:7 0.000303469
9 *131:8 0.000115055
10 *131:9 0.000358348
11 *131:10 0.000240353
12 *131:11 0.00087189
13 *131:12 0.000242482
14 *131:13 0.00087189
15 *131:14 0.000203261
16 *131:15 0.000203221
17 *131:16 0.000203261

*RES
1 *131:14 *937:Q 3.20001
2 *131:14 *131:16 0.467966
3 *131:15 *131:16 3.20001
4 *131:12 *131:15 0.671451
5 *131:12 *131:13 0.379851
6 *131:11 *131:13 4.47652197
7 *131:8 *510:A 0.44768
8 *131:10 *131:11 0.379851
9 *131:9 *131:8 3.20001
10 *131:6 *131:10 0.671451
11 *131:7 *131:9 1.40397
12 *131:3 *131:6 3.20001
13 *131:4 *131:7 0.183881
14 *131:3 *131:2 0.467966
15 *131:5 *131:4 1.55998
16 *131:5 *131:2 0.183881
*END

*D_NET *132 0.00526277

*CONN
*I *518:A I *C 25.41 47.32 *L 0.00446 *D BUFX3
*I *954:Q O *C 40.59 26.6 *L 0 *D DFFRHQX1

*CAP
1 *518:A 0.000139841
2 *954:Q 0.000139841
3 *132:2 0.000200062
4 *132:3 0.000578862
5 *132:4 0.000523985
6 *132:5 0.000166289
7 *132:6 0.000221167
8 *132:7 0.000327163
9 *132:8 0.000327163
10 *132:9 0.000239322
11 *132:10 0.00079216
12 *132:11 0.000185472
13 *132:12 0.00079216
14 *132:13 0.000203265
15 *132:14 0.00022275
16 *132:15 0.000203265

*RES
1 *132:13 *954:Q 3.19999
2 *132:6 *518:A 3.19999
3 *132:13 *132:15 0.468014
4 *132:5 *132:6 0.623978
5 *132:14 *132:15 3.19999
6 *132:5 *132:8 0.183874
7 *132:11 *132:14 0.447666
8 *132:7 *132:8 1.40398
9 *132:11 *132:12 0.379797
10 *132:4 *132:7 0.183874
11 *132:10 *132:12 4.02886963
12 *132:3 *132:4 2.49597
13 *132:9 *132:10 0.379797
14 *132:2 *132:3 3.19999
15 *132:2 *132:9 0.671499
*END

*D_NET *133 0.0010462

*CONN
*I *966:Y O *C 94.71 114.52 *L 0 *D INVXL
*I *861:A0N I *C 90.75 112.84 *L 0.00247 *D AOI2BB1XL

*CAP
1 *966:Y 0.000139841
2 *861:A0N 6.33011e-05
3 *133:2 0.00026609
4 *133:3 0.00033577
5 *133:4 0.000120597
6 *133:5 0.000120597

*RES
1 *133:5 *966:Y 3.2
2 *133:2 *133:5 3.2
3 *133:3 *133:2 1.10312
4 *133:4 *133:3 3.2
5 *861:A0N *133:4 6.4000001
*END

*D_NET *134 0.0018358

*CONN
*I *965:Y O *C 118.47 114.52 *L 0 *D INVXL
*I *859:A0N I *C 114.51 108.92 *L 0.00247 *D AOI2BB1XL

*CAP
1 *965:Y 0.000139839
2 *859:A0N 6.3302e-05
3 *134:2 0.000303969
4 *134:3 0.000303969
5 *134:4 0.000120601
6 *134:5 0.000337111484
7 *134:6 0.000276129
8 *134:7 0.000149788
9 *134:8 0.000141089

*RES
1 *134:2 *965:Y 3.2
2 *134:3 *134:2 0.936035
3 *134:8 *134:3 3.2
4 *134:7 *134:8 0.367676
5 *134:6 *134:7 0.155957
6 *134:5 *134:6 0.735449
7 *134:4 *134:5 3.2
8 *859:A0N *134:4 6.4000001
*END

*D_NET *135 7.972e-05

*CONN
*I *964:Y O *C 145.53 127.4 *L 0 *D INVXL
*I *867:A0N I *C 146.19 129.08 *L 0.00247 *D AOI2BB1XL

*CAP
1 *964:Y 3.986e-05
2 *867:A0N 3.986e-05

*RES
1 *964:Y *867:A0N 0.223826
*END

*D_NET *136 0.00151041

*CONN
*I *963:Y O *C 148.17 107.24 *L 0 *D INVXL
*I *860:A0N I *C 144.21 108.92 *L 0.00247 *D AOI2BB1XL

*CAP
1 *963:Y 0.000139841
2 *860:A0N 5.5668e-05
3 *136:2 0.000167543
4 *136:3 0.0001206
5 *136:4 0.00045308
6 *136:5 0.0001206
7 *136:6 0.00045308

*RES
1 *136:5 *963:Y 3.20000005
2 *136:6 *136:5 3.20000005
3 *136:4 *136:6 1.28701
4 *136:3 *136:4 3.20000005
5 *136:2 *860:A0N 0.223828
6 *136:2 *136:3 3.20000005
*END

*D_NET *137 0.000819518

*CONN
*I *960:Y O *C 138.27 66.92 *L 0 *D INVXL
*I *858:A0N I *C 138.27 72.52 *L 0.00247 *D AOI2BB1XL

*CAP
1 *960:Y 0.00013984
2 *858:A0N 6.32984e-05
3 *137:2 0.00034303
4 *137:3 0.000273351

*RES
1 *137:3 *858:A0N 6.4000001
2 *137:2 *137:3 1.09199
3 *960:Y *137:2 3.2
*END

*D_NET *138 0.00184824

*CONN
*I *959:Y O *C 89.43 33.88 *L 0 *D INVXL
*I *848:A0N I *C 82.83 32.2 *L 0.00247 *D AOI2BB1XL

*CAP
1 *959:Y 0.000139843
2 *848:A0N 0.000139843
3 *138:2 0.000120604
4 *138:3 0.00069852
5 *138:4 0.000120604
6 *138:5 0.000628844

*RES
1 *138:4 *959:Y 3.20000005
2 *138:5 *138:4 3.20000005
3 *138:3 *138:5 1.83857
4 *138:2 *138:3 3.20000005
5 *848:A0N *138:2 3.20000005
*END

*D_NET *139 0.00133593

*CONN
*I *958:Y O *C 74.91 87.08 *L 0 *D INVXL
*I *862:A0N I *C 70.29 88.76 *L 0.00247 *D AOI2BB1XL

*CAP
1 *958:Y 8.58165e-05
2 *862:A0N 6.32996e-05
3 *139:2 0.000120596
4 *139:3 0.00037396
5 *139:4 0.000197694
6 *139:5 0.000120596
7 *139:6 0.00037396

*RES
1 *139:4 *958:Y 0.447656
2 *139:5 *139:4 3.2
3 *139:6 *139:5 3.2
4 *139:3 *139:6 0.919238
5 *139:2 *139:3 3.2
6 *862:A0N *139:2 6.4000001
*END

*D_NET *140 0.00050218

*CONN
*I *957:Y O *C 74.91 56.84 *L 0 *D INVXL
*I *866:A0N I *C 70.95 58.52 *L 0.00247 *D AOI2BB1XL

*CAP
1 *957:Y 0.00025109
2 *866:A0N 0.00025109

*RES
1 *866:A0N *957:Y 1.34296
*END

*D_NET *141 0.0010601

*CONN
*I *956:Y O *C 150.15 94.36 *L 0 *D INVXL
*I *868:A0N I *C 146.19 92.68 *L 0.00247 *D AOI2BB1XL

*CAP
1 *956:Y 0.000139839
2 *868:A0N 6.32987e-05
3 *141:2 5.09203e-05
4 *141:3 0.00034272
5 *141:4 0.000120599
6 *141:5 0.00034272

*RES
1 *141:4 *956:Y 3.2
2 *141:5 *141:4 3.2
3 *141:3 *141:5 1.10312
4 *141:2 *141:3 6.4000001
5 *868:A0N *141:2 6.4000001
*END

*D_NET *142 0.00148187

*CONN
*I *930:Y O *C 134.97 99.4 *L 0 *D OAI21XL
*I *891:B0 I *C 127.71 98.84 *L 0.00302 *D OAI21XL

*CAP
1 *930:Y 6.32963e-05
2 *891:B0 6.32963e-05
3 *142:2 0.0004608
4 *142:3 0.00045154
5 *142:4 0.000120602
6 *142:5 0.000140339
7 *142:6 5.09211e-05
8 *142:7 0.000131079

*RES
1 *142:6 *930:Y 6.4000001
2 *142:7 *142:6 6.4000001
3 *142:5 *142:7 0.551562
4 *142:2 *142:5 0.155957
5 *142:3 *142:2 1.4709
6 *142:4 *142:3 3.2
7 *891:B0 *142:4 6.4000001
*END

*D_NET *143 0.00066121

*CONN
*I *929:Y O *C 88.11 51.8 *L 0 *D OAI21XL
*I *881:B0 I *C 90.75 52.92 *L 0.00343 *D OAI2BB1X1

*CAP
1 *929:Y 4.12106e-05
2 *881:B0 0.000139839
3 *143:2 7.65391e-05
4 *143:3 0.000105981
5 *143:4 0.000141509
6 *143:5 0.00015613002

*RES
1 *143:5 *881:B0 3.2
2 *143:4 *143:5 0.312012
3 *143:3 *143:4 0.367676
4 *143:2 *143:3 6.4000001
5 *929:Y *143:2 0.223828
*END

*D_NET *144 0.00142707

*CONN
*I *961:Y O *C 103.29 133.56 *L 0 *D INVX1
*I *928:B I *C 104.61 134.12 *L 0.00391 *D NAND2BX1
*I *857:A0N I *C 99.33 133 *L 0.00247 *D AOI2BB1XL

*CAP
1 *961:Y 0.000139841
2 *928:B 0.000139841
3 *857:A0N 0.000139841
4 *144:3 0.000195499961
5 *144:4 0.000134522
6 *144:5 0.00011012
7 *144:6 0.000101421
8 *144:7 0.000120599
9 *144:8 5.39799e-05
10 *144:9 0.00010904
11 *144:10 0.000182359

*RES
1 *144:10 *928:B 3.20000005
2 *144:9 *144:10 0.367725
3 *144:8 *144:9 0.156006
4 *144:8 *961:Y 3.20000005
5 *144:3 *144:8 3.20000005
6 *144:4 *144:3 0.735449
7 *144:5 *144:4 0.156006
8 *144:6 *144:5 0.367725
9 *144:7 *144:6 3.20000005
10 *857:A0N *144:7 3.20000005
*END

*D_NET *145 0.00106806

*CONN
*I *926:Y O *C 107.91 112.28 *L 0 *D OAI21XL
*I *875:B0 I *C 107.25 108.36 *L 0.00343 *D OAI2BB1X1

*CAP
1 *926:Y 6.33029e-05
2 *875:B0 0.000139836
3 *145:2 0.00032646
4 *145:3 0.00034108
5 *145:4 0.000122869
6 *145:5 7.45083e-05

*RES
1 *145:5 *926:Y 6.4000001
2 *145:4 *145:5 0.155957
3 *145:2 *145:4 0.367676
4 *145:3 *145:2 0.936035
5 *875:B0 *145:3 3.2
*END

*D_NET *146 0.00023918

*CONN
*I *925:Y O *C 84.81 79.24 *L 0 *D OAI21XL
*I *890:B0 I *C 87.45 78.68 *L 0.00302 *D OAI21XL

*CAP
1 *925:Y 0.00011959
2 *890:B0 0.00011959

*RES
1 *925:Y *890:B0 0.671478
*END

*D_NET *147 0.0009579

*CONN
*I *924:Y O *C 91.41 41.72 *L 0 *D OAI21XL
*I *884:B0 I *C 90.09 47.88 *L 0.00343 *D OAI2BB1X1

*CAP
1 *924:Y 0.000139839
2 *884:B0 0.000139839
3 *147:2 0.000142099
4 *147:3 0.00023185
5 *147:4 0.00019159
6 *147:5 0.000112679

*RES
1 *147:5 *924:Y 3.20000005
2 *147:3 *147:5 0.367725
3 *147:3 *147:4 0.935986
4 *147:2 *147:4 0.183838
5 *884:B0 *147:2 3.20000005
*END

*D_NET *148 0.00180218

*CONN
*I *923:Y O *C 111.87 112.28 *L 0 *D OAI21XL
*I *885:B0 I *C 104.61 113.4 *L 0.00343 *D OAI2BB1X1

*CAP
1 *923:Y 0.000139838
2 *885:B0 0.000139838
3 *148:2 0.00056907
4 *148:3 0.000499385
5 *148:4 0.000166722
6 *148:5 0.000166722
7 *148:6 0.000120596

*RES
1 *148:6 *923:Y 3.20000005
2 *148:2 *148:6 3.20000005
3 *148:5 *885:B0 3.20000005
4 *148:3 *148:2 2.02241
5 *148:4 *148:5 0.312012
6 *148:4 *148:3 3.20000005
*END

*D_NET *149 0.00417339

*CONN
*I *920:Y O *C 93.39 68.6 *L 0 *D AOI22X1
*I *894:A I *C 98.67 67.48 *L 0.00346 *D INVX1
*I *731:A1 I *C 101.31 83.16 *L 0.00456 *D OAI22X1

*CAP
1 *920:Y 0.000139842
2 *894:A 0.000139842
3 *731:A1 4.17201e-05
4 *149:3 0.000169766
5 *149:4 0.000232747
6 *149:5 0.000187073
7 *149:6 0.000117392
8 *149:7 0.000437740938
9 *149:8 0.000413428
10 *149:9 6.41232e-05
11 *149:10 6.41232e-05
12 *149:11 0.000107386
13 *149:12 5.80716e-05
14 *149:13 0.000127752
15 *149:14 0.00029345
16 *149:15 0.000238572
17 *149:16 0.000316368
18 *149:17 0.000316368
19 *149:18 0.000287853
20 *149:19 0.000342732
21 *149:20 7.7048e-05

*RES
1 *149:20 *731:A1 0.223828
2 *149:3 *149:20 6.4000001
3 *149:4 *149:3 0.467969
4 *149:9 *149:4 3.2
5 *149:10 *149:9 0.183887
6 *149:14 *149:10 3.2
7 *149:15 *149:14 0.936035
8 *149:15 *149:16 0.183887
9 *149:17 *149:16 1.24805
10 *149:18 *149:17 0.183887
11 *149:6 *894:A 3.2
12 *149:19 *149:18 1.09199
13 *149:6 *149:5 0.467969
14 *149:11 *149:19 3.2
15 *149:7 *149:5 3.2
16 *149:7 *149:11 0.367676
17 *149:8 *149:7 1.28701
18 *149:12 *149:8 3.2
19 *149:13 *149:12 0.155957
20 *920:Y *149:13 3.2
*END

*D_NET *150 0.00101042

*CONN
*I *894:Y O *C 99.33 68.04 *L 0 *D INVX1
*I *727:C0 I *C 98.01 62.44 *L 0.00387 *D OAI222XL

*CAP
1 *894:Y 0.00013984
2 *727:C0 0.00013984
3 *150:2 0.000242470449
4 *150:3 0.000187409
5 *150:4 0.00017796
6 *150:5 0.000122898

*RES
1 *150:5 *894:Y 3.20000005
2 *150:4 *150:5 0.468018
3 *150:2 *150:4 0.367725
4 *150:3 *150:2 0.77998
5 *727:C0 *150:3 3.20000005
*END

*D_NET *151 0.00476988

*CONN
*I *941:Y O *C 88.11 83.16 *L 0 *D NOR2X1
*I *890:A0 I *C 86.79 77.56 *L 0.00336 *D OAI21XL
*I *888:A0 I *C 92.07 73.64 *L 0.00336 *D OAI21XL
*I *800:C I *C 96.03 67.48 *L 0.00463 *D NAND4X1

*CAP
1 *941:Y 0.000139842
2 *890:A0 0.000139842
3 *888:A0 6.32985e-05
4 *800:C 0.000139842
5 *151:4 0.000105392
6 *151:5 0.000105392
7 *151:6 0.000338006
8 *151:7 0.000338006
9 *151:8 0.000222458
10 *151:9 0.000103724
11 *151:10 0.00049261
12 *151:11 0.00049261
13 *151:12 0.000469233
14 *151:13 0.000469233
15 *151:14 8.36464e-05
16 *151:15 9.84468e-05
17 *151:16 0.000202261
18 *151:17 0.000202261
19 *151:18 0.000142097
20 *151:19 0.000129581
21 *151:20 5.09184e-05
22 *151:21 0.000120599
23 *151:22 0.000120599

*RES
1 *151:21 *800:C 3.2
2 *151:22 *151:21 3.2
3 *151:11 *151:22 3.2
4 *151:20 *888:A0 6.4000001
5 *151:11 *151:10 1.71602
6 *151:5 *151:20 6.4000001
7 *151:16 *151:10 3.2
8 *151:5 *151:4 0.183887
9 *151:17 *151:16 0.919238
10 *151:13 *151:4 3.2
11 *151:13 *151:17 3.2
12 *151:13 *151:12 1.55996
13 *151:14 *941:Y 3.2
14 *151:6 *151:12 3.2
15 *151:15 *151:14 0.467969
16 *151:7 *151:6 1.4709
17 *151:19 *151:15 0.183887
18 *151:8 *151:7 3.2
19 *151:8 *151:19 0.467969
20 *151:9 *151:8 0.467969
21 *151:18 *151:9 0.183887
22 *890:A0 *151:18 3.2
*END

*D_NET *152 0.00126094

*CONN
*I *888:Y O *C 92.73 71.96 *L 0 *D OAI21XL
*I *806:A0 I *C 89.43 74.2 *L 0.00465 *D AOI21X1

*CAP
1 *888:Y 0.000139842
2 *806:A0 0.000139842
3 *152:2 0.00037003
4 *152:3 0.00037003
5 *152:4 0.000120599
6 *152:5 0.000120599

*RES
1 *152:5 *888:Y 3.20000005
2 *152:2 *152:5 3.20000005
3 *152:3 *152:2 1.10312
4 *152:4 *152:3 3.20000005
5 *806:A0 *152:4 3.20000005
*END

*D_NET *153 0.00726906

*CONN
*I *942:Y O *C 132.33 118.44 *L 0 *D NOR2X1
*I *891:A0 I *C 127.05 97.72 *L 0.00336 *D OAI21XL
*I *887:A0 I *C 132.33 87.64 *L 0.00336 *D OAI21XL
*I *799:C I *C 129.03 87.64 *L 0.00463 *D NAND4X1

*CAP
1 *942:Y 0.000170549
2 *891:A0 0.000139843
3 *887:A0 0.000139843
4 *799:C 0.000139843
5 *153:4 8.99616e-05
6 *153:5 0.000159637
7 *153:6 0.000265763
8 *153:7 0.000196088
9 *153:8 0.000249834
10 *153:9 0.000224124
11 *153:10 0.000199098
12 *153:11 0.000147658
13 *153:12 0.000108817
14 *153:13 0.000266191
15 *153:14 0.000196536
16 *153:15 0.00033593
17 *153:16 0.00033593
18 *153:17 0.000153808
19 *153:18 0.000208686
20 *153:19 0.00026602
21 *153:20 0.000120604
22 *153:21 0.000120604
23 *153:22 0.00139939
24 *153:23 0.00123128
25 *153:24 0.000282419
26 *153:25 0.000120604

*RES
1 *153:24 *942:Y 0.895315
2 *153:25 *153:24 3.19999
3 *153:13 *153:25 3.19999
4 *153:20 *891:A0 3.19999
5 *153:14 *153:13 0.735392
6 *153:21 *153:20 3.19999
7 *153:23 *153:14 3.19999
8 *153:6 *887:A0 3.19999
9 *153:22 *153:21 3.19999
10 *153:22 *153:23 5.92799997
11 *153:7 *153:6 0.624043
12 *153:19 *153:22 1.09196
13 *153:8 *153:7 3.19999
14 *153:19 *153:15 0.183893
15 *153:4 *799:C 3.19999
16 *153:9 *153:8 0.735392
17 *153:16 *153:15 1.55997
18 *153:5 *153:4 0.311976
19 *153:9 *153:12 0.311976
20 *153:17 *153:16 0.183893
21 *153:10 *153:5 3.19999
22 *153:10 *153:12 0.183893
23 *153:18 *153:17 0.46801
24 *153:11 *153:10 0.551589
25 *153:11 *153:18 3.19999
*END

*D_NET *154 0.000787257

*CONN
*I *887:Y O *C 132.99 89.32 *L 0 *D OAI21XL
*I *847:A I *C 132.99 83.72 *L 0.0031 *D NAND2XL

*CAP
1 *887:Y 0.000139839
2 *847:A 0.000139839
3 *154:2 0.00021005
4 *154:3 0.00022498
5 *154:4 7.25491e-05

*RES
1 *154:4 *887:Y 3.20000005
2 *154:3 *154:4 0.183838
3 *154:2 *154:3 0.77998
4 *847:A *154:2 3.20000005
*END

*D_NET *155 0.00735154

*CONN
*I *943:Y O *C 135.63 68.04 *L 0 *D NOR2X1
*I *888:B0 I *C 92.73 72.52 *L 0.00302 *D OAI21XL
*I *886:B0 I *C 91.41 77.56 *L 0.00464 *D OAI2BB2X1
*I *800:D I *C 95.37 67.48 *L 0.00447 *D NAND4X1

*CAP
1 *943:Y 0.000139852
2 *888:B0 0.000139852
3 *886:B0 0.000139852
4 *800:D 0.000139852
5 *155:4 0.000257359
6 *155:5 0.000263314
7 *155:6 0.000125646
8 *155:7 0.000166993
9 *155:8 0.000166993
10 *155:9 0.000226429
11 *155:10 0.000166844
12 *155:11 5.72325e-05
13 *155:12 0.000211607
14 *155:13 0.000141924
15 *155:14 0.000188479
16 *155:15 0.000188479
17 *155:16 0.00122333
18 *155:17 0.00122333
19 *155:18 0.000142092
20 *155:19 0.000135745
21 *155:20 0.000120588
22 *155:21 7.47606e-05
23 *155:22 0.000268858
24 *155:23 0.000260159
25 *155:24 0.000120588
26 *155:25 0.000120588
27 *155:21 *195:9 2.78e-05
28 *155:19 *195:10 2.78e-05
29 *155:16 *195:9 0.0004426
30 *155:17 *195:10 0.000442600005

*RES
1 *155:24 *943:Y 3.20007
2 *155:25 *155:24 3.20007
3 *155:14 *155:25 3.20007
4 *155:15 *155:14 0.468006
5 *155:23 *155:15 3.20007
6 *155:22 *155:23 1.47083
7 *155:16 *155:22 0.155954
8 *155:17 *155:16 9.37671471
9 *155:17 *155:21 0.155954
10 *155:19 *155:21 0.367709
11 *155:13 *155:19 3.20007
12 *155:13 *155:12 0.468006
13 *155:11 *800:D 3.20007
14 *155:20 *155:12 3.20007
15 *155:11 *155:10 0.155954
16 *155:10 *155:20 3.20007
17 *155:10 *155:9 0.468006
18 *155:5 *155:9 0.735417
19 *155:4 *888:B0 3.20007
20 *155:5 *155:4 0.62396
21 *155:4 *155:6 0.62396
22 *155:8 *155:6 0.183854
23 *155:8 *155:7 0.780057
24 *155:18 *155:7 0.183854
25 *886:B0 *155:18 3.20007
*END

*D_NET *156 0.00335148

*CONN
*I *932:Y O *C 68.31 77 *L 0 *D NAND2BX1
*I *886:A1N I *C 89.43 78.12 *L 0.00219 *D OAI2BB2X1
*I *872:A0 I *C 80.85 77 *L 0.00483 *D AOI211X1

*CAP
1 *932:Y 0.000139838
2 *886:A1N 6.33054e-05
3 *872:A0 0.000139838
4 *156:3 0.00107815
5 *156:4 0.000586085
6 *156:5 0.000575145
7 *156:6 0.00012059
8 *156:7 0.00012059
9 *156:8 0.000104928
10 *156:9 0.000104928
11 *156:5 *60:9 2.003e-05
12 *156:3 *60:10 2.003e-05
13 *156:5 *60:10 7.53e-06
14 *156:3 *60:11 7.53e-06
15 *156:5 *60:12 1.263e-05
16 *156:3 *60:13 1.263e-05
17 *156:3 *60:12 8.214e-05
18 *156:4 *60:13 8.214e-05
19 *156:3 *60:13 3.67e-05
20 *156:4 *60:14 3.66999951e-05

*RES
1 *156:9 *886:A1N 6.4000001
2 *156:8 *156:9 0.312012
3 *156:7 *872:A0 3.2
4 *156:5 *156:8 3.2
5 *156:3 *156:7 3.2
6 *156:3 *156:5 2.39014
7 *156:4 *156:3 3.30947
8 *156:6 *156:4 3.2
9 *932:Y *156:6 3.2
*END

*D_NET *157 0.00348882

*CONN
*I *934:Y O *C 89.43 114.52 *L 0 *D NAND2BX1
*I *885:A1N I *C 103.29 112.84 *L 0.00148 *D OAI2BB1X1
*I *876:A0 I *C 105.93 117.32 *L 0.00483 *D AOI211X1

*CAP
1 *934:Y 0.00013984
2 *885:A1N 0.00013984
3 *876:A0 0.00013984
4 *157:3 0.000258999
5 *157:4 0.000244197
6 *157:5 0.000241421
7 *157:6 0.00024877
8 *157:7 0.0007644
9 *157:8 0.000755699
10 *157:9 0.000120594
11 *157:10 0.000107694
12 *157:11 0.000120594
13 *157:12 6.48285e-05
14 *157:13 0.000142102

*RES
1 *157:13 *876:A0 3.20001
2 *157:11 *885:A1N 3.20001
3 *157:3 *157:13 0.183843
4 *157:12 *157:11 3.20001
5 *157:4 *157:3 0.936006
6 *157:10 *157:12 0.183843
7 *157:5 *157:4 3.20001
8 *157:10 *157:6 0.311984
9 *157:6 *157:5 0.735426
10 *157:6 *157:7 0.156019
11 *157:8 *157:7 3.49328566
12 *157:9 *157:8 3.20001
13 *934:Y *157:9 3.20001
*END

*D_NET *158 0.00443202

*CONN
*I *927:Y O *C 63.03 43.96 *L 0 *D NAND2BX1
*I *884:A1N I *C 88.77 48.44 *L 0.00148 *D OAI2BB1X1
*I *873:A0 I *C 86.13 46.76 *L 0.00483 *D AOI211X1

*CAP
1 *927:Y 6.32967e-05
2 *884:A1N 6.32967e-05
3 *873:A0 0.000139842
4 *158:3 0.000297382
5 *158:4 0.000288681
6 *158:5 0.000144815
7 *158:6 0.000110654
8 *158:7 0.000356498
9 *158:8 0.000322337
10 *158:9 0.000163132
11 *158:10 0.000226116
12 *158:11 0.00057082
13 *158:12 0.000107022
14 *158:13 0.00057082
15 *158:14 0.000107022
16 *158:15 0.000186441
17 *158:16 0.000120601
18 *158:17 0.000211996
19 *158:18 9.05159e-05
20 *158:19 0.000120601
21 *158:20 0.000170162

*RES
1 *158:19 *884:A1N 6.4000001
2 *158:20 *158:19 3.2
3 *158:5 *158:20 0.312012
4 *158:6 *158:5 0.367676
5 *158:16 *873:A0 3.2
6 *158:18 *158:6 0.155957
7 *158:17 *158:16 3.2
8 *158:17 *158:18 0.367676
9 *158:15 *158:17 0.551562
10 *158:7 *158:15 0.312012
11 *158:8 *158:7 1.65469
12 *158:8 *158:14 0.155957
13 *158:12 *158:14 0.367676
14 *158:12 *158:13 0.155957
15 *158:11 *158:13 2.57402
16 *158:3 *158:11 0.155957
17 *158:4 *158:3 1.28701
18 *158:10 *158:4 3.2
19 *158:9 *158:10 0.624023
20 *927:Y *158:9 6.4000001
*END

*D_NET *159 0.00270921

*CONN
*I *955:Y O *C 136.95 88.2 *L 0 *D NOR2X1
*I *887:B0 I *C 132.99 88.76 *L 0.00302 *D OAI21XL
*I *883:B0 I *C 131.67 93.8 *L 0.00464 *D OAI2BB2X1
*I *799:D I *C 128.37 87.64 *L 0.00447 *D NAND4X1

*CAP
1 *955:Y 0.000139838
2 *887:B0 6.33027e-05
3 *883:B0 0.000139838
4 *799:D 0.000139838
5 *159:4 0.000127754
6 *159:5 5.8076e-05
7 *159:6 0.000171739
8 *159:7 0.000171739
9 *159:8 0.000137616
10 *159:9 0.000192372
11 *159:10 0.00054543
12 *159:11 0.000327033
13 *159:12 0.000142235
14 *159:13 0.000120596
15 *159:14 0.000231796

*RES
1 *159:12 *883:B0 3.2
2 *159:12 *159:6 0.183887
3 *159:7 *159:6 0.77998
4 *159:7 *159:8 0.183887
5 *159:13 *955:Y 3.2
6 *159:9 *887:B0 6.4000001
7 *159:9 *159:8 0.624023
8 *159:14 *159:13 3.2
9 *159:10 *159:9 3.2
10 *159:10 *159:14 1.10312
11 *159:11 *159:10 1.28701
12 *159:4 *159:11 3.2
13 *159:5 *159:4 0.155957
14 *799:D *159:5 3.2
*END

*D_NET *160 0.00692861

*CONN
*I *933:Y O *C 130.35 144.76 *L 0 *D NAND2BX1
*I *883:A1N I *C 129.69 93.24 *L 0.00219 *D OAI2BB2X1
*I *882:A0 I *C 131.01 97.16 *L 0.00483 *D AOI211X1

*CAP
1 *933:Y 3.98591e-05
2 *883:A1N 6.32925e-05
3 *882:A0 0.000139831
4 *160:3 0.00033305
5 *160:4 0.000277738
6 *160:5 6.68774e-05
7 *160:6 6.68774e-05
8 *160:7 9.75211e-05
9 *160:8 9.75211e-05
10 *160:9 0.000100154
11 *160:10 0.000100154
12 *160:11 0.000259752
13 *160:12 0.00031462
14 *160:13 0.000546888
15 *160:14 0.000546888
16 *160:15 0.00021327
17 *160:16 0.000268158
18 *160:17 0.000112934
19 *160:18 0.00132732
20 *160:19 0.00132732
21 *160:20 7.51814e-05
22 *160:21 0.00012059
23 *160:19 *17:268 4.478e-05
24 *160:18 *17:261 4.478e-05
25 *160:19 *17:261 0.00017163
26 *160:18 *17:262 0.000171629995

*RES
1 *933:Y *160:20 0.223829
2 *160:21 *160:20 3.19997
3 *160:7 *160:21 3.19997
4 *160:8 *160:7 0.36776
5 *160:16 *160:8 3.19997
6 *160:15 *160:16 0.936021
7 *160:15 *160:19 0.183822
8 *160:18 *160:19 7.64400005
9 *160:9 *160:18 0.183822
10 *160:10 *160:9 0.312007
11 *160:13 *160:10 0.183822
12 *160:14 *160:13 2.80795
13 *160:14 *160:11 0.183822
14 *160:12 *160:11 1.09197
15 *160:6 *160:12 3.19997
16 *160:6 *160:5 0.183822
17 *160:17 *882:A0 3.19997
18 *160:17 *160:5 3.19997
19 *160:3 *160:17 0.36776
20 *160:4 *160:3 1.09197
21 *883:A1N *160:4 6.40005
*END

*D_NET *161 0.00567091

*CONN
*I *931:Y O *C 61.05 54.04 *L 0 *D NAND2BX1
*I *881:A1N I *C 89.43 52.36 *L 0.00148 *D OAI2BB1X1
*I *874:A0 I *C 93.39 43.96 *L 0.00483 *D AOI211X1

*CAP
1 *931:Y 0.000139838
2 *881:A1N 6.32958e-05
3 *874:A0 0.000139838
4 *161:3 0.000345656
5 *161:4 0.000275973
6 *161:5 7.10666e-05
7 *161:6 7.10666e-05
8 *161:7 0.000610617
9 *161:8 0.000610617
10 *161:9 0.000544382
11 *161:10 0.000544382
12 *161:11 0.000164717
13 *161:12 0.000173411
14 *161:13 0.000141198
15 *161:14 0.000787014
16 *161:15 0.000141198
17 *161:16 0.00079572
18 *161:17 5.09232e-05

*RES
1 *161:6 *874:A0 3.2
2 *161:6 *161:5 0.155957
3 *161:3 *161:5 3.2
4 *161:4 *161:3 1.10312
5 *161:10 *161:4 3.2
6 *161:17 *881:A1N 6.4000001
7 *161:10 *161:9 2.18398
8 *161:11 *161:17 6.4000001
9 *161:11 *161:9 3.2
10 *161:12 *161:11 0.919238
11 *161:7 *161:12 0.155957
12 *161:8 *161:7 2.9417
13 *161:8 *161:16 0.155957
14 *161:14 *161:16 3.86104
15 *161:15 *931:Y 3.2
16 *161:13 *161:14 3.2
17 *161:13 *161:15 0.312012
*END

*D_NET *162 0.00128767

*CONN
*I *967:Y O *C 80.85 98.28 *L 0 *D INVX1
*I *880:A0 I *C 86.13 97.72 *L 0.00336 *D OAI21XL
*I *852:B I *C 82.83 97.72 *L 0.00444 *D NAND3BX1

*CAP
1 *967:Y 0.000139842
2 *880:A0 0.000139842
3 *852:B 6.33016e-05
4 *162:3 0.00018236
5 *162:4 0.000110182
6 *162:5 6.99209e-05
7 *162:6 0.000279082
8 *162:7 0.00030314

*RES
1 *162:7 *880:A0 3.2
2 *162:6 *852:B 6.4000001
3 *162:6 *162:7 0.919238
4 *162:5 *162:6 0.183887
5 *162:4 *162:5 0.155957
6 *162:3 *162:4 0.367676
7 *967:Y *162:3 3.2
*END

*D_NET *163 7.972e-05

*CONN
*I *880:Y O *C 86.79 99.4 *L 0 *D OAI21XL
*I *865:A I *C 88.11 97.72 *L 0.0026 *D INVXL

*CAP
1 *880:Y 3.986e-05
2 *865:A 3.986e-05

*RES
1 *880:Y *865:A 0.223826
*END

*D_NET *164 0.00431646

*CONN
*I *971:Y O *C 46.53 52.92 *L 0 *D INVX1
*I *931:B I *C 60.39 53.48 *L 0.00391 *D NAND2BX1
*I *879:A0 I *C 49.83 63.56 *L 0.00336 *D OAI21XL
*I *855:B I *C 46.53 63.56 *L 0.00444 *D NAND3BX1

*CAP
1 *971:Y 0.000139836
2 *931:B 0.000139836
3 *879:A0 0.000139836
4 *855:B 6.33031e-05
5 *164:4 0.000499031
6 *164:5 0.000528376
7 *164:6 0.000220496
8 *164:7 0.000150802
9 *164:8 0.00062601
10 *164:9 0.00062601
11 *164:10 8.0268e-05
12 *164:11 0.000287582
13 *164:12 0.000217907
14 *164:13 0.000120598
15 *164:8 *423:12 7.505e-05
16 *164:9 *423:13 7.505e-05
17 *164:8 *423:13 7.58e-05
18 *164:9 *423:10 7.58e-05
19 *164:8 *423:10 5.901e-05
20 *164:9 *423:11 5.901e-05
21 *164:8 *423:18 7.53e-06
22 *164:9 *423:16 7.53e-06
23 *164:5 *423:6 2.089e-05
24 *164:10 *423:7 2.0890004e-05

*RES
1 *164:7 *931:B 3.2
2 *164:13 *879:A0 3.2
3 *164:7 *164:6 0.624023
4 *164:11 *164:13 3.2
5 *164:8 *164:6 3.2
6 *164:12 *164:11 0.919238
7 *164:9 *164:8 3.86104
8 *164:4 *855:B 6.4000001
9 *164:4 *164:12 3.2
10 *164:5 *164:9 3.2
11 *164:5 *164:4 2.18398
12 *164:10 *164:5 0.467969
13 *971:Y *164:10 3.2
*END

*D_NET *165 7.972e-05

*CONN
*I *879:Y O *C 50.49 61.88 *L 0 *D OAI21XL
*I *846:A I *C 51.81 63.56 *L 0.0026 *D INVXL

*CAP
1 *879:Y 3.986e-05
2 *846:A 3.986e-05

*RES
1 *879:Y *846:A 0.223826
*END

*D_NET *166 0.00242458

*CONN
*I *969:Y O *C 128.37 143.64 *L 0 *D INVX1
*I *933:B I *C 129.69 144.2 *L 0.00391 *D NAND2BX1
*I *878:A0 I *C 132.99 144.2 *L 0.00336 *D OAI21XL
*I *853:B I *C 132.99 148.12 *L 0.00444 *D NAND3BX1

*CAP
1 *969:Y 0.000139843
2 *933:B 0.000139843
3 *878:A0 0.000139843
4 *853:B 6.33033e-05
5 *166:4 0.000156719
6 *166:5 0.000158267
7 *166:6 0.000139693
8 *166:7 0.000259238
9 *166:8 0.00039484
10 *166:9 0.000186518
11 *166:10 0.000182361
12 *166:11 0.00023206
13 *166:12 0.00023206

*RES
1 *166:9 *878:A0 3.2
2 *166:7 *853:B 6.4000001
3 *166:9 *166:8 0.312012
4 *166:8 *166:7 0.77998
5 *166:12 *166:8 3.2
6 *166:11 *166:12 0.919238
7 *166:4 *166:11 3.2
8 *166:5 *933:B 3.2
9 *166:5 *166:4 0.312012
10 *166:6 *166:5 0.312012
11 *166:10 *166:6 0.367676
12 *969:Y *166:10 3.2
*END

*D_NET *167 7.972e-05

*CONN
*I *878:Y O *C 133.65 142.52 *L 0 *D OAI21XL
*I *864:A I *C 134.97 144.2 *L 0.0026 *D INVXL

*CAP
1 *878:Y 3.986e-05
2 *864:A 3.986e-05

*RES
1 *878:Y *864:A 0.223826
*END

*D_NET *168 0.00435287

*CONN
*I *928:Y O *C 105.27 134.68 *L 0 *D NAND2BX1
*I *877:A0 I *C 109.89 117.32 *L 0.00483 *D AOI211X1
*I *875:A1N I *C 105.93 108.92 *L 0.00148 *D OAI2BB1X1

*CAP
1 *928:Y 3.9858e-05
2 *877:A0 6.32969e-05
3 *875:A1N 6.32969e-05
4 *168:3 0.000287037
5 *168:4 0.000287037
6 *168:5 0.000513225
7 *168:6 0.000472959
8 *168:7 0.000160333
9 *168:8 0.000145529
10 *168:9 9.13165e-05
11 *168:10 0.00013058
12 *168:11 0.00055695
13 *168:12 0.000487271
14 *168:13 0.000292935
15 *168:14 0.000223247
16 *168:15 0.000120602
17 *168:16 0.000120602
18 *168:17 0.000114449
19 *168:18 0.000182361

*RES
1 *928:Y *168:17 0.223828
2 *168:10 *168:17 0.379785
3 *168:10 *168:9 0.223828
4 *168:18 *168:9 3.2
5 *168:18 *168:5 0.367676
6 *168:6 *168:5 2.02803
7 *168:6 *168:3 0.183887
8 *168:4 *168:3 1.404
9 *168:4 *168:7 0.183887
10 *168:8 *877:A0 6.4000001
11 *168:8 *168:7 0.624023
12 *168:13 *168:8 3.2
13 *168:14 *168:13 1.10312
14 *168:11 *168:14 3.2
15 *168:12 *168:11 2.34004
16 *168:16 *168:12 3.2
17 *168:15 *168:16 3.2
18 *875:A1N *168:15 6.4000001
*END

*D_NET *169 0.0111368

*CONN
*I *926:B0 I *C 107.91 112.84 *L 0.00302 *D OAI21XL
*I *923:B0 I *C 111.87 112.84 *L 0.00302 *D OAI21XL
*I *916:A0 I *C 112.53 93.24 *L 0.00333 *D OAI22XL
*I *877:A1 I *C 109.23 118.44 *L 0.00472 *D AOI211X1
*I *876:A1 I *C 105.27 118.44 *L 0.00472 *D AOI211X1
*I *728:B0 I *C 103.29 87.64 *L 0.00319 *D AOI21XL
*I *710:Q O *C 123.75 104.44 *L 0 *D DFFRX1

*CAP
1 *926:B0 0.000139835
2 *923:B0 0.000175493
3 *916:A0 0.000139835
4 *877:A1 0.000139835
5 *876:A1 0.000139835
6 *728:B0 6.33054e-05
7 *710:Q 0.000139835
8 *169:7 0.000308027
9 *169:8 0.000176574
10 *169:9 0.000508634
11 *169:10 0.000570385
12 *169:11 0.000242426
13 *169:12 0.000312114
14 *169:13 0.000580884
15 *169:14 0.000462995
16 *169:15 0.000202
17 *169:16 0.000132327
18 *169:17 0.000463928
19 *169:18 0.000533601
20 *169:19 0.000260581
21 *169:20 0.000180557
22 *169:21 0.00045297
23 *169:22 0.00045297
24 *169:23 0.000500549
25 *169:24 0.00097046
26 *169:25 0.000590509
27 *169:26 0.000120599
28 *169:27 0.000287354
29 *169:28 0.000120599
30 *169:29 0.000163098
31 *169:30 0.000175271
32 *169:31 0.000138694
33 *169:32 9.47285e-05
34 *169:33 0.000120599
35 *169:23 *371:7 0.000132
36 *169:24 *371:8 0.000132
37 *169:24 *371:7 0.00016857
38 *169:25 *371:8 0.000168570001
39 *169:13 *294:12 8.081e-05
40 *169:14 *294:10 8.081e-05
41 *169:13 *294:14 6.232e-05
42 *169:14 *294:11 6.232e-05
43 *169:13 *294:9 3.131e-05
44 *169:14 *294:8 3.131e-05
45 *169:15 *294:3 6.267e-05
46 *169:16 *294:4 6.26699949e-05

*RES
1 *169:26 *876:A1 3.2
2 *169:28 *877:A1 3.2
3 *169:20 *169:26 3.2
4 *169:29 *169:28 3.2
5 *169:20 *169:19 0.735449
6 *169:19 *169:29 0.367676
7 *169:9 *169:19 3.2
8 *169:27 *923:B0 0.895312
9 *169:10 *926:B0 3.2
10 *169:10 *169:9 1.55996
11 *169:7 *169:27 3.2
12 *169:10 *169:7 0.367676
13 *169:8 *169:7 0.467969
14 *169:18 *169:8 3.2
15 *169:33 *710:Q 3.2
16 *169:18 *169:17 1.83857
17 *169:21 *169:33 3.2
18 *169:23 *169:17 3.2
19 *169:22 *169:21 2.20625
20 *169:24 *169:23 2.496
21 *169:24 *169:22 3.2
22 *169:25 *169:24 3.12002
23 *169:32 *169:25 3.2
24 *169:11 *916:A0 3.2
25 *169:31 *169:32 0.367676
26 *169:12 *169:11 0.936035
27 *169:30 *169:31 0.312012
28 *169:13 *169:12 3.2
29 *169:13 *169:30 0.551562
30 *169:14 *169:13 2.57402
31 *169:15 *169:14 3.2
32 *169:16 *169:15 0.624023
33 *728:B0 *169:16 6.4000001
*END

*D_NET *170 0.00953367

*CONN
*I *929:B0 I *C 88.11 52.36 *L 0.00302 *D OAI21XL
*I *924:B0 I *C 91.41 42.28 *L 0.00302 *D OAI21XL
*I *917:A0 I *C 103.29 52.92 *L 0.00456 *D OAI22X1
*I *874:A1 I *C 92.73 42.84 *L 0.00472 *D AOI211X1
*I *873:A1 I *C 85.47 47.88 *L 0.00472 *D AOI211X1
*I *786:B0 I *C 103.95 58.52 *L 0.00302 *D OAI21XL
*I *711:Q O *C 113.85 43.96 *L 0 *D DFFRX1

*CAP
1 *929:B0 0.000139834
2 *924:B0 6.33006e-05
3 *917:A0 0.000139834
4 *874:A1 0.000139834
5 *873:A1 0.000139834
6 *786:B0 0.000139834
7 *711:Q 0.000139834
8 *170:7 0.000200251
9 *170:8 0.000200251
10 *170:9 0.000129464
11 *170:10 0.000174443
12 *170:11 0.000113439
13 *170:12 0.000261741
14 *170:13 0.00024694
15 *170:14 0.000302228
16 *170:15 0.000422951
17 *170:16 0.000134118
18 *170:17 0.000209275
19 *170:18 0.000209275
20 *170:19 0.000205492
21 *170:20 0.00027985
22 *170:21 0.000663002031
23 *170:22 0.000593318
24 *170:23 0.000179785
25 *170:24 0.000194576
26 *170:25 0.000196306
27 *170:26 0.000141544
28 *170:27 0.000140208
29 *170:28 0.000363111
30 *170:29 0.0005649
31 *170:30 0.000252707
32 *170:31 0.000105983
33 *170:32 0.000120602
34 *170:33 0.000485503
35 *170:34 0.000120602
36 *170:35 0.000485503
37 *170:21 *96:18 6.142e-05
38 *170:22 *96:19 6.142e-05
39 *170:21 *96:33 6.121e-05
40 *170:22 *96:29 6.121e-05
41 *170:12 *96:32 5.229e-05
42 *170:13 *96:31 5.229e-05
43 *170:23 *96:32 0.00022268
44 *170:24 *96:31 0.00022268
45 *170:25 *96:15 6.99e-06
46 *170:26 *96:11 6.99e-06
47 *170:17 *96:9 6.24e-05
48 *170:18 *96:10 6.23999959e-05

*RES
1 *170:13 *711:Q 3.2
2 *170:25 *786:B0 3.2
3 *170:13 *170:12 1.09199
4 *170:26 *170:25 0.624023
5 *170:24 *170:12 0.183887
6 *170:27 *917:A0 3.2
7 *170:19 *170:26 0.183887
8 *170:24 *170:23 1.71602
9 *170:31 *924:B0 6.4000001
10 *170:27 *170:20 0.312012
11 *170:20 *170:19 0.624023
12 *170:21 *170:23 3.2
13 *170:31 *170:11 0.367676
14 *170:22 *170:20 3.2
15 *170:22 *170:21 2.75781
16 *170:10 *874:A1 3.2
17 *170:11 *170:10 0.155957
18 *170:34 *170:22 3.2
19 *170:10 *170:9 0.77998
20 *170:35 *170:34 3.2
21 *170:32 *170:9 3.2
22 *170:33 *170:35 2.9417
23 *170:30 *170:32 3.2
24 *170:28 *170:33 3.2
25 *170:17 *929:B0 3.2
26 *170:30 *170:29 1.09199
27 *170:29 *170:28 1.24805
28 *170:18 *170:17 0.77998
29 *170:14 *170:29 3.2
30 *170:15 *170:18 3.2
31 *170:15 *170:14 1.28701
32 *170:16 *170:15 0.735449
33 *170:7 *170:16 3.2
34 *170:8 *170:7 0.467969
35 *873:A1 *170:8 3.2
*END

*D_NET *171 0.0102791

*CONN
*I *925:B0 I *C 84.81 78.68 *L 0.00302 *D OAI21XL
*I *920:B0 I *C 92.07 68.04 *L 0.00433 *D AOI22X1
*I *890:A1 I *C 86.13 77.56 *L 0.00324 *D OAI21XL
*I *872:A1 I *C 80.19 78.12 *L 0.00472 *D AOI211X1
*I *729:B0 I *C 101.97 67.48 *L 0.00319 *D AOI21XL
*I *708:Q O *C 124.41 66.92 *L 0 *D DFFRX1

*CAP
1 *925:B0 6.32932e-05
2 *920:B0 0.000139839
3 *890:A1 0.000139839
4 *872:A1 0.000139839
5 *729:B0 6.32932e-05
6 *708:Q 0.000139839
7 *171:6 0.000267315
8 *171:7 0.000267315
9 *171:8 0.000194001
10 *171:9 0.000194001
11 *171:10 0.000811614
12 *171:11 0.000820883125
13 *171:12 0.000534617
14 *171:13 0.000750037
15 *171:14 0.000271674
16 *171:15 0.000180272
17 *171:16 0.000110591
18 *171:17 0.000198823
19 *171:18 0.000167483
20 *171:19 9.75139e-05
21 *171:20 0.000353568
22 *171:21 0.000269457
23 *171:22 0.000169463
24 *171:23 0.000679341
25 *171:24 0.000182364
26 *171:25 0.000679341
27 *171:26 0.00012472
28 *171:27 0.000192147
29 *171:28 0.000100783
30 *171:29 0.000384645
31 *171:30 0.000384645
32 *171:31 0.000120599
33 *171:30 *363:2 7.547e-05
34 *171:29 *363:3 7.547e-05
35 *171:28 *363:2 1.335e-05
36 *171:27 *363:3 1.335e-05
37 *171:27 *363:2 6.68e-06
38 *171:26 *363:3 6.68e-06
39 *171:13 *363:4 0.00010371
40 *171:14 *363:5 0.000103709997
41 *171:10 *252:8 0.00025211
42 *171:11 *252:6 0.00025211
43 *171:10 *252:5 9.166e-05
44 *171:11 *252:4 9.16599825e-05

*RES
1 *171:31 *708:Q 3.2
2 *171:10 *171:31 3.2
3 *171:11 *171:10 3.86104
4 *171:11 *171:30 0.155957
5 *171:9 *729:B0 6.4000001
6 *171:29 *171:30 2.02246
7 *171:9 *171:8 0.467969
8 *171:28 *171:29 0.155957
9 *171:27 *171:8 3.2
10 *171:27 *171:28 0.367676
11 *171:16 *920:B0 3.2
12 *171:26 *171:27 0.367676
13 *171:16 *171:15 0.624023
14 *171:26 *171:12 0.312012
15 *171:13 *171:15 3.2
16 *171:13 *171:12 2.39014
17 *171:24 *890:A1 3.2
18 *171:14 *171:13 1.65469
19 *171:18 *171:24 0.367676
20 *171:23 *171:14 3.2
21 *171:17 *925:B0 6.4000001
22 *171:18 *171:17 0.312012
23 *171:23 *171:25 2.96396
24 *171:17 *171:22 0.624023
25 *171:19 *171:25 3.2
26 *171:20 *171:22 3.2
27 *171:20 *171:19 0.367676
28 *171:21 *171:20 1.28701
29 *171:6 *171:21 3.2
30 *171:7 *171:6 0.77998
31 *872:A1 *171:7 3.2
*END

*D_NET *172 0.00261767

*CONN
*I *970:Y O *C 70.95 37.8 *L 0 *D INVX1
*I *927:B I *C 62.37 43.4 *L 0.00391 *D NAND2BX1
*I *871:A0 I *C 65.01 43.4 *L 0.00336 *D OAI21XL
*I *854:B I *C 69.63 43.4 *L 0.00444 *D NAND3BX1

*CAP
1 *970:Y 3.98589e-05
2 *927:B 0.00013984
3 *871:A0 0.00013984
4 *854:B 6.32966e-05
5 *172:4 0.00039034
6 *172:5 0.000335459
7 *172:6 0.000262877
8 *172:7 0.000262877
9 *172:8 0.000382996
10 *172:9 0.000382996
11 *172:10 7.51911e-05
12 *172:11 0.000142097

*RES
1 *172:10 *970:Y 0.223828
2 *172:11 *172:10 3.2
3 *172:5 *172:11 0.183887
4 *172:4 *854:B 6.4000001
5 *172:5 *172:4 1.404
6 *172:9 *172:4 3.2
7 *172:8 *172:9 1.28701
8 *172:7 *871:A0 3.2
9 *172:7 *172:8 3.2
10 *172:6 *172:7 0.735449
11 *927:B *172:6 3.2
*END

*D_NET *173 7.972e-05

*CONN
*I *871:Y O *C 65.67 41.72 *L 0 *D OAI21XL
*I *863:A I *C 66.99 43.4 *L 0.0026 *D INVXL

*CAP
1 *871:Y 3.986e-05
2 *863:A 3.986e-05

*RES
1 *871:Y *863:A 0.223826
*END

*D_NET *174 0.00237451

*CONN
*I *968:Y O *C 60.39 83.16 *L 0 *D INVX1
*I *932:B I *C 67.65 77.56 *L 0.00391 *D NAND2BX1
*I *870:A0 I *C 61.71 83.72 *L 0.00336 *D OAI21XL
*I *851:B I *C 66.33 83.72 *L 0.00444 *D NAND3BX1

*CAP
1 *968:Y 8.3432e-05
2 *932:B 0.00013984
3 *870:A0 0.000117275
4 *851:B 6.33032e-05
5 *174:4 0.000245859
6 *174:5 0.000300741
7 *174:6 0.000151923
8 *174:7 0.000151923
9 *174:8 0.00038459
10 *174:9 0.00038459
11 *174:10 0.00015802
12 *174:11 0.000120597
13 *174:12 7.24228e-05

*RES
1 *174:5 *932:B 3.2
2 *174:5 *174:4 0.936035
3 *174:7 *174:4 0.183887
4 *174:7 *174:6 0.77998
5 *174:12 *851:B 6.4000001
6 *174:12 *174:6 0.183887
7 *174:8 *174:12 3.2
8 *174:9 *174:8 1.28701
9 *174:11 *174:9 3.2
10 *870:A0 *174:11 3.2
11 *174:10 *870:A0 0.379785
12 *968:Y *174:10 0.447656
*END

*D_NET *175 7.972e-05

*CONN
*I *870:Y O *C 62.37 82.04 *L 0 *D OAI21XL
*I *850:A I *C 63.69 83.72 *L 0.0026 *D INVXL

*CAP
1 *870:Y 3.986e-05
2 *850:A 3.986e-05

*RES
1 *870:Y *850:A 0.223826
*END

*D_NET *176 0.0020953

*CONN
*I *962:Y O *C 85.47 103.32 *L 0 *D INVX1
*I *934:B I *C 88.77 113.96 *L 0.00391 *D NAND2BX1
*I *869:A0 I *C 88.11 107.8 *L 0.00336 *D OAI21XL
*I *856:B I *C 85.47 107.8 *L 0.00444 *D NAND3BX1

*CAP
1 *962:Y 0.000139838
2 *934:B 0.000139838
3 *869:A0 0.000139838
4 *856:B 6.33015e-05
5 *176:4 0.000267357
6 *176:5 0.000212478
7 *176:6 0.000333202
8 *176:7 0.000190921
9 *176:8 0.000368
10 *176:9 0.000240521

*RES
1 *176:4 *934:B 3.2
2 *176:5 *176:4 0.936035
3 *176:9 *176:5 0.183887
4 *176:8 *869:A0 3.2
5 *176:8 *176:9 0.77998
6 *176:6 *856:B 6.4000001
7 *176:6 *176:8 0.735449
8 *176:7 *176:6 0.936035
9 *962:Y *176:7 3.2
*END

*D_NET *177 0.000842129

*CONN
*I *869:Y O *C 88.77 109.48 *L 0 *D OAI21XL
*I *849:A I *C 90.09 103.88 *L 0.0026 *D INVXL

*CAP
1 *869:Y 0.000139841
2 *849:A 7.97311e-05
3 *177:2 0.00011506
4 *177:3 0.00024498
5 *177:4 0.0001901
6 *177:5 7.24193e-05

*RES
1 *177:5 *869:Y 3.20000005
2 *177:4 *177:5 0.183838
3 *177:3 *177:4 0.77998
4 *177:2 *849:A 0.447656
5 *177:2 *177:3 3.20000005
*END

*D_NET *178 0.0106484

*CONN
*I *889:Y O *C 49.17 83.16 *L 0 *D INVX1
*I *868:B0 I *C 147.51 92.68 *L 0.00314 *D AOI2BB1XL
*I *842:C I *C 143.55 93.24 *L 0.00425 *D NOR3X1

*CAP
1 *889:Y 0.000201191
2 *868:B0 6.32795e-05
3 *842:C 0.000139832
4 *178:3 0.000265518
5 *178:4 0.000335201
6 *178:5 5.99031e-05
7 *178:6 0.000129644
8 *178:7 0.000117419
9 *178:8 0.000117419
10 *178:9 0.00381511
11 *178:10 0.00381511
12 *178:11 0.000236469
13 *178:12 0.000120563
14 *178:13 0.000120563
15 *178:14 0.000373856
16 *178:15 0.000443539
17 *178:16 0.000181689
18 *178:17 0.000112005

*RES
1 *178:5 *868:B0 6.39998
2 *178:7 *842:C 3.20018
3 *178:6 *178:5 0.156022
4 *178:8 *178:7 0.312043
5 *178:3 *178:6 3.20018
6 *178:4 *178:8 3.20018
7 *178:4 *178:3 1.10299
8 *178:17 *178:4 3.20018
9 *178:16 *178:17 0.468065
10 *178:9 *178:16 3.20018
11 *178:10 *178:9 25.3722858
12 *178:15 *178:10 3.20018
13 *178:14 *178:15 1.87187
14 *178:13 *178:14 3.20018
15 *178:12 *178:13 3.20018
16 *178:11 *178:12 3.20018
17 *889:Y *178:11 1.11925
*END

*D_NET *179 0.00177534

*CONN
*I *868:Y O *C 148.83 92.12 *L 0 *D AOI2BB1XL
*I *818:D I *C 142.89 97.16 *L 0.00184 *D DFFRHQX1

*CAP
1 *868:Y 0.000139838
2 *818:D 6.32993e-05
3 *179:2 0.000357457
4 *179:3 0.000357457
5 *179:4 0.0001206
6 *179:5 0.000333495
7 *179:6 0.00040318

*RES
1 *179:5 *868:Y 3.2
2 *179:5 *179:6 1.404
3 *179:2 *179:6 3.2
4 *179:3 *179:2 1.65469
5 *179:4 *179:3 3.2
6 *818:D *179:4 6.4000001
*END

*D_NET *180 0.012766

*CONN
*I *893:Y O *C 63.69 108.36 *L 0 *D INVX1
*I *867:B0 I *C 147.51 129.08 *L 0.00314 *D AOI2BB1XL
*I *840:C I *C 140.91 128.52 *L 0.00425 *D NOR3X1

*CAP
1 *893:Y 0.000139845
2 *867:B0 6.33123e-05
3 *840:C 6.33123e-05
4 *180:3 0.00345189
5 *180:4 0.0034432
6 *180:5 0.00093541
7 *180:6 0.000865725
8 *180:7 0.000597622
9 *180:8 0.000563437
10 *180:9 0.000125308
11 *180:10 5.09343e-05
12 *180:11 0.000281956
13 *180:12 0.000221646
14 *180:13 0.000200524
15 *180:14 0.00012062
16 *180:15 0.000261519
17 *180:15 *18:149 7.468e-05
18 *180:13 *18:150 7.468e-05
19 *180:12 *18:149 2.884e-05
20 *180:11 *18:150 2.884e-05
21 *180:11 *18:149 1.506e-05
22 *180:9 *18:150 1.506e-05
23 *180:7 *18:151 0.00010578
24 *180:8 *18:152 0.00010578
25 *180:3 *18:151 3.821e-05
26 *180:4 *18:152 3.821e-05
27 *180:3 *18:152 0.00014832
28 *180:4 *18:153 0.00014832
29 *180:5 *18:154 5.17e-06
30 *180:6 *18:155 5.17e-06
31 *180:5 *18:156 2.659e-05
32 *180:6 *18:157 2.659e-05
33 *180:5 *18:52 4.413e-05
34 *180:6 *18:53 4.41300002e-05
35 *180:3 *112:11 0.00012061
36 *180:4 *112:8 0.00012061
37 *180:5 *112:7 1.551e-05
38 *180:6 *112:6 1.551e-05
39 *180:5 *112:5 1.427e-05
40 *180:6 *112:4 1.427e-05
41 *180:5 *112:3 5.275e-05
42 *180:6 *112:2 5.27499998e-05

*RES
1 *180:14 *867:B0 6.39989
2 *180:15 *180:14 3.19994
3 *180:13 *180:15 1.10303
4 *180:10 *840:C 6.39989
5 *180:12 *180:13 0.155887
6 *180:11 *180:10 6.39989
7 *180:11 *180:12 0.735445
8 *180:9 *180:11 0.367585
9 *180:7 *180:9 0.312049
10 *180:8 *180:7 3.12544
11 *180:3 *180:8 0.155887
12 *180:4 *180:3 18.0179996
13 *180:5 *180:4 3.19994
14 *180:6 *180:5 4.99196
15 *893:Y *180:6 3.19994
*END

*D_NET *181 0.00172666

*CONN
*I *867:Y O *C 148.83 129.64 *L 0 *D AOI2BB1XL
*I *808:D I *C 142.23 134.68 *L 0.00184 *D DFFRHQX1

*CAP
1 *867:Y 0.000139841
2 *808:D 6.32991e-05
3 *181:2 0.00042149
4 *181:3 0.000351804
5 *181:4 0.000120604
6 *181:5 7.2419e-05
7 *181:6 0.000271205
8 *181:7 0.000285997

*RES
1 *181:6 *867:Y 3.2
2 *181:6 *181:7 1.404
3 *181:5 *181:7 0.183887
4 *181:2 *181:5 3.2
5 *181:3 *181:2 1.65469
6 *181:4 *181:3 3.2
7 *808:D *181:4 6.4000001
*END

*D_NET *182 0.00949782

*CONN
*I *897:Y O *C 72.27 123.48 *L 0 *D INVX1
*I *866:B0 I *C 69.63 58.52 *L 0.00314 *D AOI2BB1XL
*I *838:C I *C 76.89 57.96 *L 0.00425 *D NOR3X1

*CAP
1 *897:Y 0.000124408
2 *866:B0 6.33005e-05
3 *838:C 3.98488e-05
4 *182:3 0.000159713
5 *182:4 8.39558e-05
6 *182:5 0.000500398
7 *182:6 0.000429853
8 *182:7 6.48258e-05
9 *182:8 6.48258e-05
10 *182:9 0.000143475
11 *182:10 7.38188e-05
12 *182:11 5.39898e-05
13 *182:12 0.000123646
14 *182:13 0.0002941
15 *182:14 0.0002941
16 *182:15 0.000120595
17 *182:16 0.000840925
18 *182:17 0.000786045
19 *182:18 0.00202765
20 *182:19 0.00208253
21 *182:20 0.000151705
22 *182:19 *201:10 0.0003589
23 *182:18 *201:11 0.0003589
24 *182:17 *201:10 0.00012813
25 *182:16 *201:11 0.000128129999

*RES
1 *897:Y *182:3 0.895315
2 *182:15 *182:3 3.20009
3 *182:8 *182:15 3.20009
4 *182:8 *182:7 0.183803
5 *182:19 *182:7 3.20009
6 *182:18 *182:19 11.8559999
7 *182:20 *838:C 0.223783
8 *182:14 *182:18 0.183803
9 *182:10 *182:20 3.20009
10 *182:13 *182:14 1.55997
11 *182:10 *182:9 0.312067
12 *182:13 *182:17 0.183803
13 *182:4 *182:9 3.20009
14 *182:16 *182:17 4.36803
15 *182:5 *182:4 0.183803
16 *182:5 *182:16 3.20009
17 *182:6 *182:5 1.65477
18 *182:12 *182:6 3.20009
19 *182:11 *182:12 0.155943
20 *866:B0 *182:11 6.39999
*END

*D_NET *183 0.00140165

*CONN
*I *866:Y O *C 68.31 59.08 *L 0 *D AOI2BB1XL
*I *816:D I *C 63.69 54.04 *L 0.00184 *D DFFRHQX1

*CAP
1 *866:Y 0.000247188
2 *816:D 6.33044e-05
3 *183:2 6.57238e-05
4 *183:3 0.000303037
5 *183:4 7.99893e-05
6 *183:5 0.00035792
7 *183:6 0.00028449

*RES
1 *183:6 *866:Y 1.34297
2 *183:4 *183:6 0.189941
3 *183:5 *183:4 3.2
4 *183:3 *183:5 1.24805
5 *183:2 *183:3 0.183887
6 *816:D *183:2 6.4000001
*END

*D_NET *184 0.00075232

*CONN
*I *865:Y O *C 88.77 97.16 *L 0 *D INVXL
*I *826:D I *C 88.11 94.36 *L 0.00184 *D DFFRHQX1

*CAP
1 *865:Y 0.00013984
2 *826:D 6.32971e-05
3 *184:2 6.57204e-05
4 *184:3 0.000214293
5 *184:4 0.00026917

*RES
1 *184:4 *865:Y 3.2
2 *184:3 *184:4 0.77998
3 *184:2 *184:3 0.183887
4 *826:D *184:2 6.4000001
*END

*D_NET *185 0.00188156

*CONN
*I *864:Y O *C 135.63 144.76 *L 0 *D INVXL
*I *814:D I *C 129.69 137.48 *L 0.00184 *D DFFRHQX1

*CAP
1 *864:Y 0.00013984
2 *814:D 6.33e-05
3 *185:2 0.000403380625
4 *185:3 0.000333698
5 *185:4 0.000401602
6 *185:5 0.000346722
7 *185:6 0.000120599
8 *185:7 7.2422e-05

*RES
1 *185:4 *864:Y 3.2
2 *185:5 *185:4 1.55996
3 *185:7 *185:5 0.183887
4 *185:2 *185:7 3.2
5 *185:3 *185:2 1.4709
6 *185:6 *185:3 3.2
7 *814:D *185:6 6.4000001
*END

*D_NET *186 0.000890004

*CONN
*I *863:Y O *C 67.65 43.96 *L 0 *D INVXL
*I *825:D I *C 64.35 46.76 *L 0.00184 *D DFFRHQX1

*CAP
1 *863:Y 0.00013984
2 *825:D 6.32994e-05
3 *186:2 0.000186499
4 *186:3 0.00015358
5 *186:4 0.00027436
6 *186:5 7.24217e-05

*RES
1 *186:5 *863:Y 3.2
2 *186:3 *186:5 0.183887
3 *186:3 *186:4 0.77998
4 *186:2 *186:4 0.735449
5 *825:D *186:2 6.4000001
*END

*D_NET *187 0.00378249

*CONN
*I *895:Y O *C 57.75 93.24 *L 0 *D INVX1
*I *862:B0 I *C 71.61 88.76 *L 0.00314 *D AOI2BB1XL
*I *843:C I *C 75.57 88.2 *L 0.00425 *D NOR3X1

*CAP
1 *895:Y 0.000139831
2 *862:B0 6.3303e-05
3 *843:C 0.000139831
4 *187:3 0.000267462
5 *187:4 0.00110129
6 *187:5 0.000256707
7 *187:6 0.000187018
8 *187:7 0.000275461
9 *187:8 0.000205789
10 *187:9 0.000847238
11 *187:10 0.000114439
12 *187:11 0.000184111

*RES
1 *187:6 *843:C 3.2
2 *187:8 *862:B0 6.4000001
3 *187:6 *187:5 0.77998
4 *187:8 *187:7 0.624023
5 *187:3 *187:5 3.2
6 *187:4 *187:7 3.2
7 *187:4 *187:3 1.10312
8 *187:9 *187:4 3.86104
9 *187:10 *895:Y 3.2
10 *187:11 *187:9 3.2
11 *187:11 *187:10 0.467969
*END

*D_NET *188 0.00260188

*CONN
*I *862:Y O *C 72.93 89.32 *L 0 *D AOI2BB1XL
*I *817:D I *C 60.39 94.36 *L 0.00184 *D DFFRHQX1

*CAP
1 *862:Y 0.000139843
2 *817:D 6.32995e-05
3 *188:2 0.00075015
4 *188:3 0.00075015
5 *188:4 6.57147e-05
6 *188:5 0.000383494
7 *188:6 0.000328619
8 *188:7 0.000120601

*RES
1 *188:7 *862:Y 3.2
2 *188:2 *188:7 3.2
3 *188:3 *188:2 3.30947
4 *188:5 *188:3 3.2
5 *188:5 *188:6 1.404
6 *188:4 *188:6 0.183887
7 *817:D *188:4 6.4000001
*END

*D_NET *189 0.00601521

*CONN
*I *901:Y O *C 55.11 108.36 *L 0 *D INVX1
*I *861:B0 I *C 92.07 112.84 *L 0.00314 *D AOI2BB1XL
*I *833:C I *C 96.03 113.4 *L 0.00425 *D NOR3X1

*CAP
1 *901:Y 8.10445e-05
2 *861:B0 6.3285e-05
3 *833:C 3.98493e-05
4 *189:3 0.000185291
5 *189:4 0.000185291
6 *189:5 0.000109337
7 *189:6 0.000179
8 *189:7 0.000116359
9 *189:8 0.00191742
10 *189:9 0.00171727
11 *189:10 0.000167238
12 *189:11 0.000213525
13 *189:12 0.000154599
14 *189:13 9.7546e-05
15 *189:14 0.000151732
16 *189:8 *110:9 0.00031822
17 *189:9 *110:10 0.000318219998

*RES
1 *189:14 *833:C 0.223756
2 *189:12 *189:14 0.569767
3 *189:13 *189:12 6.4
4 *189:5 *861:B0 6.4
5 *189:10 *189:13 0.311925
6 *189:6 *189:5 0.624002
7 *189:11 *189:10 3.2
8 *189:8 *189:6 3.2
9 *189:8 *189:11 0.919263
10 *189:9 *189:8 9.9282856
11 *189:3 *189:9 3.2
12 *189:4 *189:3 0.467964
13 *189:7 *189:4 3.2
14 *901:Y *189:7 0.447664
*END

*D_NET *190 0.0017213

*CONN
*I *861:Y O *C 93.39 112.28 *L 0 *D AOI2BB1XL
*I *827:D I *C 86.79 117.32 *L 0.00184 *D DFFRHQX1

*CAP
1 *861:Y 0.000139844
2 *827:D 6.32976e-05
3 *190:2 0.000227442
4 *190:3 0.000157762
5 *190:4 0.00041288
6 *190:5 0.00041288
7 *190:6 0.000188444
8 *190:7 0.000118758

*RES
1 *190:3 *861:Y 3.2
2 *190:3 *190:2 0.936035
3 *190:4 *190:2 3.2
4 *190:7 *827:D 6.4000001
5 *190:5 *190:4 1.83857
6 *190:6 *190:7 0.467969
7 *190:6 *190:5 3.2
*END

*D_NET *191 0.0149127

*CONN
*I *899:Y O *C 45.21 68.04 *L 0 *D INVX1
*I *860:B0 I *C 145.53 108.92 *L 0.00314 *D AOI2BB1XL
*I *841:C I *C 140.25 108.36 *L 0.00425 *D NOR3X1

*CAP
1 *899:Y 0.000411464
2 *860:B0 6.33375e-05
3 *841:C 3.98302e-05
4 *191:3 0.00058889
5 *191:4 0.00065855
6 *191:5 5.93143e-05
7 *191:6 0.000129032
8 *191:7 0.00053653
9 *191:8 0.00046687
10 *191:9 0.00376663
11 *191:10 0.00376663
12 *191:11 0.000446811
13 *191:12 0.00012064
14 *191:13 0.00012064
15 *191:14 0.000319044
16 *191:15 0.000319044
17 *191:16 0.000181679
18 *191:17 0.00012679
19 *191:18 0.00130503
20 *191:19 7.51774e-05
21 *191:20 0.00012064
22 *191:21 0.0012902

*RES
1 *191:5 *860:B0 6.40018
2 *191:19 *841:C 0.223874
3 *191:6 *191:5 0.155965
4 *191:20 *191:19 3.1999
5 *191:3 *191:6 3.1999
6 *191:4 *191:20 3.1999
7 *191:4 *191:3 1.6548
8 *191:21 *191:4 3.1999
9 *191:18 *191:21 6.55204
10 *191:15 *191:18 0.18395
11 *191:14 *191:15 1.71599
12 *191:14 *191:17 0.18395
13 *191:16 *191:17 0.467896
14 *191:9 *191:16 3.1999
15 *191:10 *191:9 24.4529991
16 *191:7 *191:10 3.1999
17 *191:8 *191:7 2.33986
18 *191:13 *191:8 3.1999
19 *191:12 *191:13 3.1999
20 *191:11 *191:12 3.1999
21 *899:Y *191:11 2.23837
*END

*D_NET *192 0.0015538

*CONN
*I *860:Y O *C 146.85 109.48 *L 0 *D AOI2BB1XL
*I *820:D I *C 142.23 114.52 *L 0.00184 *D DFFRHQX1

*CAP
1 *860:Y 0.000139839
2 *820:D 6.32969e-05
3 *192:2 6.57213e-05
4 *192:3 0.000260040371
5 *192:4 0.000252628
6 *192:5 0.000205159
7 *192:6 0.0001224
8 *192:7 0.000192081
9 *192:8 0.000252628

*RES
1 *192:6 *860:Y 3.2
2 *192:6 *192:7 0.624023
3 *192:8 *192:7 3.2
4 *192:4 *192:8 1.10312
5 *192:3 *192:4 3.2
6 *192:3 *192:5 0.77998
7 *192:2 *192:5 0.183887
8 *820:D *192:2 6.4000001
*END

*D_NET *193 0.00744993

*CONN
*I *898:Y O *C 66.33 108.36 *L 0 *D INVX1
*I *859:B0 I *C 115.83 108.92 *L 0.00314 *D AOI2BB1XL
*I *837:C I *C 111.87 108.36 *L 0.00425 *D NOR3X1

*CAP
1 *898:Y 6.32996e-05
2 *859:B0 6.32996e-05
3 *837:C 0.000139834
4 *193:3 0.000169298
5 *193:4 0.000162604
6 *193:5 8.57646e-05
7 *193:6 0.000671752
8 *193:7 0.000395355
9 *193:8 0.000231895
10 *193:9 0.000447987
11 *193:10 0.00029061
12 *193:11 0.000360297
13 *193:12 0.00200306
14 *193:13 0.000120608
15 *193:14 0.000120608
16 *193:15 0.000120608
17 *193:16 0.00200306

*RES
1 *193:8 *859:B0 6.39998
2 *193:9 *193:8 0.624086
3 *193:5 *837:C 3.19999
4 *193:6 *193:9 1.10318
5 *193:6 *193:5 0.468065
6 *193:7 *193:6 1.71604
7 *193:14 *193:7 3.19999
8 *193:3 *898:Y 6.39998
9 *193:15 *193:14 3.19999
10 *193:4 *193:3 0.468065
11 *193:16 *193:15 3.19999
12 *193:13 *193:4 3.19999
13 *193:12 *193:16 12.6861429
14 *193:10 *193:13 3.19999
15 *193:11 *193:12 3.19999
16 *193:11 *193:10 1.404
*END

*D_NET *194 0.00085094

*CONN
*I *859:Y O *C 117.15 109.48 *L 0 *D AOI2BB1XL
*I *811:D I *C 119.13 107.24 *L 0.00184 *D DFFRHQX1

*CAP
1 *859:Y 0.000139837
2 *811:D 6.32992e-05
3 *194:2 0.000203122
4 *194:3 0.00029844
5 *194:4 0.000146239

*RES
1 *194:4 *811:D 6.4000001
2 *194:2 *859:Y 3.2
3 *194:3 *194:4 0.551562
4 *194:3 *194:2 0.624023
*END

*D_NET *195 0.0134152

*CONN
*I *896:Y O *C 83.49 123.48 *L 0 *D INVX1
*I *858:B0 I *C 139.59 72.52 *L 0.00314 *D AOI2BB1XL
*I *834:C I *C 131.01 68.04 *L 0.00425 *D NOR3X1

*CAP
1 *896:Y 0.000139859
2 *858:B0 6.3306e-05
3 *834:C 7.97135e-05
4 *195:3 0.000765994
5 *195:4 0.000696366
6 *195:5 0.000317227
7 *195:6 0.000247554
8 *195:7 0.00297641
9 *195:8 0.00304608
10 *195:9 0.00171196
11 *195:10 0.00171196
12 *195:11 0.000120616
13 *195:12 0.000120616
14 *195:13 0.000115039
15 *195:14 0.000120616
16 *195:15 0.000120616
17 *195:16 0.000120616
18 *195:9 *155:21 2.78e-05
19 *195:10 *155:19 2.78e-05
20 *195:9 *155:16 0.0004426
21 *195:10 *155:17 0.000442600005

*RES
1 *195:16 *858:B0 6.39994
2 *195:3 *195:16 3.20009
3 *195:4 *195:3 2.75779
4 *195:13 *834:C 0.447657
5 *195:5 *195:4 3.20009
6 *195:6 *195:13 3.20009
7 *195:6 *195:5 1.24803
8 *195:14 *195:6 3.20009
9 *195:15 *195:14 3.20009
10 *195:11 *896:Y 3.20009
11 *195:9 *195:15 3.20009
12 *195:12 *195:11 3.20009
13 *195:10 *195:9 12.8701
14 *195:7 *195:12 3.20009
15 *195:8 *195:10 3.20009
16 *195:8 *195:7 15.2880001
*END

*D_NET *196 0.00116274

*CONN
*I *858:Y O *C 140.91 71.96 *L 0 *D AOI2BB1XL
*I *824:D I *C 142.89 74.2 *L 0.00184 *D DFFRHQX1

*CAP
1 *858:Y 0.000139839
2 *824:D 6.33003e-05
3 *196:2 0.00025494
4 *196:3 0.00018526
5 *196:4 0.000120602
6 *196:5 0.000199401
7 *196:6 0.000199401

*RES
1 *196:6 *824:D 6.4000001
2 *196:5 *196:6 0.624023
3 *196:2 *196:5 3.2
4 *196:3 *196:2 0.551562
5 *196:4 *196:3 3.2
6 *858:Y *196:4 3.2
*END

*D_NET *197 0.00512125

*CONN
*I *892:Y O *C 82.17 123.48 *L 0 *D INVX1
*I *857:B0 I *C 100.65 133 *L 0.00314 *D AOI2BB1XL
*I *832:C I *C 107.91 133.56 *L 0.00425 *D NOR3X1

*CAP
1 *892:Y 0.000139835
2 *857:B0 6.3293e-05
3 *832:C 7.85927e-05
4 *197:3 0.000249413
5 *197:4 0.000304285
6 *197:5 0.000329681
7 *197:6 0.000504084
8 *197:7 0.000196493
9 *197:8 0.000178272
10 *197:9 0.000169586
11 *197:10 0.000294937
12 *197:11 0.000364613
13 *197:12 0.00072238
14 *197:13 0.00072238
15 *197:14 0.000308529
16 *197:15 0.000238842
17 *197:16 0.000113932
18 *197:17 0.000142095

*RES
1 *197:16 *832:C 0.447656
2 *197:17 *197:16 3.2
3 *197:3 *197:17 0.183887
4 *197:15 *857:B0 6.4000001
5 *197:4 *197:3 1.09199
6 *197:14 *197:15 0.936035
7 *197:5 *197:4 3.2
8 *197:6 *197:14 3.2
9 *197:6 *197:5 1.4709
10 *197:7 *197:6 0.919238
11 *197:7 *197:13 0.155957
12 *197:12 *197:13 3.49326
13 *197:8 *197:12 0.155957
14 *197:9 *197:8 0.735449
15 *197:11 *197:9 3.2
16 *197:10 *197:11 1.404
17 *892:Y *197:10 3.2
*END

*D_NET *198 0.00247692

*CONN
*I *857:Y O *C 101.97 132.44 *L 0 *D AOI2BB1XL
*I *822:D I *C 86.79 134.68 *L 0.00184 *D DFFRHQX1

*CAP
1 *857:Y 0.00013984
2 *822:D 6.32938e-05
3 *198:2 0.000194678
4 *198:3 0.000139789
5 *198:4 0.00083831
6 *198:5 0.00083831
7 *198:6 0.000120601
8 *198:7 0.000142104

*RES
1 *198:7 *857:Y 3.2
2 *198:3 *198:7 0.183887
3 *198:3 *198:2 0.624023
4 *198:4 *198:2 3.2
5 *198:5 *198:4 4.04482
6 *198:6 *198:5 3.2
7 *822:D *198:6 6.4000001
*END

*D_NET *199 0.00168964

*CONN
*I *850:Y O *C 64.35 84.28 *L 0 *D INVXL
*I *819:D I *C 57.75 87.08 *L 0.00184 *D DFFRHQX1

*CAP
1 *850:Y 0.000139843
2 *819:D 6.32988e-05
3 *199:2 0.00041297
4 *199:3 0.00041297
5 *199:4 0.000269982
6 *199:5 0.000269982
7 *199:6 0.000120598

*RES
1 *199:5 *850:Y 3.2
2 *199:5 *199:4 0.77998
3 *199:2 *199:4 3.2
4 *199:3 *199:2 1.83857
5 *199:6 *199:3 3.2
6 *819:D *199:6 6.4000001
*END

*D_NET *200 0.000655138

*CONN
*I *849:Y O *C 90.75 104.44 *L 0 *D INVXL
*I *823:D I *C 91.41 107.24 *L 0.00184 *D DFFRHQX1

*CAP
1 *849:Y 0.00013984
2 *823:D 6.32988e-05
3 *200:2 0.000182389
4 *200:3 0.00019719
5 *200:4 7.24219e-05

*RES
1 *200:2 *823:D 6.4000001
2 *200:3 *200:2 0.77998
3 *200:4 *200:3 0.183887
4 *849:Y *200:4 3.2
*END

*D_NET *201 0.0122243

*CONN
*I *900:Y O *C 76.89 123.48 *L 0 *D INVX1
*I *848:B0 I *C 84.15 32.2 *L 0.00314 *D AOI2BB1XL
*I *839:C I *C 86.13 32.76 *L 0.00425 *D NOR3X1

*CAP
1 *900:Y 8.21687e-05
2 *848:B0 6.32552e-05
3 *839:C 0.00013982
4 *201:3 0.000320409
5 *201:4 0.000320409
6 *201:5 0.00019558
7 *201:6 0.000290848
8 *201:7 7.15211e-05
9 *201:8 0.000145354
10 *201:9 0.000117474
11 *201:10 0.00452103
12 *201:11 0.00459073
13 *201:12 0.000120556
14 *201:13 0.000120556
15 *201:14 0.000150468
16 *201:10 *182:19 0.0003589
17 *201:11 *182:18 0.0003589
18 *201:10 *182:17 0.00012813
19 *201:11 *182:16 0.000128129999

*RES
1 *201:5 *839:C 3.19995
2 *201:6 *201:5 0.623829
3 *201:14 *201:6 0.551608
4 *201:7 *848:B0 6.3999
5 *201:14 *201:8 0.156152
6 *201:8 *201:7 0.311914
7 *201:3 *201:8 3.19995
8 *201:4 *201:3 1.47096
9 *201:11 *201:4 3.19995
10 *201:11 *201:10 25.5839996
11 *201:13 *201:10 3.19995
12 *201:12 *201:13 3.19995
13 *201:9 *201:12 3.19995
14 *900:Y *201:9 0.671455
*END

*D_NET *202 0.00187672

*CONN
*I *848:Y O *C 85.47 31.64 *L 0 *D AOI2BB1XL
*I *815:D I *C 78.87 36.68 *L 0.00184 *D DFFRHQX1

*CAP
1 *848:Y 0.000139839
2 *815:D 6.3297e-05
3 *202:2 0.000160064
4 *202:3 0.00052575
5 *202:4 0.000160064
6 *202:5 0.000150982
7 *202:6 0.000220657
8 *202:7 0.000456067

*RES
1 *202:5 *848:Y 3.2
2 *202:5 *202:6 0.624023
3 *202:7 *202:6 3.2
4 *202:4 *815:D 6.4000001
5 *202:3 *202:7 1.83857
6 *202:2 *202:4 0.77998
7 *202:2 *202:3 3.2
*END

*D_NET *203 0.00443986

*CONN
*I *918:B1 I *C 125.73 83.72 *L 0.00434 *D AOI22X1
*I *847:B I *C 132.33 83.16 *L 0.00277 *D NAND2XL
*I *813:A1 I *C 129.69 83.72 *L 0.00324 *D OAI21XL
*I *652:Q O *C 137.61 74.2 *L 0 *D DFFRX1

*CAP
1 *918:B1 0.00013984
2 *847:B 6.32996e-05
3 *813:A1 0.00013984
4 *652:Q 0.00013984
5 *203:4 5.72365e-05
6 *203:5 0.000299907
7 *203:6 5.72365e-05
8 *203:7 0.00025788
9 *203:8 0.000408011
10 *203:9 0.00025788
11 *203:10 0.000369442
12 *203:11 5.0925e-05
13 *203:12 0.000152609
14 *203:13 0.000347699
15 *203:14 0.00041738
16 *203:15 0.000408011
17 *203:12 *250:11 2.602e-05
18 *203:10 *250:12 2.602e-05
19 *203:10 *250:11 2.216e-05
20 *203:5 *250:12 2.216e-05
21 *203:15 *250:13 0.00025429
22 *203:8 *250:11 0.00025429
23 *203:15 *250:11 0.00012439
24 *203:8 *250:12 0.00012439
25 *203:14 *250:14 9.55e-06
26 *203:13 *250:15 9.54998446e-06

*RES
1 *203:13 *652:Q 3.2
2 *203:13 *203:14 1.71602
3 *203:15 *203:14 3.2
4 *203:8 *203:15 2.20625
5 *203:11 *847:B 6.4000001
6 *203:7 *203:8 3.2
7 *203:12 *203:11 6.4000001
8 *203:9 *813:A1 3.2
9 *203:7 *203:9 0.77998
10 *203:10 *203:12 0.735449
11 *203:10 *203:9 3.2
12 *203:6 *918:B1 3.2
13 *203:5 *203:10 1.10312
14 *203:4 *203:6 0.155957
15 *203:4 *203:5 3.2
*END

*D_NET *204 0.00032314

*CONN
*I *847:Y O *C 133.65 84.28 *L 0 *D NAND2XL
*I *813:B0 I *C 131.01 82.6 *L 0.00302 *D OAI21XL

*CAP
1 *204:2 0.00016157
2 *204:3 0.00016157

*RES
1 *204:3 *847:Y 3.2
2 *204:2 *204:3 0.735449
3 *813:B0 *204:2 6.4000001
*END

*D_NET *205 0.00269569

*CONN
*I *979:AN I *C 122.43 93.24 *L 0.00218 *D NOR2BX1
*I *883:Y O *C 132.99 93.8 *L 0 *D OAI2BB2X1
*I *835:A I *C 127.71 93.8 *L 0.0043 *D NOR2X1

*CAP
1 *979:AN 6.33001e-05
2 *883:Y 0.00013984
3 *835:A 6.33001e-05
4 *205:3 0.000120596
5 *205:4 0.000304592
6 *205:5 0.00024417
7 *205:6 0.000127864
8 *205:7 5.09212e-05
9 *205:8 0.00044066
10 *205:9 0.000120596
11 *205:10 0.000405137
12 *205:10 *344:5 0.00024492
13 *205:8 *344:6 0.00024492
14 *205:8 *344:5 6.244e-05
15 *205:6 *344:6 6.24400089e-05

*RES
1 *205:9 *883:Y 3.2
2 *205:7 *835:A 6.4000001
3 *205:10 *205:9 3.2
4 *205:8 *205:7 6.4000001
5 *205:8 *205:10 1.4709
6 *205:6 *205:8 0.735449
7 *205:5 *205:6 0.155957
8 *205:4 *205:5 0.735449
9 *205:3 *205:4 3.2
10 *979:AN *205:3 6.4000001
*END

*D_NET *206 0.00024156

*CONN
*I *846:Y O *C 52.47 64.12 *L 0 *D INVXL
*I *821:D I *C 54.45 64.12 *L 0.00184 *D DFFRHQX1

*CAP
1 *206:2 0.00012078
2 *206:3 0.00012078

*RES
1 *206:3 *821:D 6.4000001
2 *206:2 *206:3 0.551562
3 *846:Y *206:2 3.2
*END

*D_NET *207 0.00126243

*CONN
*I *881:Y O *C 92.07 51.8 *L 0 *D OAI2BB1X1
*I *845:B I *C 92.73 47.32 *L 0.0037 *D OR2X2
*I *805:A0 I *C 93.39 54.04 *L 0.00465 *D AOI21X1

*CAP
1 *881:Y 4.12095e-05
2 *845:B 0.000139838
3 *805:A0 0.000139838
4 *207:3 0.00034456
5 *207:4 0.000253382
6 *207:5 0.000160968
7 *207:6 0.000106089
8 *207:7 7.65408e-05

*RES
1 *207:5 *805:A0 3.20000005
2 *207:4 *845:B 3.20000005
3 *207:6 *207:5 0.312012
4 *207:4 *207:3 1.248
5 *207:3 *207:6 0.183838
6 *207:7 *207:3 3.20000005
7 *881:Y *207:7 0.223828
*END

*D_NET *208 0.00112324

*CONN
*I *884:Y O *C 91.41 49 *L 0 *D OAI2BB1X1
*I *845:A I *C 92.07 47.32 *L 0.00337 *D OR2X2
*I *831:A I *C 94.71 47.88 *L 0.00319 *D AND2X2

*CAP
1 *884:Y 0.0001797
2 *845:A 3.98611e-05
3 *831:A 0.000139839
4 *208:3 0.000117738
5 *208:4 0.00010904
6 *208:5 0.000143582
7 *208:6 0.00015228
8 *208:7 0.000120601
9 *208:8 0.000120601

*RES
1 *208:8 *831:A 3.20000005
2 *208:5 *208:8 3.20000005
3 *208:6 *208:5 0.551562
4 *208:6 *208:3 0.156006
5 *208:4 *208:3 0.367725
6 *208:7 *208:4 3.20000005
7 *884:Y *208:7 3.20000005
8 *884:Y *845:A 0.223828
*END

*D_NET *209 0.00186859

*CONN
*I *890:Y O *C 87.45 79.24 *L 0 *D OAI21XL
*I *844:B I *C 93.39 78.12 *L 0.00385 *D NOR2X1
*I *807:A0 I *C 96.69 77.56 *L 0.00465 *D AOI22X1

*CAP
1 *890:Y 3.98386e-05
2 *844:B 0.000139844
3 *807:A0 6.33012e-05
4 *209:3 0.00037696
5 *209:4 0.000309293
6 *209:5 0.00027164
7 *209:6 0.000210657
8 *209:7 7.51734e-05
9 *209:8 5.09171e-05
10 *209:9 0.000120597
11 *209:10 8.97721e-05
12 *209:11 0.000120597

*RES
1 *209:11 *807:A0 6.4000001
2 *209:5 *209:11 3.2
3 *209:6 *209:5 0.551562
4 *209:9 *844:B 3.2
5 *209:6 *209:10 0.155957
6 *209:3 *209:9 3.2
7 *209:3 *209:10 0.367676
8 *209:4 *209:3 1.28701
9 *209:8 *209:4 6.4000001
10 *209:7 *209:8 6.4000001
11 *890:Y *209:7 0.223828
*END

*D_NET *210 0.00190454

*CONN
*I *875:Y O *C 108.57 109.48 *L 0 *D OAI2BB1X1
*I *836:A I *C 104.61 107.8 *L 0.0043 *D NOR2X1
*I *812:A0 I *C 103.29 103.88 *L 0.00465 *D AOI22X1

*CAP
1 *875:Y 0.000139843
2 *836:A 6.3298e-05
3 *812:A0 6.3298e-05
4 *210:3 0.000248112
5 *210:4 0.000303169
6 *210:5 0.00034865
7 *210:6 9.2287e-05
8 *210:7 0.000332408
9 *210:8 0.00017137
10 *210:9 0.000142099

*RES
1 *210:9 *875:Y 3.2
2 *210:8 *210:9 0.183887
3 *210:6 *836:A 6.4000001
4 *210:7 *210:8 0.624023
5 *210:5 *210:6 0.312012
6 *210:5 *210:7 0.919238
7 *210:4 *210:5 0.367676
8 *210:3 *210:4 0.77998
9 *812:A0 *210:3 6.4000001
*END

*D_NET *211 0.00251508

*CONN
*I *891:Y O *C 127.71 99.4 *L 0 *D OAI21XL
*I *835:B I *C 127.05 93.24 *L 0.00385 *D NOR2X1
*I *801:A0 I *C 120.45 94.36 *L 0.00465 *D AOI21X1

*CAP
1 *891:Y 0.000139837
2 *835:B 3.98418e-05
3 *801:A0 0.000139837
4 *211:3 0.000202891
5 *211:4 0.000133211
6 *211:5 0.00035592
7 *211:6 0.0002955
8 *211:7 0.00027527
9 *211:8 0.00028453
10 *211:9 7.51703e-05
11 *211:10 6.58508e-05
12 *211:11 0.000261073
13 *211:12 0.000246138

*RES
1 *835:B *211:9 0.223828
2 *211:10 *211:9 6.4000001
3 *211:10 *211:11 0.183887
4 *211:11 *211:12 0.936035
5 *211:12 *891:Y 3.2
6 *211:5 *211:12 3.2
7 *211:6 *211:5 1.28701
8 *211:8 *211:6 0.155957
9 *211:7 *211:8 0.919238
10 *211:3 *211:7 3.2
11 *211:4 *211:3 0.467969
12 *801:A0 *211:4 3.2
*END

*D_NET *212 0.00427021

*CONN
*I *917:A1 I *C 103.95 52.92 *L 0.00456 *D OAI22X1
*I *831:B I *C 95.37 49 *L 0.00323 *D AND2X2
*I *809:A1 I *C 99.99 47.88 *L 0.00456 *D OAI22X1
*I *651:Q O *C 115.83 46.76 *L 0 *D DFFRX1

*CAP
1 *917:A1 0.000139838
2 *831:B 0.000139838
3 *809:A1 6.33048e-05
4 *651:Q 0.000139838
5 *212:4 0.000450812
6 *212:5 0.000175799
7 *212:6 0.000120603
8 *212:7 9.1612e-05
9 *212:8 5.09251e-05
10 *212:9 8.2907e-05
11 *212:10 0.000142233
12 *212:11 0.000277928
13 *212:12 0.0008304
14 *212:13 0.000292854
15 *212:14 0.000120603
16 *212:15 0.00051987
17 *212:15 *95:10 0.00013303
18 *212:12 *95:11 0.00013303
19 *212:15 *95:11 4.941e-05
20 *212:12 *95:12 4.941e-05
21 *212:12 *95:11 9.508e-05
22 *212:4 *95:12 9.508e-05
23 *212:4 *95:11 3.79e-05
24 *212:5 *95:12 3.78999969e-05

*RES
1 *212:10 *917:A1 3.2
2 *212:8 *809:A1 6.4000001
3 *212:10 *212:13 0.183887
4 *212:14 *651:Q 3.2
5 *212:9 *212:8 6.4000001
6 *212:11 *212:13 0.936035
7 *212:15 *212:14 3.2
8 *212:7 *212:9 0.183887
9 *212:12 *212:11 3.2
10 *212:12 *212:15 3.12559
11 *212:7 *212:4 0.155957
12 *212:4 *212:12 1.4709
13 *212:5 *212:4 1.10312
14 *212:6 *212:5 3.2
15 *831:B *212:6 3.2
*END

*D_NET *213 0.00369686

*CONN
*I *872:Y O *C 81.51 76.44 *L 0 *D AOI211X1
*I *830:A I *C 87.45 73.64 *L 0.0043 *D NOR2X1
*I *800:B I *C 97.35 68.04 *L 0.00465 *D NAND4X1

*CAP
1 *872:Y 0.000139833
2 *830:A 6.32991e-05
3 *800:B 6.32991e-05
4 *213:3 0.000413027
5 *213:4 0.000307693
6 *213:5 0.00032636
7 *213:6 0.00032636
8 *213:7 9.20665e-05
9 *213:8 0.000161752
10 *213:9 0.000203207
11 *213:10 0.000142098
12 *213:11 0.000633785
13 *213:12 0.000120598
14 *213:13 0.00070346

*RES
1 *213:12 *800:B 6.4000001
2 *213:13 *213:12 3.2
3 *213:11 *213:13 2.57402
4 *213:10 *213:11 3.2
5 *213:4 *213:10 0.183887
6 *213:3 *830:A 6.4000001
7 *213:4 *213:3 1.55996
8 *213:3 *213:9 0.624023
9 *213:5 *213:9 3.2
10 *213:6 *213:5 1.28701
11 *213:7 *872:Y 3.2
12 *213:8 *213:6 3.2
13 *213:8 *213:7 0.312012
*END

*D_NET *214 0.000669912

*CONN
*I *830:Y O *C 88.11 73.08 *L 0 *D NOR2X1
*I *806:B0 I *C 90.09 73.64 *L 0.00441 *D AOI21X1

*CAP
1 *830:Y 3.73012e-05
2 *806:B0 6.32994e-05
3 *214:2 7.85093e-05
4 *214:3 7.65392e-05
5 *214:4 0.00018236
6 *214:5 0.000143481
7 *214:6 8.8421e-05

*RES
1 *214:6 *806:B0 6.4000001
2 *214:5 *214:6 0.467969
3 *214:4 *214:5 0.367676
4 *214:3 *214:4 3.2
5 *214:2 *214:3 0.223828
6 *214:2 *830:Y 0.189941
*END

*D_NET *215 0.00281075

*CONN
*I *885:Y O *C 105.93 112.28 *L 0 *D OAI2BB1X1
*I *836:B I *C 103.95 108.36 *L 0.00385 *D NOR2X1
*I *829:A I *C 100.65 103.32 *L 0.00403 *D NAND2X1
*I *812:B0 I *C 102.63 103.32 *L 0.00433 *D AOI22X1

*CAP
1 *885:Y 0.000139838
2 *836:B 6.33004e-05
3 *829:A 0.000139838
4 *812:B0 0.000139838
5 *215:4 8.85707e-05
6 *215:5 8.85707e-05
7 *215:6 0.000340059766
8 *215:7 0.000325261
9 *215:8 0.000142443
10 *215:9 0.000142443
11 *215:10 0.000193367
12 *215:11 0.000193367
13 *215:12 0.000209557
14 *215:13 6.42188e-05
15 *215:14 0.000120602
16 *215:15 6.57184e-05
17 *215:16 0.000249548
18 *215:17 0.00010421

*RES
1 *215:8 *885:Y 3.2
2 *215:9 *215:8 0.312012
3 *215:17 *215:9 3.2
4 *215:16 *215:17 0.367676
5 *215:12 *215:16 0.77998
6 *215:13 *215:12 0.183887
7 *215:15 *836:B 6.4000001
8 *215:15 *215:13 6.4000001
9 *215:4 *215:15 0.183887
10 *215:5 *215:4 0.312012
11 *215:6 *215:5 0.183887
12 *215:7 *812:B0 3.2
13 *215:7 *215:6 1.09199
14 *215:10 *215:7 3.2
15 *215:11 *215:10 0.551562
16 *215:14 *215:11 3.2
17 *829:A *215:14 3.2
*END

*D_NET *216 0.00349353

*CONN
*I *829:Y O *C 100.65 102.76 *L 0 *D NAND2X1
*I *731:B1 I *C 98.67 83.16 *L 0.00419 *D OAI22X1

*CAP
1 *829:Y 0.00028932
2 *731:B1 3.98432e-05
3 *216:2 0.000552504
4 *216:3 0.00032465
5 *216:4 0.00060738
6 *216:5 0.000166361
7 *216:6 0.000126101
8 *216:7 7.51729e-05
9 *216:8 0.000298885
10 *216:9 0.00028426
11 *216:4 *385:6 2.433e-05
12 *216:2 *385:7 2.433e-05
13 *216:4 *385:8 0.00018913
14 *216:2 *385:9 0.00018913
15 *216:4 *385:10 2.433e-05
16 *216:2 *385:11 2.43299891e-05
17 *216:4 *90:6 2.622e-05
18 *216:2 *90:7 2.622e-05
19 *216:4 *90:4 4.316e-05
20 *216:2 *90:5 4.316e-05
21 *216:4 *90:8 5.736e-05
22 *216:2 *90:9 5.7360004e-05

*RES
1 *216:7 *731:B1 0.223855
2 *216:8 *216:7 3.2
3 *216:8 *216:9 0.936019
4 *216:5 *216:9 0.367686
5 *216:3 *829:Y 1.5668
6 *216:5 *216:6 0.46801
7 *216:4 *216:3 3.2
8 *216:2 *216:6 0.183874
9 *216:2 *216:4 4.05600023
*END

*D_NET *217 0.00226768

*CONN
*I *886:Y O *C 92.73 77.56 *L 0 *D OAI2BB2X1
*I *844:A I *C 94.05 77.56 *L 0.0043 *D NOR2X1
*I *828:A I *C 94.71 73.08 *L 0.00403 *D NAND2X1
*I *807:B0 I *C 96.03 78.12 *L 0.00433 *D AOI22X1

*CAP
1 *886:Y 0.00013984
2 *844:A 6.32985e-05
3 *828:A 0.00013984
4 *807:B0 0.00013984
5 *217:4 0.0002163
6 *217:5 0.000210832
7 *217:6 5.72426e-05
8 *217:7 0.000126918
9 *217:8 0.000239079277
10 *217:9 0.000184018
11 *217:10 0.000236431
12 *217:11 8.51105e-05
13 *217:12 0.000120599
14 *217:13 0.000234399
15 *217:14 7.39291e-05

*RES
1 *217:9 *828:A 3.2
2 *217:9 *217:8 0.624023
3 *217:8 *217:5 0.367676
4 *217:14 *807:B0 3.2
5 *217:6 *844:A 6.4000001
6 *217:5 *217:4 0.467969
7 *217:4 *217:14 0.312012
8 *217:7 *217:6 0.155957
9 *217:13 *217:4 3.2
10 *217:10 *217:7 3.2
11 *217:10 *217:13 0.551562
12 *217:11 *217:10 0.367676
13 *217:12 *217:11 3.2
14 *886:Y *217:12 3.2
*END

*D_NET *218 0.0018456

*CONN
*I *828:Y O *C 94.71 72.52 *L 0 *D NAND2X1
*I *718:A1 I *C 104.61 73.64 *L 0.00324 *D OAI21XL

*CAP
1 *828:Y 0.000139837
2 *718:A1 0.000139837
3 *218:2 5.80703e-05
4 *218:3 5.80703e-05
5 *218:4 0.00053661
6 *218:5 0.00053661
7 *218:6 0.000120603
8 *218:4 *332:14 4.861e-05
9 *218:5 *332:15 4.861e-05
10 *218:4 *332:15 7.937e-05
11 *218:5 *332:16 7.93699985e-05

*RES
1 *218:2 *718:A1 3.20000005
2 *218:3 *218:2 0.156006
3 *218:4 *218:3 3.20000005
4 *218:5 *218:4 2.57402
5 *218:6 *218:5 3.20000005
6 *828:Y *218:6 3.20000005
*END

*D_NET *219 0.00263802

*CONN
*I *882:Y O *C 131.67 96.6 *L 0 *D AOI211X1
*I *813:A0 I *C 130.35 83.72 *L 0.00336 *D OAI21XL
*I *799:B I *C 130.35 88.2 *L 0.00465 *D NAND4X1

*CAP
1 *882:Y 0.000139834
2 *813:A0 0.000139834
3 *799:B 6.32995e-05
4 *219:3 0.000335464
5 *219:4 0.00081292
6 *219:5 0.000656253
7 *219:6 0.000214484
8 *219:7 0.000133694
9 *219:8 0.000142228

*RES
1 *219:8 *882:Y 3.2
2 *219:7 *219:8 0.183887
3 *219:6 *219:7 0.467969
4 *219:5 *219:6 0.551562
5 *219:4 *799:B 6.4000001
6 *219:4 *219:5 2.02803
7 *219:3 *219:4 1.24805
8 *813:A0 *219:3 3.2
*END

*D_NET *220 0.00694789

*CONN
*I *916:A1 I *C 113.19 93.24 *L 0.00347 *D OAI22XL
*I *829:B I *C 99.99 103.88 *L 0.00375 *D NAND2X1
*I *812:B1 I *C 101.97 103.88 *L 0.00434 *D AOI22X1
*I *810:A1 I *C 107.91 103.32 *L 0.00456 *D OAI22X1
*I *645:Q O *C 118.47 97.16 *L 0 *D DFFRX1

*CAP
1 *916:A1 0.000139848
2 *829:B 0.000139848
3 *812:B1 0.000139848
4 *810:A1 6.33007e-05
5 *645:Q 0.000139848
6 *220:5 0.000446769
7 *220:6 0.000446769
8 *220:7 0.000464774
9 *220:8 0.000464774
10 *220:9 0.000193732
11 *220:10 0.000193732
12 *220:11 0.000444249
13 *220:12 0.000444249
14 *220:13 0.00010654
15 *220:14 0.000262753
16 *220:15 0.000193069
17 *220:16 0.000503935
18 *220:17 0.000141208
19 *220:18 0.000210875
20 *220:19 0.00108654
21 *220:20 0.000721309

*RES
1 *220:8 *916:A1 3.2
2 *220:8 *220:7 1.71602
3 *220:12 *220:7 3.2
4 *220:12 *220:11 1.4709
5 *220:6 *220:11 3.2
6 *220:6 *645:Q 3.2
7 *220:17 *810:A1 6.4000001
8 *220:6 *220:5 1.71602
9 *220:14 *812:B1 3.2
10 *220:17 *220:18 0.624023
11 *220:20 *220:5 3.2
12 *220:14 *220:15 0.467969
13 *220:19 *220:18 3.2
14 *220:19 *220:20 2.9417
15 *220:16 *220:15 3.2
16 *220:16 *220:19 1.65469
17 *220:13 *220:16 0.551562
18 *220:9 *220:13 3.2
19 *220:10 *220:9 0.467969
20 *829:B *220:10 3.2
*END

*D_NET *221 0.00429387

*CONN
*I *877:Y O *C 110.55 116.76 *L 0 *D AOI211X1
*I *810:B0 I *C 105.93 103.88 *L 0.00457 *D OAI22X1
*I *803:C I *C 109.23 107.8 *L 0.00437 *D NAND3X1

*CAP
1 *877:Y 0.000139848
2 *810:B0 0.000139848
3 *803:C 6.32988e-05
4 *221:3 0.000336416
5 *221:4 0.000321617
6 *221:5 5.627e-05
7 *221:6 0.000125936
8 *221:7 0.000204311
9 *221:8 0.000213008
10 *221:9 7.3531e-05
11 *221:10 0.000252467
12 *221:11 0.000238555
13 *221:12 0.00013859
14 *221:13 6.89113e-05
15 *221:14 6.57212e-05
16 *221:15 0.00086748
17 *221:16 0.00086748
18 *221:17 0.000120601

*RES
1 *221:17 *877:Y 3.2
2 *221:12 *221:17 3.2
3 *221:13 *221:12 0.183887
4 *221:16 *221:13 3.2
5 *221:15 *221:16 3.43203
6 *221:14 *803:C 6.4000001
7 *221:7 *221:15 3.2
8 *221:3 *221:14 0.183887
9 *221:8 *221:7 0.551562
10 *221:4 *221:3 0.936035
11 *221:9 *221:8 0.155957
12 *221:10 *221:4 3.2
13 *221:10 *221:9 0.183887
14 *221:11 *221:10 0.735449
15 *221:5 *221:11 3.2
16 *221:6 *221:5 0.155957
17 *810:B0 *221:6 3.2
*END

*D_NET *222 0.0032359

*CONN
*I *876:Y O *C 106.59 116.76 *L 0 *D AOI211X1
*I *810:A0 I *C 107.25 103.32 *L 0.00456 *D OAI22X1
*I *803:B I *C 109.89 108.36 *L 0.00455 *D NAND3X1

*CAP
1 *876:Y 4.33065e-05
2 *810:A0 0.000139839
3 *803:B 0.000139839
4 *222:3 0.000621819
5 *222:4 0.00063921
6 *222:5 0.000180102
7 *222:6 8.47793e-05
8 *222:7 0.000167637
9 *222:8 0.000155182
10 *222:9 0.000112577
11 *222:10 0.00046574
12 *222:11 0.000385213
13 *222:12 0.000100649

*RES
1 *876:Y *222:8 0.223828
2 *222:9 *222:8 3.20000005
3 *222:7 *222:9 0.312012
4 *222:7 *222:3 0.367725
5 *222:4 *803:B 3.20000005
6 *222:4 *222:3 2.18398
7 *222:12 *222:4 0.312012
8 *222:11 *222:12 0.183838
9 *222:6 *810:A0 3.20000005
10 *222:10 *222:11 1.404
11 *222:5 *222:6 0.312012
12 *222:5 *222:10 0.551562
*END

*D_NET *223 0.00135392

*CONN
*I *874:Y O *C 94.05 44.52 *L 0 *D AOI211X1
*I *809:B0 I *C 98.01 47.32 *L 0.00457 *D OAI22X1
*I *802:C I *C 96.69 42.28 *L 0.00444 *D NAND3BX1

*CAP
1 *874:Y 6.3301e-05
2 *809:B0 6.3301e-05
3 *802:C 0.000139842
4 *223:3 6.57194e-05
5 *223:4 8.58688e-05
6 *223:5 8.58688e-05
7 *223:6 0.000198491
8 *223:7 0.000224128
9 *223:8 0.00024123
10 *223:9 0.000186171

*RES
1 *223:9 *809:B0 6.4000001
2 *223:6 *802:C 3.2
3 *223:8 *223:9 0.77998
4 *223:6 *223:7 0.624023
5 *223:7 *223:8 0.367676
6 *223:5 *223:7 0.183887
7 *223:4 *223:5 0.155957
8 *223:3 *223:4 0.183887
9 *874:Y *223:3 6.4000001
*END

*D_NET *224 0.00285209

*CONN
*I *873:Y O *C 86.79 46.2 *L 0 *D AOI211X1
*I *809:A0 I *C 99.33 47.88 *L 0.00456 *D OAI22X1
*I *802:B I *C 97.35 43.4 *L 0.00444 *D NAND3BX1

*CAP
1 *873:Y 0.000139841
2 *809:A0 0.000139841
3 *802:B 6.3305e-05
4 *224:3 0.000255065
5 *224:4 0.00016858
6 *224:5 0.000102752
7 *224:6 0.000143017
8 *224:7 0.000120596
9 *224:8 0.0007653
10 *224:9 0.000105975
11 *224:10 0.000695619
12 *224:11 0.000152196

*RES
1 *224:9 *802:B 6.4000001
2 *224:9 *224:6 0.367676
3 *224:6 *224:5 0.312012
4 *224:5 *224:4 0.183887
5 *224:11 *809:A0 3.2
6 *224:4 *224:3 0.624023
7 *224:3 *224:11 0.312012
8 *224:10 *224:3 3.2
9 *224:8 *224:10 3.12559
10 *224:7 *224:8 3.2
11 *873:Y *224:7 3.2
*END

*D_NET *225 0.00380935

*CONN
*I *920:B1 I *C 91.41 67.48 *L 0.00434 *D AOI22X1
*I *830:B I *C 86.79 73.08 *L 0.00385 *D NOR2X1
*I *828:B I *C 94.05 73.64 *L 0.00375 *D NAND2X1
*I *807:B1 I *C 95.37 77.56 *L 0.00434 *D AOI22X1
*I *806:A1 I *C 88.77 73.64 *L 0.00443 *D AOI21X1
*I *650:Q O *C 90.75 66.92 *L 0 *D DFFRX1

*CAP
1 *920:B1 3.98615e-05
2 *830:B 0.00013984
3 *828:B 0.00013984
4 *807:B1 0.00013984
5 *806:A1 0.00013984
6 *650:Q 0.000179702
7 *225:6 0.000323252
8 *225:7 0.00046841
9 *225:8 0.000120599
10 *225:9 0.000172597
11 *225:10 0.000120599
12 *225:11 0.000148961
13 *225:12 0.000254579
14 *225:13 0.000114009
15 *225:14 0.00018369
16 *225:15 0.0001434
17 *225:16 0.000140169
18 *225:17 0.00022922
19 *225:18 0.00022719
20 *225:19 0.000184569
21 *225:20 0.000199186

*RES
1 *650:Q *920:B1 0.223828
2 *225:20 *807:B1 3.20000005
3 *225:19 *225:20 0.468018
4 *225:13 *650:Q 3.20000005
5 *225:18 *225:19 0.367725
6 *225:13 *225:14 0.468018
7 *225:17 *828:B 3.20000005
8 *225:17 *225:18 0.624023
9 *225:15 *225:14 3.20000005
10 *225:16 *225:17 0.156006
11 *225:12 *225:15 0.367725
12 *225:6 *225:16 3.20000005
13 *225:10 *806:A1 3.20000005
14 *225:12 *225:7 0.624023
15 *225:7 *225:6 1.28701
16 *225:11 *225:10 3.20000005
17 *225:11 *225:7 0.183838
18 *225:9 *225:11 0.551562
19 *225:8 *225:9 3.20000005
20 *830:B *225:8 3.20000005
*END

*D_NET *226 0.0013483

*CONN
*I *831:Y O *C 96.69 48.44 *L 0 *D AND2X2
*I *805:B0 I *C 94.05 53.48 *L 0.00441 *D AOI21X1
*I *785:B0 I *C 97.35 52.92 *L 0.00438 *D AOI31X1

*CAP
1 *831:Y 0.000139841
2 *805:B0 6.33011e-05
3 *785:B0 6.33011e-05
4 *226:3 0.000108332
5 *226:4 0.000188851
6 *226:5 6.57221e-05
7 *226:6 0.000230097
8 *226:7 0.000296
9 *226:8 0.000103829
10 *226:9 8.90281e-05

*RES
1 *226:9 *785:B0 6.4000001
2 *226:6 *831:Y 3.2
3 *226:8 *226:9 0.312012
4 *226:6 *226:7 0.624023
5 *226:7 *226:8 0.183887
6 *226:4 *226:7 0.551562
7 *226:4 *226:3 0.467969
8 *226:5 *226:3 0.183887
9 *805:B0 *226:5 6.4000001
*END

*D_NET *227 0.00154608

*CONN
*I *807:Y O *C 97.35 78.68 *L 0 *D AOI22X1
*I *804:A I *C 102.63 77.56 *L 0.00346 *D INVX1
*I *739:C I *C 99.99 78.68 *L 0.0036 *D AND4X2

*CAP
1 *807:Y 6.32995e-05
2 *804:A 6.32995e-05
3 *739:C 0.0001916
4 *227:3 0.000110928
5 *227:4 0.000125859
6 *227:5 0.000187141
7 *227:6 0.000187141
8 *227:7 7.24212e-05
9 *227:8 0.0001916
10 *227:9 0.0001421
11 *227:10 7.24212e-05
12 *227:11 7.24212e-05
13 *227:12 6.58489e-05

*RES
1 *227:12 *804:A 6.4000001
2 *227:4 *227:12 0.183887
3 *227:4 *227:3 0.312012
4 *227:5 *227:3 3.2
5 *227:6 *227:5 0.367676
6 *227:11 *227:6 3.2
7 *227:10 *227:11 0.183887
8 *739:C *227:10 3.2
9 *227:8 *739:C 0.447656
10 *227:9 *227:8 3.2
11 *227:7 *227:9 0.183887
12 *807:Y *227:7 6.4000001
*END

*D_NET *228 0.00015432

*CONN
*I *798:Y O *C 101.97 56.84 *L 0 *D INVXL
*I *786:A1 I *C 102.63 57.4 *L 0.00324 *D OAI21XL

*CAP
1 *798:Y 3.98604e-05
2 *786:A1 3.72996e-05
3 *228:2 7.716e-05

*RES
1 *786:A1 *228:2 0.189912
2 *798:Y *228:2 0.223826081
*END

*D_NET *229 0.00523863

*CONN
*I *836:Y O *C 105.27 108.36 *L 0 *D NOR2X1
*I *803:A I *C 110.55 107.24 *L 0.00477 *D NAND3X1
*I *797:B I *C 105.93 93.24 *L 0.00385 *D NOR2X1
*I *741:C I *C 103.29 92.68 *L 0.00444 *D NAND3BX1

*CAP
1 *836:Y 7.97286e-05
2 *803:A 0.000139839
3 *797:B 0.000139839
4 *741:C 6.3302e-05
5 *229:4 0.000118487
6 *229:5 0.000178908
7 *229:6 0.000140358
8 *229:7 0.000149615
9 *229:8 0.000492009
10 *229:9 0.000396691
11 *229:10 0.000502211
12 *229:11 0.000439621
13 *229:12 0.000274736
14 *229:13 0.000548961133
15 *229:14 0.000479284
16 *229:15 0.000115061
17 *229:16 9.1481e-05
18 *229:17 0.000220355
19 *229:18 0.000120598
20 *229:19 0.000120598
21 *229:8 *278:11 0.00019876
22 *229:9 *278:10 0.00019876
23 *229:10 *278:11 1.471e-05
24 *229:11 *278:10 1.47100057e-05

*RES
1 *229:18 *797:B 3.2
2 *229:6 *229:18 3.2
3 *229:7 *229:6 0.367676
4 *229:15 *836:Y 0.447656
5 *229:4 *229:7 0.155957
6 *229:19 *803:A 3.2
7 *229:16 *229:15 6.4000001
8 *229:5 *229:4 0.367676
9 *229:13 *229:19 3.2
10 *229:16 *229:17 0.312012
11 *229:9 *741:C 6.4000001
12 *229:9 *229:5 3.2
13 *229:14 *229:13 2.57402
14 *229:12 *229:17 0.735449
15 *229:9 *229:8 2.34004
16 *229:10 *229:14 3.2
17 *229:10 *229:12 0.77998
18 *229:11 *229:8 0.551562
19 *229:11 *229:10 1.71602
*END

*D_NET *230 0.00256682

*CONN
*I *978:C I *C 123.75 88.76 *L 0.00444 *D NAND3BX1
*I *835:Y O *C 128.37 93.24 *L 0 *D NOR2X1
*I *799:A I *C 129.69 87.64 *L 0.00478 *D NAND4X1
*I *796:B I *C 126.39 88.2 *L 0.00385 *D NOR2X1

*CAP
1 *978:C 0.00013984
2 *835:Y 6.32975e-05
3 *799:A 6.32975e-05
4 *796:B 6.32975e-05
5 *230:4 0.00035199
6 *230:5 0.000296668
7 *230:6 0.000123399
8 *230:7 0.000240477
9 *230:8 0.000226491
10 *230:9 0.000252191
11 *230:10 0.000120601
12 *230:11 5.09227e-05
13 *230:12 6.688e-05
14 *230:13 6.87008e-05
15 *230:14 6.87008e-05
16 *230:15 0.000107861
17 *230:16 0.000163601
18 *230:17 9.86012e-05

*RES
1 *230:5 *799:A 6.4000001
2 *230:5 *230:4 0.936035
3 *230:6 *835:Y 6.4000001
4 *230:7 *230:4 0.367676
5 *230:7 *230:6 0.467969
6 *230:16 *230:7 0.312012
7 *230:17 *230:16 3.2
8 *230:15 *230:17 0.367676
9 *230:11 *796:B 6.4000001
10 *230:14 *230:15 0.155957
11 *230:12 *230:11 6.4000001
12 *230:13 *230:14 0.183887
13 *230:12 *230:8 0.155957
14 *230:8 *230:13 0.155957
15 *230:9 *230:8 0.735449
16 *230:10 *230:9 3.2
17 *978:C *230:10 3.2
*END

*D_NET *231 0.00356301

*CONN
*I *978:AN I *C 123.09 87.64 *L 0.0024 *D NAND3BX1
*I *813:Y O *C 131.01 82.04 *L 0 *D OAI21XL
*I *796:A I *C 127.05 87.64 *L 0.0043 *D NOR2X1
*I *750:C I *C 118.47 83.72 *L 0.00437 *D NAND3X1

*CAP
1 *978:AN 6.32977e-05
2 *813:Y 0.000139838
3 *796:A 6.32977e-05
4 *750:C 0.000139838
5 *231:4 0.000238511
6 *231:5 0.000301495
7 *231:6 0.000276633
8 *231:7 0.000276633
9 *231:8 0.000120589
10 *231:9 0.000181011
11 *231:10 0.000457724
12 *231:11 0.000238672
13 *231:12 0.000120597
14 *231:13 0.000120597
15 *231:14 0.00052629
16 *231:15 0.000297978

*RES
1 *231:5 *813:Y 3.2
2 *231:5 *231:4 0.77998
3 *231:13 *796:A 6.4000001
4 *231:15 *231:4 6.4000001
5 *231:12 *978:AN 6.4000001
6 *231:14 *231:13 3.2
7 *231:14 *231:15 1.28701
8 *231:10 *231:12 3.2
9 *231:10 *231:14 1.10312
10 *231:11 *231:10 0.919238
11 *231:8 *231:11 0.155957
12 *231:9 *231:8 0.367676
13 *231:6 *231:9 3.2
14 *231:7 *231:6 0.936035
15 *750:C *231:7 3.2
*END

*D_NET *232 0.00313191

*CONN
*I *845:Y O *C 94.05 46.2 *L 0 *D OR2X2
*I *802:AN I *C 96.03 43.4 *L 0.0024 *D NAND3BX1
*I *795:AN I *C 98.67 52.92 *L 0.00218 *D NOR2BX1
*I *753:C I *C 98.67 57.96 *L 0.00425 *D NOR3X1

*CAP
1 *845:Y 0.000279678
2 *802:AN 6.32988e-05
3 *795:AN 0.000139839
4 *753:C 7.45915e-05
5 *232:4 0.00018304
6 *232:5 0.00018304
7 *232:6 0.000452918867
8 *232:7 0.000165224
9 *232:8 0.000138789
10 *232:9 0.000179053
11 *232:10 0.000377484
12 *232:11 7.24214e-05
13 *232:12 0.00033816
14 *232:13 0.000105982
15 *232:14 0.000268475
16 *232:15 0.000109921

*RES
1 *232:15 *753:C 0.379785
2 *232:10 *232:15 6.4000001
3 *232:6 *795:AN 3.2
4 *232:6 *232:10 1.09199
5 *232:7 *232:6 0.312012
6 *232:14 *232:7 3.2
7 *232:13 *802:AN 6.4000001
8 *232:12 *232:14 1.28701
9 *232:9 *232:13 0.367676
10 *232:4 *232:12 3.2
11 *232:9 *232:8 0.77998
12 *232:5 *232:4 0.77998
13 *232:11 *232:8 0.183887
14 *845:Y *232:5 3.2
15 *845:Y *232:11 3.2
*END

*D_NET *233 0.00023406

*CONN
*I *794:Y O *C 121.77 84.28 *L 0 *D INVXL
*I *783:A1 I *C 123.09 83.72 *L 0.00324 *D OAI21XL

*CAP
1 *794:Y 7.97308e-05
2 *783:A1 3.72992e-05
3 *233:2 0.00011703

*RES
1 *233:2 *783:A1 0.189912
2 *794:Y *233:2 0.447652161
*END

*D_NET *234 0.00303164

*CONN
*I *844:Y O *C 94.71 78.12 *L 0 *D NOR2X1
*I *800:A I *C 96.69 67.48 *L 0.00478 *D NAND4X1
*I *793:B I *C 97.35 73.08 *L 0.0041 *D NOR2BX1
*I *742:C I *C 98.67 73.64 *L 0.00437 *D NAND3X1

*CAP
1 *844:Y 0.000139838
2 *800:A 6.33032e-05
3 *793:B 0.000139838
4 *742:C 0.000139838
5 *234:4 0.00036191
6 *234:5 0.000281598
7 *234:6 0.000207371
8 *234:7 0.000338782
9 *234:8 0.000146139
10 *234:9 0.000160757
11 *234:10 0.000269802
12 *234:11 0.000296619
13 *234:12 0.000120604
14 *234:13 0.000124977
15 *234:14 0.000139777
16 *234:15 0.00010048

*RES
1 *234:13 *800:A 6.4000001
2 *234:13 *234:14 0.467969
3 *234:14 *234:5 0.183887
4 *234:9 *742:C 3.2
5 *234:4 *793:B 3.2
6 *234:5 *234:4 1.09199
7 *234:9 *234:8 0.312012
8 *234:4 *234:7 0.467969
9 *234:7 *234:8 0.367676
10 *234:7 *234:6 0.77998
11 *234:15 *234:6 6.4000001
12 *234:15 *234:10 0.312012
13 *234:11 *234:10 0.735449
14 *234:12 *234:11 3.2
15 *844:Y *234:12 3.2
*END

*D_NET *235 0.0064998

*CONN
*I *800:Y O *C 98.01 66.36 *L 0 *D NAND4X1
*I *792:B0 I *C 115.83 43.4 *L 0.00441 *D AOI21X1
*I *789:B0 I *C 117.81 42.84 *L 0.00433 *D AOI22X1

*CAP
1 *800:Y 0.000109824
2 *792:B0 6.32911e-05
3 *789:B0 0.000139835
4 *235:3 0.00119636
5 *235:4 0.00119636
6 *235:5 0.000165229
7 *235:6 0.000157525
8 *235:7 5.59524e-05
9 *235:8 0.000151282
10 *235:9 0.000449445
11 *235:10 0.000449445
12 *235:11 0.000181658
13 *235:12 0.000126783
14 *235:13 0.000508008
15 *235:14 0.000508008
16 *235:15 0.000249258
17 *235:16 0.000145148
18 *235:17 0.000120594
19 *235:18 0.000120594
20 *235:19 0.000234453
21 *235:20 0.000170705

*RES
1 *235:7 *789:B0 3.2
2 *235:8 *235:7 0.155957
3 *235:16 *800:Y 0.447656
4 *235:20 *235:8 0.551562
5 *235:17 *235:16 3.2
6 *235:6 *792:B0 6.4000001
7 *235:20 *235:6 0.312012
8 *235:18 *235:17 3.2
9 *235:6 *235:5 0.312012
10 *235:19 *235:18 3.2
11 *235:3 *235:5 3.2
12 *235:15 *235:19 1.09199
13 *235:4 *235:3 5.51572
14 *235:14 *235:15 0.183887
15 *235:11 *235:4 3.2
16 *235:13 *235:14 2.18398
17 *235:11 *235:12 0.467969
18 *235:10 *235:13 0.183887
19 *235:9 *235:12 0.183887
20 *235:9 *235:10 2.34004
*END

*D_NET *236 0.00341991

*CONN
*I *802:Y O *C 97.35 41.72 *L 0 *D NAND3BX1
*I *792:A0 I *C 115.17 43.96 *L 0.00465 *D AOI21X1
*I *789:A0 I *C 118.47 43.4 *L 0.00465 *D AOI22X1

*CAP
1 *802:Y 0.000139844
2 *792:A0 0.000139844
3 *789:A0 6.32975e-05
4 *236:3 0.00077522
5 *236:4 0.000732363
6 *236:5 0.000120598
7 *236:6 0.000297762
8 *236:7 0.000120598
9 *236:8 0.000399019
10 *236:9 0.000134047
11 *236:10 0.000157871
12 *236:11 0.000120598
13 *236:12 0.00021885

*RES
1 *236:11 *789:A0 6.4000001
2 *236:12 *236:11 3.2
3 *236:10 *236:12 0.551562
4 *236:7 *792:A0 3.2
5 *236:9 *236:10 0.155957
6 *236:8 *236:7 3.2
7 *236:8 *236:9 0.367676
8 *236:6 *236:8 1.10312
9 *236:3 *236:6 0.312012
10 *236:4 *236:3 3.49326
11 *236:5 *236:4 3.2
12 *802:Y *236:5 3.2
*END

*D_NET *237 0.00714243

*CONN
*I *799:Y O *C 131.01 86.52 *L 0 *D NAND4X1
*I *791:B0 I *C 117.81 47.32 *L 0.00441 *D AOI21X1
*I *788:B0 I *C 119.79 47.88 *L 0.00433 *D AOI22X1

*CAP
1 *799:Y 0.000139835
2 *791:B0 6.32921e-05
3 *788:B0 0.000139835
4 *237:3 0.000625397
5 *237:4 0.000695072
6 *237:5 0.000214443
7 *237:6 0.000112425
8 *237:7 0.000769738
9 *237:8 0.000784536
10 *237:9 0.000105751
11 *237:10 0.000194364
12 *237:11 0.00126768
13 *237:12 0.0012128
14 *237:13 0.000120607
15 *237:14 0.000120607
16 *237:7 *17:263 3.019e-05
17 *237:8 *17:264 3.019e-05
18 *237:12 *17:264 0.00013075
19 *237:11 *17:265 0.00013075
20 *237:12 *17:265 3.803e-05
21 *237:11 *17:266 3.803e-05
22 *237:12 *17:266 3.067e-05
23 *237:11 *17:267 3.067e-05
24 *237:3 *17:133 5.256e-05
25 *237:4 *17:134 5.256e-05
26 *237:3 *17:133 5.82e-06
27 *237:4 *17:134 5.81998808e-06

*RES
1 *237:13 *799:Y 3.20001
2 *237:14 *237:13 3.20001
3 *237:7 *237:14 3.20001
4 *237:8 *237:7 3.58795
5 *237:12 *237:8 0.183812
6 *237:11 *237:12 6.86399984
7 *237:3 *237:11 3.20001
8 *237:6 *788:B0 3.20001
9 *237:4 *237:3 2.94173
10 *237:6 *237:5 0.31201
11 *237:5 *237:4 3.20001
12 *237:10 *237:5 0.551542
13 *237:9 *237:10 0.467962
14 *791:B0 *237:9 6.40002
*END

*D_NET *238 0.00957356

*CONN
*I *803:Y O *C 111.21 106.68 *L 0 *D NAND3X1
*I *791:A0 I *C 117.15 46.76 *L 0.00465 *D AOI21X1
*I *788:A0 I *C 120.45 47.32 *L 0.00465 *D AOI22X1

*CAP
1 *803:Y 0.000139828
2 *791:A0 0.000139828
3 *788:A0 6.32919e-05
4 *238:3 0.00028712
5 *238:4 0.000217453
6 *238:5 0.000216882
7 *238:6 0.000216882
8 *238:7 0.000420728
9 *238:8 0.000490422
10 *238:9 0.000910527
11 *238:10 0.000855659
12 *238:11 0.000120597
13 *238:12 5.0929e-05
14 *238:13 0.000120597
15 *238:14 0.000276857
16 *238:15 0.000929992
17 *238:16 0.000718863
18 *238:17 0.00169854
19 *238:18 0.00169854

*RES
1 *238:4 *788:A0 6.40001
2 *238:4 *238:3 0.779981
3 *238:12 *791:A0 3.2
4 *238:5 *238:3 3.2
5 *238:13 *238:12 6.40001
6 *238:6 *238:5 0.919318
7 *238:14 *238:13 3.2
8 *238:15 *238:6 3.2
9 *238:14 *238:15 0.936029
10 *238:15 *238:16 3.43202
11 *238:16 *238:17 0.183812
12 *238:17 *238:18 8.42399979
13 *238:10 *238:18 0.183812
14 *238:10 *238:9 3.90003
15 *238:7 *238:9 3.2
16 *238:8 *238:7 1.6547
17 *238:11 *238:8 3.2
18 *803:Y *238:11 3.2
*END

*D_NET *239 0.00234685

*CONN
*I *797:Y O *C 107.25 93.24 *L 0 *D NOR2X1
*I *790:B I *C 105.93 88.2 *L 0.00302 *D NOR2BXL
*I *745:B I *C 109.23 87.64 *L 0.00355 *D NAND4XL

*CAP
1 *797:Y 3.73006e-05
2 *790:B 0.000139841
3 *745:B 6.33007e-05
4 *239:3 0.000126041
5 *239:4 0.000111108
6 *239:5 0.000231746
7 *239:6 0.000162068
8 *239:7 0.000178508
9 *239:8 0.00038273
10 *239:9 0.000118787
11 *239:10 0.000356981
12 *239:11 0.000120761
13 *239:12 6.58528e-05
14 *239:5 *306:4 0.00012591
15 *239:6 *306:5 0.000125910005

*RES
1 *239:12 *745:B 6.4000001
2 *239:3 *239:12 0.183887
3 *239:11 *797:Y 0.189941
4 *239:4 *239:3 0.312012
5 *239:9 *239:11 0.447656
6 *239:5 *239:4 3.2
7 *239:10 *239:9 3.2
8 *239:6 *239:5 0.735449
9 *239:8 *790:B 3.2
10 *239:8 *239:10 1.09199
11 *239:7 *239:6 3.2
12 *239:7 *239:8 0.467969
*END

*D_NET *240 0.00216516

*CONN
*I *790:Y O *C 105.93 87.08 *L 0 *D NOR2BXL
*I *735:B1 I *C 106.59 78.12 *L 0.00488 *D OAI33X1

*CAP
1 *790:Y 8.23993e-05
2 *735:B1 0.000111893
3 *240:2 0.000332812
4 *240:3 0.000156661
5 *240:4 0.000119704
6 *240:5 0.000256249
7 *240:6 0.000437108438
8 *240:7 0.00023123
9 *240:8 0.000437108438

*RES
1 *790:Y *240:4 0.447656
2 *240:3 *240:4 0.189893
3 *240:3 *240:7 0.447656
4 *240:8 *240:7 3.20000005
5 *240:6 *240:8 1.87202
6 *240:5 *240:6 3.20000005
7 *240:2 *240:5 0.895312
8 *735:B1 *240:2 0.569727
*END

*D_NET *241 0.00239088

*CONN
*I *922:B I *C 121.77 43.4 *L 0.00389 *D MXI2X1
*I *789:A1 I *C 119.13 42.84 *L 0.00472 *D AOI22X1
*I *788:A1 I *C 121.11 47.88 *L 0.00472 *D AOI22X1
*I *751:Q O *C 124.41 54.04 *L 0 *D DFFRX1

*CAP
1 *922:B 0.000139839
2 *789:A1 6.32995e-05
3 *788:A1 6.32995e-05
4 *751:Q 0.000139839
5 *241:4 6.57193e-05
6 *241:5 8.63103e-05
7 *241:6 8.63103e-05
8 *241:7 0.000174731
9 *241:8 0.00013447
10 *241:9 7.31774e-05
11 *241:10 7.31774e-05
12 *241:11 0.00012585
13 *241:12 0.00019423
14 *241:13 0.000191902
15 *241:14 0.0001421
16 *241:15 0.00020048
17 *241:16 0.000160482
18 *241:17 0.00016549
19 *241:18 0.000110171

*RES
1 *241:18 *751:Q 3.2
2 *241:17 *241:18 0.312012
3 *241:16 *241:17 0.367676
4 *241:15 *241:16 0.467969
5 *241:13 *241:15 0.551562
6 *241:14 *922:B 3.2
7 *241:12 *788:A1 6.4000001
8 *241:12 *241:13 0.312012
9 *241:9 *241:14 0.183887
10 *241:11 *241:12 0.467969
11 *241:9 *241:10 0.155957
12 *241:8 *241:11 0.183887
13 *241:7 *241:10 0.183887
14 *241:7 *241:8 0.624023
15 *241:6 *241:7 0.183887
16 *241:5 *241:6 0.312012
17 *241:4 *241:5 0.183887
18 *789:A1 *241:4 6.4000001
*END

*D_NET *242 0.0011849

*CONN
*I *804:Y O *C 103.29 78.12 *L 0 *D INVX1
*I *787:B I *C 103.95 78.12 *L 0.00385 *D NOR2X1
*I *749:C I *C 102.63 72.52 *L 0.00246 *D OR3XL

*CAP
1 *804:Y 0.000179681
2 *787:B 3.98396e-05
3 *749:C 0.000139841
4 *242:3 0.000314279
5 *242:4 0.00036903
6 *242:5 0.000142229

*RES
1 *804:Y *787:B 0.223828
2 *242:5 *804:Y 3.20000005
3 *242:3 *242:5 0.183838
4 *242:4 *242:3 1.248
5 *749:C *242:4 3.20000005
*END

*D_NET *243 0.00179009

*CONN
*I *793:Y O *C 97.35 74.2 *L 0 *D NOR2BX1
*I *787:A I *C 104.61 77.56 *L 0.0043 *D NOR2X1
*I *739:B I *C 99.33 78.12 *L 0.00354 *D AND4X2

*CAP
1 *793:Y 8.559e-05
2 *787:A 6.33019e-05
3 *739:B 0.000139842
4 *243:3 5.5122e-05
5 *243:4 0.000298279
6 *243:5 0.00012092
7 *243:6 0.000263258
8 *243:7 0.00035643
9 *243:8 0.000120599
10 *243:9 0.000286748

*RES
1 *243:8 *787:A 6.4000001
2 *243:9 *243:8 3.2
3 *243:7 *243:9 1.4709
4 *243:3 *739:B 3.2
5 *243:4 *243:7 3.2
6 *243:4 *243:3 0.155957
7 *243:6 *243:4 0.936035
8 *243:5 *243:6 6.4000001
9 *793:Y *243:5 0.447656
*END

*D_NET *244 0.00147418

*CONN
*I *787:Y O *C 105.27 78.12 *L 0 *D NOR2X1
*I *735:A1 I *C 109.23 78.12 *L 0.00487 *D OAI33X1

*CAP
1 *787:Y 0.00013984
2 *735:A1 0.00013984
3 *244:2 0.000120602
4 *244:3 0.00028838
5 *244:4 6.19004e-05
6 *244:5 0.000227963
7 *244:6 0.000120602
8 *244:7 0.000122322
9 *244:5 *297:8 9.515e-05
10 *244:3 *297:9 9.515e-05
11 *244:7 *297:12 3.122e-05
12 *244:4 *297:13 3.12200071e-05

*RES
1 *244:6 *735:A1 3.20000005
2 *244:7 *244:6 3.20000005
3 *244:4 *244:7 0.183838
4 *244:4 *244:5 0.156006
5 *244:3 *244:5 0.919287
6 *244:2 *244:3 3.20000005
7 *787:Y *244:2 3.20000005
*END

*D_NET *245 0.0023543

*CONN
*I *795:Y O *C 99.99 54.04 *L 0 *D NOR2BX1
*I *786:A0 I *C 103.29 57.4 *L 0.00336 *D OAI21XL
*I *785:A0 I *C 96.69 53.48 *L 0.00471 *D AOI31X1

*CAP
1 *795:Y 6.32983e-05
2 *786:A0 6.32983e-05
3 *785:A0 0.000139837
4 *245:3 0.000140759
5 *245:4 7.10784e-05
6 *245:5 0.000250539
7 *245:6 0.000120601
8 *245:7 0.00038481
9 *245:8 0.00012477
10 *245:9 6.40616e-05
11 *245:10 0.000163319
12 *245:11 0.000124483
13 *245:12 0.000178251
14 *245:13 6.58525e-05
15 *245:11 *96:18 1.188e-05
16 *245:9 *96:19 1.188e-05
17 *245:8 *96:19 2.131e-05
18 *245:7 *96:20 2.131e-05
19 *245:7 *96:21 6.338e-05
20 *245:5 *96:22 6.338e-05
21 *245:12 *96:15 6.267e-05
22 *245:10 *96:11 6.267e-05
23 *245:12 *96:11 4.043e-05
24 *245:10 *96:12 4.04300021e-05

*RES
1 *245:13 *786:A0 6.4000001
2 *245:12 *245:13 0.183887
3 *245:10 *245:12 0.77998
4 *245:11 *245:10 3.2
5 *245:9 *245:11 0.183887
6 *245:8 *245:9 0.155957
7 *245:6 *795:Y 6.4000001
8 *245:7 *245:8 0.551562
9 *245:7 *245:6 3.2
10 *245:5 *245:7 0.919238
11 *245:3 *245:5 3.2
12 *245:4 *245:3 0.155957
13 *785:A0 *245:4 3.2
*END

*D_NET *246 0.00170176

*CONN
*I *786:Y O *C 103.95 59.08 *L 0 *D OAI21XL
*I *720:B1 I *C 109.89 62.44 *L 0.00332 *D OAI221XL

*CAP
1 *786:Y 0.000139839
2 *720:B1 0.000139839
3 *246:2 0.000190599
4 *246:3 0.000190599
5 *246:4 0.00023200959
6 *246:5 0.0002222
7 *246:6 0.00023200959
8 *246:7 0.000152521
9 *246:6 *350:7 0.00010107
10 *246:4 *350:8 0.00010107

*RES
1 *246:7 *720:B1 3.20000005
2 *246:5 *246:7 0.468018
3 *246:6 *246:5 3.20000005
4 *246:4 *246:6 1.47085
5 *246:2 *246:4 3.20000005
6 *246:3 *246:2 0.468018
7 *786:Y *246:3 3.20000005
*END

*D_NET *247 0.00265957

*CONN
*I *805:Y O *C 94.05 54.04 *L 0 *D AOI21X1
*I *798:A I *C 101.31 57.4 *L 0.0026 *D INVXL
*I *785:A1 I *C 96.03 52.92 *L 0.00474 *D AOI31X1
*I *743:C I *C 95.37 57.4 *L 0.00437 *D NAND3X1

*CAP
1 *805:Y 6.3302e-05
2 *798:A 0.00013984
3 *785:A1 0.00013984
4 *743:C 0.00013984
5 *247:4 0.000101983
6 *247:5 8.71752e-05
7 *247:6 7.01424e-05
8 *247:7 0.000139822
9 *247:8 5.45216e-05
10 *247:9 0.000189971
11 *247:10 0.000203907
12 *247:11 0.00031912
13 *247:12 0.0003888
14 *247:13 6.57225e-05
15 *247:11 *345:9 0.00027779
16 *247:12 *345:10 0.000277789992

*RES
1 *247:6 *798:A 3.2
2 *247:7 *247:6 0.155957
3 *247:11 *247:7 3.2
4 *247:5 *785:A1 3.2
5 *247:12 *247:11 1.65469
6 *247:8 *743:C 3.2
7 *247:5 *247:4 0.312012
8 *247:9 *247:12 3.2
9 *247:9 *247:8 0.155957
10 *247:10 *247:4 0.183887
11 *247:10 *247:9 0.77998
12 *247:13 *247:10 0.183887
13 *805:Y *247:13 6.4000001
*END

*D_NET *248 0.00271282

*CONN
*I *785:Y O *C 98.01 54.04 *L 0 *D AOI31X1
*I *727:B1 I *C 94.05 63 *L 0.00328 *D OAI222XL

*CAP
1 *785:Y 6.32975e-05
2 *727:B1 5.56497e-05
3 *248:2 0.000521
4 *248:3 0.000521
5 *248:4 0.000131564
6 *248:5 0.000116761
7 *248:6 0.000131373
8 *248:7 9.09792e-05
9 *248:8 0.000142097
10 *248:9 0.000201054
11 *248:9 *326:6 0.00015538
12 *248:6 *326:7 0.00015538
13 *248:2 *326:8 2.583e-05
14 *248:3 *326:9 2.5830008e-05
15 *248:9 *96:21 0.00018781
16 *248:6 *96:22 0.000187809999

*RES
1 *248:5 *785:Y 6.4000001
2 *248:5 *248:4 0.312012
3 *248:8 *248:4 0.183887
4 *248:7 *727:B1 0.223828
5 *248:9 *248:8 3.2
6 *248:2 *248:7 3.2
7 *248:6 *248:9 1.10312
8 *248:3 *248:2 2.18398
9 *248:3 *248:6 3.2
*END

*D_NET *249 0.00173086

*CONN
*I *792:Y O *C 115.83 43.96 *L 0 *D AOI21X1
*I *784:B I *C 109.89 37.8 *L 0.0041 *D NOR2BX1
*I *777:B I *C 112.53 37.24 *L 0.00444 *D NAND3BX1

*CAP
1 *792:Y 6.32986e-05
2 *784:B 6.32986e-05
3 *777:B 6.32986e-05
4 *249:3 0.000146244
5 *249:4 8.41073e-05
6 *249:5 0.000164634
7 *249:6 0.000280279
8 *249:7 0.00039436
9 *249:8 0.000222938
10 *249:9 0.000142417
11 *249:10 0.000105981

*RES
1 *249:10 *792:Y 6.4000001
2 *249:9 *249:10 0.367676
3 *249:8 *249:9 0.312012
4 *249:7 *249:8 0.735449
5 *249:6 *777:B 6.4000001
6 *249:6 *249:7 0.936035
7 *249:4 *249:6 0.183887
8 *249:4 *249:5 0.155957
9 *249:3 *249:5 0.551562
10 *784:B *249:3 6.4000001
*END

*D_NET *250 0.0101057

*CONN
*I *930:B0 I *C 134.97 98.84 *L 0.00302 *D OAI21XL
*I *918:B0 I *C 126.39 83.16 *L 0.00433 *D AOI22X1
*I *891:A1 I *C 126.39 97.72 *L 0.00324 *D OAI21XL
*I *882:A1 I *C 130.35 98.28 *L 0.00472 *D AOI211X1
*I *783:B0 I *C 124.41 82.6 *L 0.00302 *D OAI21XL
*I *732:B0 I *C 117.15 83.72 *L 0.00319 *D AOI21XL
*I *709:Q O *C 140.25 77 *L 0 *D DFFRX1

*CAP
1 *930:B0 6.33006e-05
2 *918:B0 0.000139842
3 *891:A1 0.000139842
4 *882:A1 7.96972e-05
5 *783:B0 0.000139842
6 *732:B0 6.33006e-05
7 *709:Q 0.000139842
8 *250:7 0.000228996
9 *250:8 0.000228996
10 *250:9 0.000179942
11 *250:10 0.000179942
12 *250:11 0.000665537
13 *250:12 0.000484777
14 *250:13 0.000368775
15 *250:14 0.000179827
16 *250:15 0.000110152
17 *250:16 0.000202514
18 *250:17 0.000202514
19 *250:18 0.000550091
20 *250:19 0.000477323
21 *250:20 0.000205407
22 *250:21 0.000450212
23 *250:22 0.000327889
24 *250:23 7.35642e-05
25 *250:24 0.00013655
26 *250:25 0.00068705
27 *250:26 0.000632168
28 *250:27 0.000327029
29 *250:28 0.000327029
30 *250:29 0.000136288
31 *250:30 0.00019116
32 *250:31 0.000131214
33 *250:32 0.000131214
34 *250:33 0.00014435
35 *250:34 0.000158713
36 *250:35 0.000109293
37 *250:36 0.000115027
38 *250:37 0.000123666
39 *250:11 *203:12 2.602e-05
40 *250:12 *203:10 2.602e-05
41 *250:11 *203:10 2.216e-05
42 *250:12 *203:5 2.216e-05
43 *250:13 *203:15 0.00025429
44 *250:11 *203:8 0.00025429
45 *250:11 *203:15 0.00012439
46 *250:12 *203:8 0.00012439
47 *250:14 *203:14 9.55e-06
48 *250:15 *203:13 9.54998446e-06

*RES
1 *250:34 *891:A1 3.2
2 *250:33 *250:34 0.312012
3 *250:33 *250:32 0.367676
4 *250:32 *250:31 0.312012
5 *250:36 *882:A1 0.447656
6 *250:31 *250:35 0.367676
7 *250:23 *930:B0 6.4000001
8 *250:37 *250:36 3.2
9 *250:35 *250:37 0.155957
10 *250:24 *250:23 0.155957
11 *250:22 *250:37 3.2
12 *250:20 *250:24 3.2
13 *250:22 *250:21 0.919238
14 *250:21 *250:20 0.735449
15 *250:25 *250:21 3.2
16 *250:26 *250:25 2.96396
17 *250:26 *250:27 0.183887
18 *250:28 *250:27 1.404
19 *250:15 *709:Q 3.2
20 *250:29 *250:28 0.183887
21 *250:15 *250:14 0.467969
22 *250:7 *918:B0 3.2
23 *250:30 *250:29 0.467969
24 *250:13 *250:14 3.2
25 *250:9 *783:B0 3.2
26 *250:8 *250:7 0.624023
27 *250:11 *250:30 3.2
28 *250:11 *250:13 2.20625
29 *250:10 *250:9 0.467969
30 *250:12 *250:8 3.2
31 *250:12 *250:11 1.65469
32 *250:18 *250:10 3.2
33 *250:18 *250:12 0.551562
34 *250:16 *732:B0 6.4000001
35 *250:19 *250:18 2.02246
36 *250:17 *250:16 0.77998
37 *250:17 *250:19 3.2
*END

*D_NET *251 0.00175188

*CONN
*I *796:Y O *C 127.71 88.2 *L 0 *D NOR2X1
*I *783:A0 I *C 123.75 83.72 *L 0.00336 *D OAI21XL
*I *782:A0 I *C 121.11 87.64 *L 0.00471 *D AOI31X1

*CAP
1 *796:Y 7.97283e-05
2 *783:A0 6.32971e-05
3 *782:A0 0.000139837
4 *251:3 0.000218372
5 *251:4 8.2261e-05
6 *251:5 0.000199959
7 *251:6 0.00045725
8 *251:7 0.000205527
9 *251:8 0.000124738
10 *251:9 0.000115061
11 *251:10 6.58507e-05

*RES
1 *251:9 *796:Y 0.447656
2 *251:10 *251:9 6.4000001
3 *251:8 *251:10 0.183887
4 *251:5 *783:A0 6.4000001
5 *251:7 *251:8 0.624023
6 *251:4 *782:A0 3.2
7 *251:5 *251:6 0.77998
8 *251:6 *251:7 0.551562
9 *251:3 *251:4 0.312012
10 *251:3 *251:6 0.735449
*END

*D_NET *252 0.00483079

*CONN
*I *783:Y O *C 124.41 82.04 *L 0 *D OAI21XL
*I *720:A1 I *C 111.87 62.44 *L 0.00348 *D OAI221XL

*CAP
1 *783:Y 6.32979e-05
2 *720:A1 0.000139836
3 *252:2 0.000493598
4 *252:3 0.000423917
5 *252:4 6.85237e-05
6 *252:5 6.04165e-05
7 *252:6 0.000322345
8 *252:7 7.43485e-05
9 *252:8 0.000322345
10 *252:9 6.58488e-05
11 *252:10 0.000661886
12 *252:11 0.000152126
13 *252:12 0.00067682
14 *252:8 *18:86 4.051e-05
15 *252:6 *18:87 4.051e-05
16 *252:11 *18:88 1.506e-05
17 *252:7 *18:89 1.506e-05
18 *252:5 *18:86 7.53e-06
19 *252:4 *18:87 7.53e-06
20 *252:12 *18:90 3.086e-05
21 *252:10 *18:91 3.086e-05
22 *252:12 *18:92 3.471e-05
23 *252:10 *18:93 3.471e-05
24 *252:12 *18:93 1.625e-05
25 *252:10 *18:94 1.625e-05
26 *252:2 *18:95 1.625e-05
27 *252:3 *18:96 1.62500029e-05
28 *252:8 *94:7 0.00014062
29 *252:6 *94:8 0.00014062
30 *252:12 *94:9 7.17e-06
31 *252:10 *94:10 7.1699946e-06
32 *252:8 *171:10 0.00025211
33 *252:6 *171:11 0.00025211
34 *252:5 *171:10 9.166e-05
35 *252:4 *171:11 9.16599825e-05

*RES
1 *252:9 *783:Y 6.4000001
2 *252:9 *252:12 0.183887
3 *252:10 *252:12 3.43203
4 *252:11 *252:10 3.2
5 *252:7 *252:11 0.367676
6 *252:7 *252:8 0.0780273
7 *252:6 *252:8 2.75781
8 *252:5 *252:6 0.0780273
9 *252:4 *252:5 0.551562
10 *252:2 *252:4 3.2
11 *252:3 *252:2 2.02803
12 *720:A1 *252:3 3.2
*END

*D_NET *253 0.00296719

*CONN
*I *801:Y O *C 121.11 94.36 *L 0 *D AOI21X1
*I *794:A I *C 121.11 83.72 *L 0.0026 *D INVXL
*I *782:A1 I *C 120.45 88.2 *L 0.00474 *D AOI31X1
*I *750:B I *C 119.13 83.16 *L 0.00455 *D NAND3X1

*CAP
1 *801:Y 0.000139837
2 *794:A 0.000139837
3 *782:A1 6.33026e-05
4 *750:B 6.33026e-05
5 *253:4 0.000162117
6 *253:5 0.000152858
7 *253:6 8.45517e-05
8 *253:7 0.000100508
9 *253:8 0.00046249
10 *253:9 0.00046249
11 *253:10 5.09173e-05
12 *253:11 0.000118489
13 *253:12 0.000331058
14 *253:13 0.0001206
15 *253:14 0.000281291
16 *253:15 0.0001206
17 *253:16 0.000112935

*RES
1 *253:16 *801:Y 3.2
2 *253:11 *782:A1 6.4000001
3 *253:14 *253:16 0.367676
4 *253:11 *253:12 0.312012
5 *253:12 *253:14 0.77998
6 *253:13 *253:12 3.2
7 *253:15 *794:A 3.2
8 *253:8 *253:13 3.2
9 *253:6 *253:15 3.2
10 *253:9 *253:8 1.55996
11 *253:7 *253:6 0.183887
12 *253:7 *253:9 3.2
13 *253:4 *253:7 0.155957
14 *253:5 *253:4 0.367676
15 *253:10 *253:5 6.4000001
16 *750:B *253:10 6.4000001
*END

*D_NET *254 0.00153686

*CONN
*I *782:Y O *C 122.43 87.08 *L 0 *D AOI31X1
*I *723:B1 I *C 115.17 88.76 *L 0.00332 *D OAI221XL

*CAP
1 *782:Y 0.000139844
2 *723:B1 0.000139844
3 *254:2 0.00050799
4 *254:3 0.00050799
5 *254:4 0.000120597
6 *254:5 0.000120597

*RES
1 *254:5 *782:Y 3.20000005
2 *254:2 *254:5 3.20000005
3 *254:3 *254:2 2.02241
4 *254:4 *254:3 3.20000005
5 *723:B1 *254:4 3.20000005
*END

*D_NET *255 0.0028073

*CONN
*I *788:Y O *C 121.11 48.44 *L 0 *D AOI22X1
*I *781:A I *C 118.47 37.8 *L 0.00403 *D NAND2X1
*I *778:A0 I *C 120.45 37.24 *L 0.00336 *D OAI21XL

*CAP
1 *788:Y 6.32953e-05
2 *781:A 0.000139836
3 *778:A0 0.000139836
4 *255:3 0.000147349
5 *255:4 9.22903e-05
6 *255:5 0.000101871
7 *255:6 0.000101871
8 *255:7 0.000122263
9 *255:8 7.53016e-05
10 *255:9 0.000278188
11 *255:10 0.000208506
12 *255:11 0.00057183
13 *255:12 0.000502148
14 *255:13 0.000142105
15 *255:14 0.000120605

*RES
1 *255:5 *788:Y 6.4000001
2 *255:6 *255:5 0.312012
3 *255:9 *255:6 3.2
4 *255:10 *255:9 0.735449
5 *255:11 *255:10 3.2
6 *255:4 *778:A0 3.2
7 *255:12 *255:11 2.02803
8 *255:4 *255:3 0.312012
9 *255:14 *255:12 3.2
10 *255:7 *255:3 0.367676
11 *255:7 *255:14 6.4000001
12 *255:8 *255:7 0.155957
13 *255:13 *255:8 0.183887
14 *781:A *255:13 3.2
*END

*D_NET *256 0.00218464

*CONN
*I *789:Y O *C 119.13 42.28 *L 0 *D AOI22X1
*I *781:B I *C 117.81 37.24 *L 0.00375 *D NAND2X1
*I *780:AN I *C 122.43 39.48 *L 0.0021 *D NAND2BX1
*I *776:B0 I *C 116.49 38.36 *L 0.00302 *D OAI21XL

*CAP
1 *789:Y 6.33003e-05
2 *781:B 0.00013984
3 *780:AN 6.33003e-05
4 *776:B0 6.33003e-05
5 *256:4 0.000196559
6 *256:5 0.000196559
7 *256:6 0.000105979
8 *256:7 7.15104e-05
9 *256:8 0.000155091
10 *256:9 0.000109042
11 *256:10 0.00014409
12 *256:11 0.00022607
13 *256:12 0.000124979
14 *256:13 7.19899e-05
15 *256:14 0.000141672
16 *256:4 *263:3 0.00015568
17 *256:5 *263:4 0.000155680002

*RES
1 *256:13 *780:AN 6.4000001
2 *256:13 *256:14 0.155957
3 *256:4 *256:14 3.2
4 *256:5 *256:4 0.919238
5 *256:12 *789:Y 6.4000001
6 *256:11 *256:5 3.2
7 *256:11 *256:12 0.624023
8 *256:10 *256:11 0.312012
9 *256:7 *781:B 3.2
10 *256:9 *256:10 0.367676
11 *256:7 *256:8 0.312012
12 *256:8 *256:9 0.155957
13 *256:6 *256:8 0.367676
14 *776:B0 *256:6 6.4000001
*END

*D_NET *257 0.001738

*CONN
*I *784:Y O *C 109.89 36.68 *L 0 *D NOR2BX1
*I *779:B0 I *C 111.87 32.2 *L 0.00406 *D AOI2BB1X1
*I *771:B0 I *C 115.83 33.32 *L 0.00319 *D AOI21XL

*CAP
1 *784:Y 6.33023e-05
2 *779:B0 0.000139841
3 *771:B0 6.33023e-05
4 *257:3 6.68721e-05
5 *257:4 6.68721e-05
6 *257:5 0.000245893
7 *257:6 0.000303831426
8 *257:7 6.57223e-05
9 *257:8 7.26024e-05
10 *257:9 7.26024e-05
11 *257:10 5.39789e-05
12 *257:11 0.00022676
13 *257:12 0.000296441

*RES
1 *257:3 *771:B0 6.4000001
2 *257:4 *257:3 0.155957
3 *257:12 *257:4 3.2
4 *257:10 *779:B0 3.2
5 *257:11 *257:12 1.10312
6 *257:10 *257:6 0.155957
7 *257:6 *257:11 3.2
8 *257:6 *257:5 0.936035
9 *257:8 *257:5 0.183887
10 *257:8 *257:9 0.155957
11 *257:7 *257:9 0.183887
12 *784:Y *257:7 6.4000001
*END

*D_NET *258 0.004547

*CONN
*I *922:Y O *C 123.09 43.96 *L 0 *D MXI2X1
*I *784:AN I *C 108.57 37.8 *L 0.00218 *D NOR2BX1
*I *779:A1N I *C 111.21 33.32 *L 0.0024 *D AOI2BB1X1
*I *776:A1 I *C 115.17 37.24 *L 0.00324 *D OAI21XL

*CAP
1 *922:Y 0.000139842
2 *784:AN 3.98356e-05
3 *779:A1N 0.000212172
4 *776:A1 6.32997e-05
5 *258:4 0.000297771
6 *258:5 0.000297771
7 *258:6 0.000330897
8 *258:7 0.000330897
9 *258:8 0.000582468828
10 *258:9 0.000582468828
11 *258:10 0.000351117
12 *258:11 0.000351117
13 *258:12 0.000247501
14 *258:13 7.5165e-05
15 *258:14 5.09188e-05
16 *258:15 0.0001206
17 *258:6 *37:8 9.718e-05
18 *258:7 *37:9 9.718e-05
19 *258:6 *37:10 0.00012676
20 *258:7 *37:11 0.00012676
21 *258:6 *37:20 1.263e-05
22 *258:7 *37:19 1.26300034e-05

*RES
1 *258:15 *922:Y 3.2
2 *258:8 *258:15 3.2
3 *258:9 *258:8 2.20625
4 *258:10 *258:9 3.2
5 *258:14 *776:A1 6.4000001
6 *258:11 *258:10 1.24805
7 *258:6 *258:14 6.4000001
8 *258:6 *258:11 3.2
9 *258:13 *784:AN 0.223828
10 *258:7 *258:6 2.02246
11 *258:4 *258:13 3.2
12 *258:4 *258:7 3.2
13 *258:5 *258:4 1.24805
14 *258:12 *779:A1N 1.11914
15 *258:12 *258:5 3.2
*END

*D_NET *259 0.00396074

*CONN
*I *791:Y O *C 117.81 46.76 *L 0 *D AOI21X1
*I *779:A0N I *C 110.55 32.76 *L 0.00236 *D AOI2BB1X1
*I *777:C I *C 111.87 38.36 *L 0.00444 *D NAND3BX1

*CAP
1 *791:Y 6.32969e-05
2 *779:A0N 0.000139848
3 *777:C 8.34306e-05
4 *259:3 0.000188094
5 *259:4 0.000257778
6 *259:5 0.000228327
7 *259:6 0.000228327
8 *259:7 0.000340384
9 *259:8 0.000518703
10 *259:9 0.000191722
11 *259:10 0.000680436
12 *259:11 0.00075012
13 *259:12 0.000118765
14 *259:13 5.09122e-05
15 *259:14 0.000120596

*RES
1 *259:13 *791:Y 6.4000001
2 *259:14 *259:13 6.4000001
3 *777:C *259:12 0.447656
4 *259:10 *259:14 3.2
5 *259:3 *259:12 6.4000001
6 *259:11 *259:10 3.27598
7 *259:4 *259:3 0.936035
8 *259:7 *259:11 3.2
9 *259:8 *259:4 3.2
10 *259:8 *259:7 1.28701
11 *259:9 *259:8 0.735449
12 *259:5 *259:9 3.2
13 *259:6 *259:5 0.624023
14 *779:A0N *259:6 3.2
*END

*D_NET *260 0.0018236

*CONN
*I *780:Y O *C 123.75 36.68 *L 0 *D NAND2BX1
*I *778:B0 I *C 121.11 38.36 *L 0.00302 *D OAI21XL
*I *768:B0 I *C 123.09 32.2 *L 0.00302 *D OAI21XL

*CAP
1 *780:Y 0.000139839
2 *778:B0 6.33006e-05
3 *768:B0 0.000139839
4 *260:3 0.000148409
5 *260:4 0.000188667
6 *260:5 6.57172e-05
7 *260:6 0.00012642
8 *260:7 0.00012642
9 *260:8 0.000142102
10 *260:9 0.00020199
11 *260:10 0.00034884
12 *260:11 0.000132052

*RES
1 *260:8 *768:B0 3.2
2 *260:8 *260:9 0.183887
3 *260:11 *780:Y 3.2
4 *260:9 *260:10 0.77998
5 *260:10 *260:11 0.467969
6 *260:4 *260:10 0.367676
7 *260:4 *260:3 0.467969
8 *260:6 *260:3 0.183887
9 *260:6 *260:7 0.467969
10 *260:5 *260:7 0.183887
11 *778:B0 *260:5 6.4000001
*END

*D_NET *261 0.00341231

*CONN
*I *781:Y O *C 118.47 38.36 *L 0 *D NAND2X1
*I *777:AN I *C 111.21 37.24 *L 0.0024 *D NAND3BX1
*I *776:A0 I *C 115.83 37.24 *L 0.00336 *D OAI21XL
*I *775:A1 I *C 118.47 33.32 *L 0.00443 *D AOI21X1

*CAP
1 *781:Y 0.000139835
2 *777:AN 6.32961e-05
3 *776:A0 0.000139835
4 *775:A1 0.000139835
5 *261:4 0.000135383
6 *261:5 0.000190262
7 *261:6 0.00016852
8 *261:7 0.000109436
9 *261:8 5.51184e-05
10 *261:9 0.000129495
11 *261:10 7.4429e-05
12 *261:11 0.000328541
13 *261:12 0.00010598
14 *261:13 0.000159639
15 *261:14 0.00049032
16 *261:15 0.00014502
17 *261:16 0.000182361
18 *261:17 0.000244857
19 *261:17 *37:6 6.199e-05
20 *261:14 *37:7 6.199e-05
21 *261:17 *37:8 3.413e-05
22 *261:14 *37:9 3.413e-05
23 *261:14 *37:8 8.406e-05
24 *261:11 *37:9 8.406e-05
25 *261:14 *37:10 2.489e-05
26 *261:11 *37:11 2.48900024e-05

*RES
1 *261:5 *775:A1 3.2
2 *261:5 *261:4 0.467969
3 *261:16 *776:A0 3.2
4 *261:4 *261:7 0.183887
5 *261:8 *781:Y 3.2
6 *261:15 *261:16 0.367676
7 *261:7 *261:6 0.312012
8 *261:6 *261:8 0.155957
9 *261:13 *261:15 0.312012
10 *261:17 *261:6 3.2
11 *261:12 *777:AN 6.4000001
12 *261:14 *261:13 3.2
13 *261:14 *261:17 1.28701
14 *261:9 *261:12 0.367676
15 *261:11 *261:14 1.28701
16 *261:10 *261:9 0.312012
17 *261:10 *261:11 3.2
*END

*D_NET *262 0.00100798

*CONN
*I *776:Y O *C 116.49 38.92 *L 0 *D OAI21XL
*I *771:A0 I *C 115.17 32.76 *L 0.00314 *D AOI21XL

*CAP
1 *776:Y 0.000139839
2 *771:A0 0.000139839
3 *262:2 0.000274863
4 *262:3 0.0003005
5 *262:4 0.000152944

*RES
1 *262:4 *776:Y 3.20000005
2 *262:3 *262:4 0.551562
3 *262:2 *262:3 0.935986
4 *771:A0 *262:2 3.20000005
*END

*D_NET *263 0.00322513

*CONN
*I *980:B I *C 125.73 43.4 *L 0.00391 *D NAND2BX1
*I *777:Y O *C 112.53 38.92 *L 0 *D NAND3BX1
*I *774:A I *C 128.37 42.84 *L 0.00238 *D OR2XL

*CAP
1 *980:B 0.000139841
2 *777:Y 5.4915e-05
3 *774:A 3.98407e-05
4 *263:3 0.00064484
5 *263:4 0.00064484
6 *263:5 9.02392e-05
7 *263:6 0.000120604
8 *263:7 0.000260681
9 *263:8 0.000292109
10 *263:9 0.000141189
11 *263:10 0.000115566
12 *263:11 7.53027e-05
13 *263:12 0.000151707
14 *263:13 0.000142104
15 *263:3 *256:4 0.00015568
16 *263:4 *256:5 0.000155680002

*RES
1 *263:12 *774:A 0.223828
2 *263:13 *263:12 3.20000005
3 *263:11 *263:13 0.183838
4 *263:10 *263:11 0.156006
5 *263:9 *980:B 3.20000005
6 *263:8 *263:10 0.367725
7 *263:8 *263:9 0.312012
8 *263:7 *263:8 0.77998
9 *263:3 *263:7 3.20000005
10 *263:4 *263:3 3.12559
11 *263:6 *263:4 3.20000005
12 *263:5 *263:6 3.20000005
13 *777:Y *263:5 0.223828
*END

*D_NET *264 0.000856129

*CONN
*I *778:Y O *C 121.11 38.92 *L 0 *D OAI21XL
*I *775:B0 I *C 119.79 33.32 *L 0.00441 *D AOI21X1
*I *768:A1 I *C 121.77 33.32 *L 0.00324 *D OAI21XL

*CAP
1 *778:Y 6.33011e-05
2 *775:B0 6.33011e-05
3 *768:A1 3.98589e-05
4 *264:3 0.000112682
5 *264:4 7.51888e-05
6 *264:5 0.00027636
7 *264:6 0.000159722
8 *264:7 6.57175e-05

*RES
1 *264:7 *778:Y 6.4000001
2 *264:4 *768:A1 0.223828
3 *264:6 *264:7 0.183887
4 *264:5 *264:4 3.2
5 *264:5 *264:6 0.77998
6 *264:3 *264:5 0.367676
7 *775:B0 *264:3 6.4000001
*END

*D_NET *265 0.00149789

*CONN
*I *779:Y O *C 112.53 33.88 *L 0 *D AOI2BB1X1
*I *775:A0 I *C 119.13 33.88 *L 0.00465 *D AOI21X1
*I *771:A1 I *C 114.51 33.32 *L 0.00314 *D AOI21XL

*CAP
1 *779:Y 7.65434e-05
2 *775:A0 0.000139845
3 *771:A1 3.98589e-05
4 *265:3 0.00045723
5 *265:4 0.000387552
6 *265:5 0.000120602
7 *265:6 7.71573e-05
8 *265:7 7.85109e-05
9 *265:8 0.000120602

*RES
1 *265:8 *775:A0 3.20000005
2 *265:3 *265:8 3.20000005
3 *265:4 *265:3 1.65474
4 *265:6 *771:A1 0.223828
5 *265:5 *265:4 3.20000005
6 *265:6 *265:7 0.189893
7 *779:Y *265:5 3.20000005
8 *779:Y *265:7 0.223828
*END

*D_NET *266 0.000906038

*CONN
*I *774:Y O *C 130.35 42.28 *L 0 *D OR2XL
*I *772:D I *C 131.01 46.76 *L 0.00184 *D DFFRHQX1

*CAP
1 *774:Y 0.000139839
2 *772:D 6.32993e-05
3 *266:2 0.00016622
4 *266:3 0.00011134
5 *266:4 0.00022007
6 *266:5 0.000205268

*RES
1 *266:5 *772:D 6.4000001
2 *266:4 *266:5 0.77998
3 *266:3 *266:4 0.183887
4 *266:2 *266:3 0.467969
5 *774:Y *266:2 3.2
*END

*D_NET *267 0.00122746

*CONN
*I *771:Y O *C 116.49 33.88 *L 0 *D AOI21XL
*I *768:A0 I *C 122.43 33.32 *L 0.00336 *D OAI21XL

*CAP
1 *771:Y 0.000139843
2 *768:A0 6.33004e-05
3 *267:2 0.0001206
4 *267:3 0.00021694
5 *267:4 0.000225640137
6 *267:5 0.000139781
7 *267:6 0.0001206
8 *267:7 0.000200761

*RES
1 *267:6 *768:A0 6.4000001
2 *267:7 *267:6 3.2
3 *267:5 *267:7 0.551562
4 *267:4 *267:5 0.155957
5 *267:3 *267:4 1.10312
6 *267:2 *267:3 3.2
7 *771:Y *267:2 3.2
*END

*D_NET *268 0.00384892

*CONN
*I *775:Y O *C 119.79 33.88 *L 0 *D AOI21X1
*I *770:B0 I *C 125.07 47.88 *L 0.00451 *D AOI2BB2X1
*I *770:A0N I *C 123.09 47.88 *L 0.00239 *D AOI2BB2X1

*CAP
1 *775:Y 0.000139832
2 *770:B0 0.000139832
3 *770:A0N 6.33023e-05
4 *268:3 0.00104444
5 *268:4 0.000974763
6 *268:5 0.000120596
7 *268:6 0.000120596
8 *268:7 0.000166798
9 *268:8 5.09191e-05
10 *268:9 0.000276063
11 *268:10 0.000120596
12 *268:11 0.000192345
13 *268:11 *17:133 9.38e-05
14 *268:9 *17:134 9.38e-05
15 *268:9 *17:133 0.00012561
16 *268:7 *17:134 0.000125610004

*RES
1 *268:10 *770:B0 3.2
2 *268:8 *770:A0N 6.4000001
3 *268:11 *268:10 3.2
4 *268:9 *268:8 6.4000001
5 *268:9 *268:11 0.551562
6 *268:7 *268:9 0.735449
7 *268:3 *268:7 3.2
8 *268:4 *268:3 4.52402
9 *268:6 *268:4 3.2
10 *268:5 *268:6 3.2
11 *775:Y *268:5 3.2
*END

*D_NET *269 0.0015175

*CONN
*I *767:Y O *C 142.89 43.4 *L 0 *D OAI2BB2X1
*I *760:D I *C 144.21 33.88 *L 0.00184 *D DFFRHQX1

*CAP
1 *767:Y 0.000139835
2 *760:D 6.33028e-05
3 *269:2 0.000142101
4 *269:3 0.000553276
5 *269:4 0.0005734
6 *269:5 4.5585e-05

*RES
1 *269:5 *760:D 6.4000001
2 *269:3 *269:5 0.0918945
3 *269:3 *269:4 2.4751
4 *269:2 *269:4 0.183887
5 *767:Y *269:2 3.2
*END

*D_NET *270 0.00735816

*CONN
*I *770:Y O *C 125.73 47.88 *L 0 *D AOI2BB2X1
*I *769:A I *C 122.43 57.4 *L 0.00346 *D INVX1
*I *767:B0 I *C 144.21 43.4 *L 0.00464 *D OAI2BB2X1
*I *766:B I *C 123.75 63 *L 0.00385 *D NOR2X1
*I *763:B I *C 119.79 63.56 *L 0.00375 *D NAND2X1

*CAP
1 *770:Y 0.000139838
2 *769:A 0.000139838
3 *767:B0 0.000139838
4 *766:B 7.45905e-05
5 *763:B 0.000111886
6 *270:5 0.000198306
7 *270:6 0.000198306
8 *270:7 0.000486042
9 *270:8 0.000102481
10 *270:9 6.67651e-05
11 *270:10 6.67651e-05
12 *270:11 0.000389842
13 *270:12 0.000389842
14 *270:13 0.000111895
15 *270:14 0.000120592
16 *270:15 0.000405659
17 *270:16 0.000172474
18 *270:17 0.000172474
19 *270:18 0.000269006
20 *270:19 0.000318916
21 *270:20 0.000202668
22 *270:21 0.000139244
23 *270:22 0.00025188
24 *270:23 0.00057173
25 *270:24 0.00057173
26 *270:25 0.000291758
27 *270:9 *504:31 1.183e-05
28 *270:10 *504:32 1.183e-05
29 *270:11 *504:21 3.637e-05
30 *270:12 *504:22 3.637e-05
31 *270:13 *504:21 3.753e-05
32 *270:14 *504:22 3.753e-05
33 *270:11 *504:22 5.185e-05
34 *270:12 *504:23 5.185e-05
35 *270:15 *504:22 0.00013257
36 *270:7 *504:23 0.00013257
37 *270:16 *504:44 4.178e-05
38 *270:17 *504:43 4.178e-05
39 *270:5 *504:29 2.622e-05
40 *270:6 *504:18 2.622e-05
41 *270:18 *504:36 8.86e-06
42 *270:19 *504:35 8.86e-06
43 *270:19 *504:36 2.598e-05
44 *270:20 *504:35 2.59800073e-05
45 *270:9 *271:4 3.638e-05
46 *270:10 *271:5 3.638e-05
47 *270:18 *271:14 9.832e-05
48 *270:19 *271:13 9.832e-05
49 *270:19 *271:13 0.00011921
50 *270:20 *271:11 0.000119209998

*RES
1 *270:17 *767:B0 3.20000005
2 *270:17 *270:16 0.624023
3 *270:13 *270:16 3.20000005
4 *270:14 *270:13 0.551562
5 *270:14 *270:11 0.156006
6 *270:12 *270:11 2.2063
7 *270:5 *770:Y 3.20000005
8 *270:15 *270:12 0.156006
9 *270:6 *270:5 0.624023
10 *270:7 *270:15 2.39014
11 *270:7 *270:6 3.20000005
12 *270:8 *270:7 0.367725
13 *270:24 *270:8 3.20000005
14 *270:24 *270:23 2.33999
15 *270:9 *270:23 3.20000005
16 *270:10 *270:9 0.551562
17 *270:20 *270:10 3.20000005
18 *270:19 *769:A 3.20000005
19 *270:20 *270:19 0.935986
20 *270:21 *766:B 0.379834
21 *270:19 *270:18 1.248
22 *270:22 *270:21 0.447656
23 *270:22 *270:18 3.20000005
24 *270:25 *763:B 0.569727
25 *270:25 *270:22 0.895312
*END

*D_NET *271 0.0036228

*CONN
*I *769:Y O *C 123.09 57.96 *L 0 *D INVX1
*I *765:B I *C 117.81 63.56 *L 0.00375 *D NAND2X1
*I *764:A0 I *C 127.05 52.92 *L 0.00333 *D OAI22XL
*I *762:B I *C 121.77 63 *L 0.00385 *D NOR2X1

*CAP
1 *769:Y 3.98619e-05
2 *765:B 6.32963e-05
3 *764:A0 3.98399e-05
4 *762:B 6.32963e-05
5 *271:4 0.000291087
6 *271:5 0.000221413
7 *271:6 0.00024405
8 *271:7 0.000304472
9 *271:8 8.08355e-05
10 *271:9 9.00879e-05
11 *271:10 0.000120602
12 *271:11 0.000358969
13 *271:12 0.000154671
14 *271:13 0.00047933
15 *271:14 0.000210142
16 *271:15 7.71565e-05
17 *271:16 8.00968e-05
18 *271:17 7.51671e-05
19 *271:18 0.000120602
20 *271:4 *270:9 3.638e-05
21 *271:5 *270:10 3.638e-05
22 *271:14 *270:18 9.832e-05
23 *271:13 *270:19 9.832e-05
24 *271:13 *270:19 0.00011921
25 *271:11 *270:20 0.000119209998

*RES
1 *271:17 *764:A0 0.223828
2 *271:18 *271:17 3.2
3 *271:4 *271:18 3.2
4 *271:15 *769:Y 0.223828
5 *271:5 *271:4 1.28701
6 *271:15 *271:16 0.189941
7 *271:11 *271:5 3.2
8 *271:12 *271:16 0.223828
9 *271:11 *271:13 1.71602
10 *271:13 *271:12 3.2
11 *271:14 *762:B 6.4000001
12 *271:13 *271:14 1.09199
13 *271:8 *271:14 6.4000001
14 *271:9 *271:8 0.183887
15 *271:9 *271:6 0.155957
16 *271:7 *271:6 0.919238
17 *271:10 *271:7 3.2
18 *765:B *271:10 6.4000001
*END

*D_NET *272 0.00293846

*CONN
*I *764:Y O *C 126.39 51.8 *L 0 *D OAI22XL
*I *751:D I *C 111.21 52.36 *L 0.00206 *D DFFRX1

*CAP
1 *764:Y 0.000139838
2 *751:D 6.32981e-05
3 *272:2 0.000120601
4 *272:3 0.00052709
5 *272:4 0.00068513
6 *272:5 0.00053635
7 *272:6 0.000120601
8 *272:7 0.00074555

*RES
1 *272:6 *764:Y 3.2
2 *272:7 *272:6 3.2
3 *272:4 *272:7 2.9417
4 *272:4 *272:5 0.155957
5 *272:3 *272:5 1.28701
6 *272:2 *272:3 3.2
7 *751:D *272:2 6.4000001
*END

*D_NET *273 0.00686343

*CONN
*I *768:Y O *C 123.09 31.64 *L 0 *D OAI21XL
*I *766:A I *C 124.41 63.56 *L 0.0043 *D NOR2X1
*I *765:A I *C 118.47 63 *L 0.00403 *D NAND2X1
*I *763:A I *C 120.45 63 *L 0.00403 *D NAND2X1
*I *762:A I *C 122.43 63.56 *L 0.0043 *D NOR2X1
*I *759:A0 I *C 127.71 37.24 *L 0.00465 *D AOI22X1

*CAP
1 *768:Y 0.00017169
2 *766:A 6.32983e-05
3 *765:A 0.000139841
4 *763:A 0.000139841
5 *762:A 6.32983e-05
6 *759:A0 3.98516e-05
7 *273:6 0.000347261
8 *273:7 0.000295766
9 *273:8 0.000246892
10 *273:9 0.000246892
11 *273:10 0.000161247
12 *273:11 0.000395074
13 *273:12 0.000320613
14 *273:13 0.000132678
15 *273:14 0.000132678
16 *273:15 0.000150844
17 *273:16 0.00131108
18 *273:17 0.00131108
19 *273:18 0.000223025
20 *273:19 0.000279881
21 *273:20 0.000153344
22 *273:21 0.000283562
23 *273:22 0.000113433
24 *273:23 7.52018e-05
25 *273:24 6.50789e-05

*RES
1 *273:23 *759:A0 0.223828
2 *768:Y *273:21 0.671484
3 *273:24 *273:23 6.4000001
4 *273:7 *273:21 3.2
5 *273:22 *273:24 0.155957
6 *273:7 *273:6 0.624023
7 *273:6 *273:22 0.367676
8 *273:6 *273:10 0.467969
9 *273:8 *273:10 3.2
10 *273:9 *273:8 0.919238
11 *273:17 *273:9 3.2
12 *273:17 *273:16 5.92803
13 *273:13 *273:16 3.2
14 *273:20 *766:A 6.4000001
15 *273:14 *273:13 0.551562
16 *273:19 *762:A 6.4000001
17 *273:19 *273:20 0.551562
18 *273:12 *273:14 3.2
19 *273:15 *273:19 0.551562
20 *273:11 *763:A 3.2
21 *273:12 *273:11 0.936035
22 *273:11 *273:15 0.155957
23 *273:18 *273:11 0.551562
24 *765:A *273:18 3.2
*END

*D_NET *274 0.00100188

*CONN
*I *759:Y O *C 128.37 38.36 *L 0 *D AOI22X1
*I *752:A I *C 126.39 33.32 *L 0.0026 *D INVXL

*CAP
1 *759:Y 6.33016e-05
2 *752:A 0.000139839
3 *274:2 0.00020867
4 *274:3 0.00026373
5 *274:4 0.00011018
6 *274:5 0.00011018
7 *274:6 0.000105979

*RES
1 *274:6 *759:Y 6.4000001
2 *274:5 *274:6 0.367676
3 *274:4 *274:5 0.155957
4 *274:3 *274:4 0.367676
5 *274:2 *274:3 0.77998
6 *752:A *274:2 3.2
*END

*D_NET *275 0.0021928

*CONN
*I *809:Y O *C 98.67 49 *L 0 *D OAI22X1
*I *795:B I *C 99.99 52.92 *L 0.0041 *D NOR2BX1
*I *753:B I *C 99.33 57.4 *L 0.00439 *D NOR3X1
*I *743:B I *C 96.03 57.96 *L 0.00455 *D NAND3X1

*CAP
1 *809:Y 6.32965e-05
2 *795:B 0.00013984
3 *753:B 6.32965e-05
4 *743:B 0.00013984
5 *275:4 0.000278545
6 *275:5 0.000263743
7 *275:6 0.00018236
8 *275:7 0.000151743
9 *275:8 0.00011148
10 *275:9 0.000355717
11 *275:10 0.00044294

*RES
1 *275:5 *809:Y 6.4000001
2 *275:4 *795:B 3.2
3 *275:5 *275:4 1.09199
4 *275:9 *275:4 0.183887
5 *275:10 *753:B 6.4000001
6 *275:9 *275:10 1.24805
7 *275:7 *275:10 0.551562
8 *275:7 *275:8 0.155957
9 *275:6 *275:8 0.367676
10 *743:B *275:6 3.2
*END

*D_NET *276 0.000720923

*CONN
*I *752:Y O *C 127.05 33.88 *L 0 *D INVXL
*I *740:D I *C 129.03 33.88 *L 0.00184 *D DFFRHQX1

*CAP
1 *752:Y 0.000139838
2 *740:D 6.33e-05
3 *276:2 0.00017313
4 *276:3 0.00010345
5 *276:4 0.000120601
6 *276:5 0.000120601

*RES
1 *276:5 *740:D 6.4000001
2 *276:2 *276:5 3.2
3 *276:3 *276:2 0.551562
4 *276:4 *276:3 3.2
5 *752:Y *276:4 3.2
*END

*D_NET *277 0.00284838

*CONN
*I *806:Y O *C 90.09 74.2 *L 0 *D AOI21X1
*I *793:AN I *C 96.03 73.08 *L 0.00218 *D NOR2BX1
*I *749:B I *C 101.97 73.64 *L 0.00252 *D OR3XL
*I *742:B I *C 99.33 73.08 *L 0.00455 *D NAND3X1

*CAP
1 *806:Y 0.000139836
2 *793:AN 0.000139836
3 *749:B 6.33007e-05
4 *742:B 6.33007e-05
5 *277:4 0.000154928
6 *277:5 0.000182888
7 *277:6 0.000190934
8 *277:7 0.000120602
9 *277:8 0.000230972
10 *277:9 0.000123669
11 *277:10 0.000239671
12 *277:11 0.00020277
13 *277:12 0.000353869609
14 *277:13 0.00020277
15 *277:14 0.000252301
16 *277:15 0.000186733

*RES
1 *277:15 *749:B 6.4000001
2 *277:6 *277:15 0.735449
3 *277:4 *742:B 6.4000001
4 *277:4 *277:6 0.155957
5 *277:13 *793:AN 3.2
6 *277:5 *277:4 0.467969
7 *277:11 *277:13 0.467969
8 *277:14 *277:5 3.2
9 *277:12 *277:11 3.2
10 *277:12 *277:14 0.919238
11 *277:9 *277:12 0.551562
12 *277:9 *277:10 0.155957
13 *277:8 *277:10 0.919238
14 *277:7 *277:8 3.2
15 *806:Y *277:7 3.2
*END

*D_NET *278 0.00428737

*CONN
*I *812:Y O *C 103.95 102.76 *L 0 *D AOI22X1
*I *790:AN I *C 104.61 87.64 *L 0.0022 *D NOR2BXL
*I *748:C I *C 107.91 93.8 *L 0.00437 *D NAND3X1
*I *745:D I *C 107.25 87.64 *L 0.0031 *D NAND4XL

*CAP
1 *812:Y 6.33008e-05
2 *790:AN 0.000139838
3 *748:C 0.000139838
4 *745:D 0.000139838
5 *278:4 0.00057259
6 *278:5 0.000481287
7 *278:6 0.000403517
8 *278:7 0.000388585
9 *278:8 0.00016563
10 *278:9 0.000139795
11 *278:10 0.000330212
12 *278:11 0.000321982
13 *278:12 0.000250931
14 *278:13 7.2169e-05
15 *278:14 0.000250931
16 *278:11 *229:8 0.00019876
17 *278:10 *229:9 0.00019876
18 *278:11 *229:10 1.471e-05
19 *278:10 *229:11 1.47100057e-05

*RES
1 *278:7 *745:D 3.2
2 *278:7 *278:6 1.404
3 *278:6 *278:13 0.183887
4 *278:9 *748:C 3.2
5 *278:13 *278:9 0.155957
6 *278:9 *278:8 0.467969
7 *278:14 *278:8 3.2
8 *278:5 *790:AN 3.2
9 *278:12 *278:14 0.919238
10 *278:5 *278:4 2.18398
11 *278:4 *278:12 3.2
12 *278:11 *812:Y 6.4000001
13 *278:10 *278:4 0.183887
14 *278:10 *278:11 2.02803
*END

*D_NET *279 0.00320348

*CONN
*I *810:Y O *C 106.59 102.2 *L 0 *D OAI22X1
*I *797:A I *C 106.59 93.8 *L 0.0043 *D NOR2X1
*I *748:B I *C 108.57 93.24 *L 0.00455 *D NAND3X1
*I *741:AN I *C 102.63 93.8 *L 0.0024 *D NAND3BX1

*CAP
1 *810:Y 0.000139842
2 *797:A 6.32957e-05
3 *748:B 0.000139842
4 *741:AN 6.32957e-05
5 *279:4 0.000120601
6 *279:5 0.000321621
7 *279:6 0.00057813
8 *279:7 0.000321789
9 *279:8 0.000508447
10 *279:9 0.000110942
11 *279:10 6.03492e-05
12 *279:11 0.000120601
13 *279:12 0.000171361
14 *279:10 *336:11 3.182e-05
15 *279:7 *336:12 3.182e-05
16 *279:7 *336:11 0.00012561
17 *279:5 *336:12 0.00012561
18 *279:7 *336:12 6.262e-05
19 *279:5 *336:13 6.262e-05
20 *279:12 *336:11 2.163e-05
21 *279:9 *336:12 2.16300181e-05

*RES
1 *279:11 *748:B 3.2
2 *279:12 *279:11 3.2
3 *279:9 *279:12 0.367676
4 *279:8 *810:Y 3.2
5 *279:9 *279:10 0.155957
6 *279:6 *797:A 6.4000001
7 *279:6 *279:8 2.34004
8 *279:7 *279:10 0.183887
9 *279:7 *279:6 3.2
10 *279:5 *279:7 1.10312
11 *279:4 *279:5 3.2
12 *741:AN *279:4 6.4000001
*END

*D_NET *280 0.0106777

*CONN
*I *980:AN I *C 125.07 41.16 *L 0.0021 *D NAND2BX1
*I *944:Y O *C 132.33 43.96 *L 0 *D NOR2BX1
*I *774:B I *C 129.03 42.28 *L 0.00256 *D OR2XL
*I *755:B I *C 111.87 73.08 *L 0.00385 *D NOR2X1
*I *754:B I *C 110.55 57.96 *L 0.00385 *D NOR2X1
*I *747:B I *C 111.21 78.12 *L 0.00385 *D NOR2X1
*I *746:B I *C 117.81 78.12 *L 0.00385 *D NOR2X1

*CAP
1 *980:AN 6.32968e-05
2 *944:Y 7.45744e-05
3 *774:B 6.32968e-05
4 *755:B 0.000139837
5 *754:B 6.52628e-05
6 *747:B 0.000139837
7 *746:B 0.000139837
8 *280:7 0.00104743
9 *280:8 0.000801613
10 *280:9 0.000433493
11 *280:10 0.000111957
12 *280:11 0.000181671
13 *280:12 0.000218644
14 *280:13 0.000288303
15 *280:14 0.000471476
16 *280:15 0.000471476
17 *280:16 0.000333769
18 *280:17 0.000160099
19 *280:18 0.000169847
20 *280:19 0.000257365
21 *280:20 0.00019811
22 *280:21 0.000106796
23 *280:22 0.000155265
24 *280:23 0.00109792
25 *280:24 0.000201878
26 *280:25 0.000120613
27 *280:26 0.000120613
28 *280:27 0.00178954
29 *280:28 0.000120613
30 *280:29 0.000774689
31 *280:30 0.000120613
32 *280:31 0.000117282
33 *280:32 0.000120613

*RES
1 *280:12 *746:B 3.2
2 *280:13 *280:12 0.77998
3 *280:14 *280:13 3.2
4 *280:31 *944:Y 0.379785
5 *280:15 *280:14 1.83857
6 *280:18 *747:B 3.2
7 *280:10 *774:B 6.4000001
8 *280:32 *280:31 3.2
9 *280:16 *280:15 3.2
10 *280:16 *280:18 0.77998
11 *280:11 *280:10 0.312012
12 *280:19 *280:32 3.2
13 *280:17 *280:16 0.624023
14 *280:30 *980:AN 6.4000001
15 *280:9 *280:11 3.2
16 *280:9 *280:19 1.10312
17 *280:20 *755:B 3.2
18 *280:17 *280:20 0.183887
19 *280:7 *280:30 3.2
20 *280:7 *280:9 1.10312
21 *280:21 *280:20 0.624023
22 *280:8 *280:7 3.67715
23 *280:28 *280:21 3.2
24 *280:23 *280:8 3.2
25 *280:29 *280:28 3.2
26 *280:23 *280:27 4.99199
27 *280:27 *280:29 3.27598
28 *280:26 *280:27 3.2
29 *280:25 *280:26 3.2
30 *280:24 *280:25 3.2
31 *280:22 *280:24 0.447656
32 *754:B *280:22 0.332324
*END

*D_NET *281 0.00104502

*CONN
*I *745:Y O *C 108.57 87.08 *L 0 *D NAND4XL
*I *733:B0 I *C 111.87 88.76 *L 0.00302 *D OAI21XL

*CAP
1 *745:Y 0.000139841
2 *733:B0 6.33024e-05
3 *281:2 0.0001206
4 *281:3 0.00033518
5 *281:4 0.0001206
6 *281:5 0.0002655

*RES
1 *281:4 *733:B0 6.4000001
2 *281:5 *281:4 3.2
3 *281:3 *281:5 0.919238
4 *281:2 *281:3 3.2
5 *745:Y *281:2 3.2
*END

*D_NET *282 0.00177482

*CONN
*I *750:Y O *C 120.45 84.84 *L 0 *D NAND3X1
*I *744:A I *C 114.51 83.72 *L 0.00346 *D INVX1
*I *732:A1 I *C 115.83 83.72 *L 0.00314 *D AOI21XL

*CAP
1 *750:Y 0.000139838
2 *744:A 0.000139838
3 *732:A1 0.000139838
4 *282:3 0.000182622
5 *282:4 0.000112942
6 *282:5 0.000212969
7 *282:6 0.000256601
8 *282:7 0.00018727
9 *282:8 0.0001206
10 *282:9 0.0002823

*RES
1 *282:8 *750:Y 3.20000005
2 *282:9 *282:8 3.20000005
3 *282:6 *282:9 0.919287
4 *282:6 *282:7 0.312012
5 *282:5 *282:7 0.367725
6 *282:4 *732:A1 3.20000005
7 *282:4 *282:5 3.20000005
8 *282:3 *282:4 0.367725
9 *744:A *282:3 3.20000005
*END

*D_NET *283 0.00134224

*CONN
*I *744:Y O *C 115.17 83.16 *L 0 *D INVX1
*I *721:A0 I *C 111.87 84.28 *L 0.00483 *D AOI211X1

*CAP
1 *744:Y 0.000139839
2 *721:A0 0.000139839
3 *283:2 0.000222521
4 *283:3 0.000152839
5 *283:4 0.00031814
6 *283:5 0.0001206
7 *283:6 0.000248458

*RES
1 *283:5 *744:Y 3.20000005
2 *283:6 *283:5 3.20000005
3 *283:2 *721:A0 3.20000005
4 *283:4 *283:6 0.919287
5 *283:3 *283:2 0.468018
6 *283:3 *283:4 3.20000005
*END

*D_NET *284 0.000996992

*CONN
*I *739:Y O *C 101.97 76.44 *L 0 *D AND4X2
*I *725:C0 I *C 103.95 83.16 *L 0.00438 *D AOI211X1

*CAP
1 *739:Y 4.12082e-05
2 *725:C0 0.000139843
3 *284:2 0.00022404
4 *284:3 0.00022404
5 *284:4 0.000153079
6 *284:5 0.000142229
7 *284:6 7.25502e-05

*RES
1 *284:6 *725:C0 3.20000005
2 *284:2 *284:6 0.183838
3 *284:3 *284:2 1.09199
4 *284:5 *284:3 0.183838
5 *284:4 *284:5 3.20000005
6 *739:Y *284:4 0.223828
*END

*D_NET *285 0.00157624

*CONN
*I *743:Y O *C 97.35 56.28 *L 0 *D NAND3X1
*I *738:A I *C 99.33 63.56 *L 0.00346 *D INVX1
*I *727:A0 I *C 95.37 62.44 *L 0.00365 *D OAI222XL

*CAP
1 *743:Y 6.33005e-05
2 *738:A 0.000139837
3 *727:A0 0.000139837
4 *285:3 0.000209758
5 *285:4 0.000184123
6 *285:5 0.000129304
7 *285:6 0.0003387
8 *285:7 0.000233346
9 *285:8 0.000138028

*RES
1 *285:8 *738:A 3.2
2 *285:5 *743:Y 6.4000001
3 *285:7 *285:8 0.77998
4 *285:4 *727:A0 3.2
5 *285:5 *285:6 0.624023
6 *285:6 *285:7 0.551562
7 *285:3 *285:4 0.467969
8 *285:3 *285:6 0.551562
*END

*D_NET *286 0.00170949

*CONN
*I *738:Y O *C 99.99 63 *L 0 *D INVX1
*I *722:A0 I *C 107.25 64.12 *L 0.00483 *D AOI211X1

*CAP
1 *738:Y 3.72997e-05
2 *722:A0 0.000139841
3 *286:2 0.00021127
4 *286:3 0.00021127
5 *286:4 0.00045461
6 *286:5 0.00045461
7 *286:6 7.99894e-05
8 *286:7 0.000120598

*RES
1 *286:2 *722:A0 3.20000005
2 *286:3 *286:2 0.624023
3 *286:4 *286:3 3.20000005
4 *286:5 *286:4 2.02241
5 *286:7 *286:5 3.20000005
6 *286:6 *286:7 3.20000005
7 *286:6 *738:Y 0.189893
*END

*D_NET *287 0.00150423

*CONN
*I *741:Y O *C 103.95 92.12 *L 0 *D NAND3BX1
*I *737:A I *C 100.65 87.64 *L 0.00346 *D INVX1
*I *728:A1 I *C 101.97 87.64 *L 0.00314 *D AOI21XL

*CAP
1 *741:Y 0.000139839
2 *737:A 0.000139839
3 *728:A1 6.3302e-05
4 *287:3 0.000182588
5 *287:4 0.000356792
6 *287:5 0.00039052
7 *287:6 0.000163532
8 *287:7 6.78129e-05

*RES
1 *287:7 *741:Y 3.2
2 *287:6 *287:7 0.155957
3 *287:5 *287:6 0.551562
4 *287:4 *728:A1 6.4000001
5 *287:4 *287:5 1.09199
6 *287:3 *287:4 0.367676
7 *737:A *287:3 3.2
*END

*D_NET *288 0.000804191

*CONN
*I *737:Y O *C 101.31 88.2 *L 0 *D INVX1
*I *725:A0 I *C 103.29 84.28 *L 0.00483 *D AOI211X1

*CAP
1 *737:Y 6.3298e-05
2 *725:A0 3.73006e-05
3 *288:2 6.58496e-05
4 *288:3 0.000110441
5 *288:4 7.00506e-05
6 *288:5 7.99912e-05
7 *288:6 0.00019581
8 *288:7 0.00018145

*RES
1 *725:A0 *288:5 0.189941
2 *288:6 *288:5 3.2
3 *288:6 *288:7 0.467969
4 *288:3 *288:7 0.367676
5 *288:3 *288:4 0.155957
6 *288:2 *288:4 0.183887
7 *737:Y *288:2 6.4000001
*END

*D_NET *289 0.00172534

*CONN
*I *736:Y O *C 127.05 61.88 *L 0 *D OAI21XL
*I *730:B0 I *C 130.35 52.92 *L 0.00343 *D OAI2BB1X1

*CAP
1 *736:Y 6.32988e-05
2 *730:B0 0.000139841
3 *289:2 0.00027414
4 *289:3 0.000218823
5 *289:4 0.000151019
6 *289:5 0.000151019
7 *289:6 0.0001326
8 *289:7 0.000187922
9 *289:3 *329:5 0.00012287
10 *289:2 *329:6 0.000122870002
11 *289:3 *314:8 8.047e-05
12 *289:2 *314:9 8.0469997e-05

*RES
1 *289:6 *730:B0 3.2
2 *289:6 *289:7 0.624023
3 *289:4 *289:7 0.367676
4 *289:4 *289:5 0.312012
5 *289:3 *736:Y 6.4000001
6 *289:2 *289:5 0.367676
7 *289:2 *289:3 1.55996
*END

*D_NET *290 0.00324722

*CONN
*I *735:Y O *C 107.91 79.24 *L 0 *D OAI33X1
*I *722:C0 I *C 107.91 63 *L 0.00438 *D AOI211X1

*CAP
1 *735:Y 0.000139839
2 *722:C0 6.33006e-05
3 *290:2 0.000105787
4 *290:3 0.000175475
5 *290:4 0.00015259
6 *290:5 8.29102e-05
7 *290:6 0.000490811
8 *290:7 0.000435929
9 *290:8 0.00050615
10 *290:9 0.00050615
11 *290:10 0.0001206
12 *290:11 0.000200985
13 *290:12 0.000146095
14 *290:13 0.0001206

*RES
1 *290:13 *735:Y 3.2
2 *290:4 *290:13 3.2
3 *290:5 *290:4 0.183887
4 *290:6 *290:5 3.2
5 *290:7 *290:6 1.71602
6 *290:8 *290:7 0.183887
7 *290:9 *290:8 2.34004
8 *290:9 *290:12 0.183887
9 *290:11 *290:12 0.467969
10 *290:2 *290:11 3.2
11 *290:3 *290:2 0.367676
12 *290:10 *290:3 3.2
13 *722:C0 *290:10 6.4000001
*END

*D_NET *291 0.00162106

*CONN
*I *753:Y O *C 99.33 56.84 *L 0 *D NOR3X1
*I *734:A I *C 103.95 63 *L 0.00319 *D AND2X2
*I *707:A0 I *C 101.31 64.12 *L 0.00483 *D AOI211X1

*CAP
1 *753:Y 0.000139839
2 *734:A 6.32989e-05
3 *707:A0 6.32989e-05
4 *291:3 0.00043365
5 *291:4 0.00019306
6 *291:5 0.000142201
7 *291:6 0.000185225
8 *291:7 0.00020771
9 *291:8 0.000126922
10 *291:9 6.58531e-05

*RES
1 *291:9 *734:A 6.4000001
2 *291:8 *291:9 0.183887
3 *291:7 *291:8 0.467969
4 *291:6 *707:A0 6.4000001
5 *291:3 *291:7 0.551562
6 *291:3 *291:6 0.77998
7 *291:4 *291:3 0.624023
8 *291:5 *291:4 0.183887
9 *753:Y *291:5 3.2
*END

*D_NET *292 0.000850701

*CONN
*I *734:Y O *C 105.93 62.44 *L 0 *D AND2X2
*I *724:D I *C 106.59 68.6 *L 0.00407 *D OR4X2

*CAP
1 *734:Y 0.000139838
2 *724:D 0.000139838
3 *292:2 0.000163802
4 *292:3 0.000109051
5 *292:4 0.000121711
6 *292:5 0.00017646

*RES
1 *292:5 *724:D 3.20000005
2 *292:4 *292:5 0.624023
3 *292:3 *292:4 0.183838
4 *292:2 *292:3 0.468018
5 *734:Y *292:2 3.20000005
*END

*D_NET *293 0.0030519

*CONN
*I *916:Y O *C 111.87 92.12 *L 0 *D OAI22XL
*I *733:A1 I *C 110.55 87.64 *L 0.00324 *D OAI21XL
*I *725:A1 I *C 102.63 83.16 *L 0.00472 *D AOI211X1

*CAP
1 *916:Y 0.000139839
2 *733:A1 0.000139839
3 *725:A1 0.000139839
4 *293:3 0.000114011
5 *293:4 0.000114011
6 *293:5 0.000250171
7 *293:6 0.000206157
8 *293:7 0.00039228
9 *293:8 0.00046196
10 *293:9 0.000142017
11 *293:10 0.000110966
12 *293:11 0.000110966
13 *293:12 0.0001251
14 *293:13 0.00011017
15 *293:7 *306:4 0.00024728
16 *293:8 *306:5 0.000247280003

*RES
1 *293:13 *916:Y 3.20000005
2 *293:12 *293:13 0.312012
3 *293:11 *293:12 0.183838
4 *293:10 *293:11 0.312012
5 *293:9 *293:10 0.183838
6 *293:5 *733:A1 3.20000005
7 *293:5 *293:9 0.624023
8 *293:6 *293:5 0.624023
9 *293:7 *293:6 3.20000005
10 *293:8 *293:7 2.2063
11 *293:3 *293:8 3.20000005
12 *293:4 *293:3 0.624023
13 *725:A1 *293:4 3.20000005
*END

*D_NET *294 0.00290313

*CONN
*I *748:Y O *C 109.89 94.92 *L 0 *D NAND3X1
*I *733:A0 I *C 111.21 87.64 *L 0.00336 *D OAI21XL
*I *728:A0 I *C 102.63 88.2 *L 0.00314 *D AOI21XL

*CAP
1 *748:Y 0.000139838
2 *733:A0 7.45915e-05
3 *728:A0 0.000139838
4 *294:3 0.000159432
5 *294:4 0.000159432
6 *294:5 0.000154849
7 *294:6 0.000309938789
8 *294:7 0.00017519
9 *294:8 0.000139327
10 *294:9 7.89094e-05
11 *294:10 0.000181962
12 *294:11 9.30597e-05
13 *294:12 0.000181962
14 *294:13 0.000123919
15 *294:14 0.000153482
16 *294:15 0.000163182
17 *294:12 *169:13 8.081e-05
18 *294:10 *169:14 8.081e-05
19 *294:14 *169:13 6.232e-05
20 *294:11 *169:14 6.232e-05
21 *294:9 *169:13 3.131e-05
22 *294:8 *169:14 3.131e-05
23 *294:3 *169:15 6.267e-05
24 *294:4 *169:16 6.26699949e-05

*RES
1 *733:A0 *294:15 0.379785
2 *294:13 *294:15 0.447656
3 *294:7 *294:13 6.4000001
4 *294:5 *748:Y 3.2
5 *294:7 *294:6 0.467969
6 *294:6 *294:5 0.624023
7 *294:14 *294:6 3.2
8 *294:11 *294:14 0.367676
9 *294:11 *294:12 0.155957
10 *294:10 *294:12 1.28701
11 *294:9 *294:10 0.155957
12 *294:8 *294:9 0.367676
13 *294:3 *294:8 3.2
14 *294:4 *294:3 0.624023
15 *728:A0 *294:4 3.2
*END

*D_NET *295 0.000870781

*CONN
*I *733:Y O *C 111.87 89.32 *L 0 *D OAI21XL
*I *721:C0 I *C 112.53 83.16 *L 0.00438 *D AOI211X1

*CAP
1 *733:Y 0.000139843
2 *721:C0 6.3299e-05
3 *295:2 0.000202093
4 *295:3 0.00027177
5 *295:3 *312:5 9.689e-05
6 *295:2 *312:6 9.68900015e-05

*RES
1 *295:3 *733:Y 3.2
2 *295:2 *295:3 0.936035
3 *721:C0 *295:2 6.4000001
*END

*D_NET *296 0.00427696

*CONN
*I *732:Y O *C 117.81 84.28 *L 0 *D AOI21XL
*I *724:B I *C 104.61 66.36 *L 0.00412 *D OR4X2

*CAP
1 *732:Y 0.000139839
2 *724:B 0.000139839
3 *296:2 8.49668e-05
4 *296:3 8.49668e-05
5 *296:4 0.000709939
6 *296:5 0.000709939
7 *296:6 0.000237304
8 *296:7 0.000306977
9 *296:8 0.00071849
10 *296:9 0.00071849
11 *296:10 0.000120609
12 *296:8 *303:6 1.629e-05
13 *296:9 *303:7 1.629e-05
14 *296:8 *303:8 0.00013651
15 *296:9 *303:9 0.000136509997

*RES
1 *296:6 *732:Y 3.20002
2 *296:7 *296:6 0.779981
3 *296:4 *296:7 3.20002
4 *296:5 *296:4 3.49326
5 *296:8 *296:5 3.20002
6 *296:9 *296:8 3.74399996
7 *296:2 *296:9 3.20002
8 *296:3 *296:2 0.183841
9 *296:10 *296:3 3.20002
10 *724:B *296:10 3.20002
*END

*D_NET *297 0.00448071

*CONN
*I *761:Y O *C 98.01 88.2 *L 0 *D INVX1
*I *747:A I *C 111.87 77.56 *L 0.0043 *D NOR2X1
*I *735:B0 I *C 107.25 78.68 *L 0.00507 *D OAI33X1
*I *731:B0 I *C 99.33 83.72 *L 0.00457 *D OAI22X1
*I *681:B I *C 95.37 88.2 *L 0.00385 *D NOR2X1

*CAP
1 *761:Y 0.000117028
2 *747:A 6.33e-05
3 *735:B0 6.33e-05
4 *731:B0 0.000139841
5 *681:B 7.45912e-05
6 *297:5 0.000201496
7 *297:6 0.000401333
8 *297:7 0.000257451
9 *297:8 0.00020092
10 *297:9 0.000263665
11 *297:10 0.00033584
12 *297:11 0.00025714
13 *297:12 0.000443627969
14 *297:13 0.000383212
15 *297:14 0.000268302
16 *297:15 0.00023101
17 *297:16 7.99932e-05
18 *297:17 0.000117028
19 *297:18 0.000138995
20 *297:19 6.93112e-05
21 *297:20 0.000120602
22 *297:8 *244:5 9.515e-05
23 *297:9 *244:3 9.515e-05
24 *297:12 *244:7 3.122e-05
25 *297:13 *244:4 3.12200071e-05

*RES
1 *297:20 *747:A 6.4000001
2 *297:19 *735:B0 6.4000001
3 *297:12 *297:20 3.2
4 *297:18 *297:19 0.155957
5 *297:13 *297:12 1.28701
6 *297:8 *297:18 3.2
7 *297:13 *297:8 0.155957
8 *297:9 *297:8 0.919238
9 *297:9 *297:10 0.467969
10 *297:11 *297:10 1.28701
11 *297:7 *297:11 3.2
12 *297:6 *731:B0 3.2
13 *297:7 *297:6 1.09199
14 *297:6 *297:5 0.936035
15 *297:16 *297:5 6.4000001
16 *297:16 *297:17 0.189941
17 *761:Y *297:17 0.447656
18 *761:Y *297:15 0.189941
19 *297:14 *297:15 0.895312
20 *681:B *297:14 0.379785
*END

*D_NET *298 0.00246923

*CONN
*I *742:Y O *C 100.65 74.76 *L 0 *D NAND3X1
*I *731:A0 I *C 100.65 83.16 *L 0.00456 *D OAI22X1
*I *729:A1 I *C 100.65 67.48 *L 0.00314 *D AOI21XL

*CAP
1 *742:Y 0.000203145
2 *731:A0 6.32975e-05
3 *729:A1 0.000139837
4 *298:3 0.000337229
5 *298:4 0.000337229
6 *298:5 6.58194e-05
7 *298:6 6.58194e-05
8 *298:7 0.00062842
9 *298:8 0.00062842

*RES
1 *298:6 *731:A0 6.4000001
2 *298:6 *298:8 0.183887
3 *298:7 *298:8 2.34004
4 *298:5 *298:7 0.183887
5 *742:Y *298:5 6.4000001
6 *298:4 *742:Y 3.2
7 *298:3 *298:4 1.404
8 *729:A1 *298:3 3.2
*END

*D_NET *299 0.000981602

*CONN
*I *731:Y O *C 99.99 82.04 *L 0 *D OAI22X1
*I *725:B0 I *C 104.61 82.6 *L 0.00492 *D AOI211X1

*CAP
1 *731:Y 0.00013984
2 *725:B0 0.00013984
3 *299:2 0.00023036
4 *299:3 0.00023036
5 *299:4 0.000120602
6 *299:5 0.000120602

*RES
1 *299:5 *725:B0 3.20000005
2 *299:2 *299:5 3.20000005
3 *299:3 *299:2 0.735449
4 *299:4 *299:3 3.20000005
5 *731:Y *299:4 3.20000005
*END

*D_NET *300 0.00075028

*CONN
*I *730:Y O *C 131.67 51.8 *L 0 *D OAI2BB1X1
*I *726:D I *C 133.65 54.04 *L 0.00184 *D DFFRHQX1

*CAP
1 *730:Y 0.00013984
2 *726:D 6.32992e-05
3 *300:2 0.00021327
4 *300:3 0.000187232
5 *300:4 0.000146638

*RES
1 *300:4 *726:D 6.4000001
2 *300:2 *300:4 0.551562
3 *300:3 *300:2 0.467969
4 *730:Y *300:3 3.2
*END

*D_NET *301 0.00280152

*CONN
*I *749:Y O *C 103.95 72.52 *L 0 *D OR3XL
*I *729:A0 I *C 101.31 68.04 *L 0.00314 *D AOI21XL
*I *727:C1 I *C 97.35 63 *L 0.00343 *D OAI222XL

*CAP
1 *749:Y 0.000139837
2 *729:A0 0.000139837
3 *727:C1 0.000139837
4 *301:3 0.000409849609
5 *301:4 0.000298649
6 *301:5 0.000202883
7 *301:6 0.000202883
8 *301:7 0.00011444
9 *301:8 7.40525e-05
10 *301:9 0.000209212
11 *301:10 0.000103959
12 *301:11 0.000144353
13 *301:12 0.000309431
14 *301:13 0.00023975
15 *301:14 7.25515e-05

*RES
1 *301:14 *749:Y 3.20000005
2 *301:10 *301:14 0.183838
3 *301:11 *301:10 0.312012
4 *301:7 *301:11 0.367725
5 *301:8 *301:7 0.156006
6 *301:9 *301:8 0.183838
7 *301:3 *729:A0 3.20000005
8 *301:3 *301:9 0.624023
9 *301:4 *301:3 0.77998
10 *301:13 *301:4 3.20000005
11 *301:12 *301:13 1.10312
12 *301:5 *301:12 3.20000005
13 *301:6 *301:5 0.624023
14 *727:C1 *301:6 3.20000005
*END

*D_NET *302 0.00015946

*CONN
*I *729:Y O *C 102.63 66.92 *L 0 *D AOI21XL
*I *724:A I *C 103.95 67.48 *L 0.00429 *D OR4X2

*CAP
1 *729:Y 7.973e-05
2 *724:A 7.973e-05

*RES
1 *729:Y *724:A 0.447652
*END

*D_NET *303 0.0039045

*CONN
*I *728:Y O *C 103.95 87.08 *L 0 *D AOI21XL
*I *724:C I *C 105.27 68.04 *L 0.004 *D OR4X2

*CAP
1 *728:Y 0.000139844
2 *724:C 0.000139844
3 *303:2 0.00010907
4 *303:3 0.00010907
5 *303:4 0.000216486
6 *303:5 0.000286169
7 *303:6 0.00053967
8 *303:7 0.00053967
9 *303:8 0.000444558
10 *303:9 0.000499443
11 *303:10 0.000194383
12 *303:11 0.000139506
13 *303:12 0.000120599
14 *303:13 0.000120599
15 *303:6 *296:8 1.629e-05
16 *303:7 *296:9 1.629e-05
17 *303:8 *296:8 0.00013651
18 *303:9 *296:9 0.000136509997

*RES
1 *303:13 *724:C 3.20000005
2 *303:3 *303:13 3.20000005
3 *303:3 *303:2 0.367725
4 *303:9 *303:2 3.20000005
5 *303:9 *303:8 2.652
6 *303:8 *303:7 0.183838
7 *303:7 *303:6 2.652
8 *303:11 *303:6 0.183838
9 *303:11 *303:10 0.468018
10 *303:4 *303:10 3.20000005
11 *303:5 *303:4 0.735449
12 *303:12 *303:5 3.20000005
13 *728:Y *303:12 3.20000005
*END

*D_NET *304 0.00350726

*CONN
*I *917:Y O *C 102.63 51.8 *L 0 *D OAI22X1
*I *727:A1 I *C 96.03 63 *L 0.00354 *D OAI222XL
*I *707:A1 I *C 100.65 63 *L 0.00472 *D AOI211X1

*CAP
1 *917:Y 0.000139832
2 *727:A1 0.000139832
3 *707:A1 0.000139832
4 *304:3 0.00018387
5 *304:4 0.000114188
6 *304:5 0.000281168
7 *304:6 0.000281168
8 *304:7 0.000158706
9 *304:8 8.90233e-05
10 *304:9 0.00082789
11 *304:10 0.00082789
12 *304:11 0.000101618
13 *304:12 0.000101618
14 *304:13 0.000120593

*RES
1 *304:13 *917:Y 3.20001
2 *304:11 *304:13 3.20001
3 *304:12 *304:11 0.551594
4 *304:4 *707:A1 3.20001
5 *304:10 *304:12 3.20001
6 *304:4 *304:3 0.31201
7 *304:10 *304:9 3.43199992
8 *304:5 *304:3 3.20001
9 *304:5 *304:9 3.20001
10 *304:6 *304:5 1.287
11 *304:7 *304:6 3.20001
12 *304:8 *304:7 0.31201
13 *727:A1 *304:8 3.20001
*END

*D_NET *305 0.000913359

*CONN
*I *727:Y O *C 95.37 61.88 *L 0 *D OAI222XL
*I *707:C0 I *C 101.97 63 *L 0.00438 *D AOI211X1

*CAP
1 *727:Y 6.32969e-05
2 *707:C0 6.32969e-05
3 *305:2 0.00027278
4 *305:3 0.00027278
5 *305:4 0.0001206
6 *305:5 0.0001206

*RES
1 *305:5 *707:C0 6.4000001
2 *305:2 *305:5 3.2
3 *305:3 *305:2 0.919238
4 *305:4 *305:3 3.2
5 *727:Y *305:4 6.4000001
*END

*D_NET *306 0.00323721

*CONN
*I *725:Y O *C 103.95 84.84 *L 0 *D AOI211X1
*I *723:C0 I *C 118.47 88.2 *L 0.00329 *D OAI221XL

*CAP
1 *725:Y 0.000139845
2 *723:C0 3.98348e-05
3 *306:2 0.000200715
4 *306:3 0.000131042
5 *306:4 0.00058389
6 *306:5 0.00058389
7 *306:6 0.000172873
8 *306:7 0.000187796
9 *306:8 7.51702e-05
10 *306:9 6.58508e-05
11 *306:4 *239:5 0.00012591
12 *306:5 *239:6 0.000125910005
13 *306:4 *309:4 0.00015496
14 *306:5 *309:5 0.000154960002
15 *306:4 *293:7 0.00024728
16 *306:5 *293:8 0.000247280003

*RES
1 *306:8 *723:C0 0.223828
2 *306:9 *306:8 6.4000001
3 *306:7 *306:9 0.183887
4 *306:6 *306:7 0.624023
5 *306:4 *306:6 3.2
6 *306:5 *306:4 3.30947
7 *306:2 *306:5 3.2
8 *306:3 *306:2 0.467969
9 *725:Y *306:3 3.2
*END

*D_NET *307 0.000900818

*CONN
*I *724:Y O *C 107.25 66.36 *L 0 *D OR4X2
*I *722:B0 I *C 108.57 62.44 *L 0.00492 *D AOI211X1

*CAP
1 *724:Y 0.000139839
2 *722:B0 0.000139839
3 *307:2 7.11891e-05
4 *307:3 7.11891e-05
5 *307:4 7.25501e-05
6 *307:5 0.00023048
7 *307:6 0.000175729

*RES
1 *307:5 *722:B0 3.20000005
2 *307:5 *307:6 0.935986
3 *307:3 *307:6 0.183838
4 *307:3 *307:2 0.156006
5 *307:4 *307:2 0.183838
6 *724:Y *307:4 3.20000005
*END

*D_NET *308 0.00404819

*CONN
*I *918:Y O *C 127.71 82.6 *L 0 *D AOI22X1
*I *723:A1 I *C 117.15 88.76 *L 0.00348 *D OAI221XL
*I *721:A1 I *C 111.21 83.16 *L 0.00472 *D AOI211X1

*CAP
1 *918:Y 0.000139835
2 *723:A1 6.32965e-05
3 *721:A1 0.000139835
4 *308:3 0.000112267
5 *308:4 0.000112267
6 *308:5 0.00110972
7 *308:6 0.000568889
8 *308:7 0.000591749
9 *308:8 6.58534e-05
10 *308:9 7.21695e-05
11 *308:10 7.21695e-05
12 *308:11 0.000318921
13 *308:12 0.000333856
14 *308:13 0.000120599
15 *308:7 *309:4 2.377e-05
16 *308:5 *309:5 2.377e-05
17 *308:5 *309:4 8.959e-05
18 *308:6 *309:5 8.95899977e-05

*RES
1 *308:8 *723:A1 6.4000001
2 *308:8 *308:10 0.183887
3 *308:9 *308:10 0.155957
4 *308:9 *308:12 0.183887
5 *308:13 *918:Y 3.2
6 *308:11 *308:12 1.09199
7 *308:7 *308:13 3.2
8 *308:5 *308:11 3.2
9 *308:5 *308:7 2.57402
10 *308:6 *308:5 2.20625
11 *308:3 *308:6 3.2
12 *308:4 *308:3 0.312012
13 *721:A1 *308:4 3.2
*END

*D_NET *309 0.00236238

*CONN
*I *723:Y O *C 116.49 89.32 *L 0 *D OAI221XL
*I *721:B0 I *C 113.19 82.6 *L 0.00492 *D AOI211X1

*CAP
1 *723:Y 8.34592e-05
2 *721:B0 6.32985e-05
3 *309:2 0.000116241
4 *309:3 0.000185923
5 *309:4 0.00034434
6 *309:5 0.000274663
7 *309:6 6.5852e-05
8 *309:7 0.000220943
9 *309:8 0.000275693
10 *309:9 0.000195328
11 *309:4 *306:4 0.00015496
12 *309:5 *306:5 0.000154960002
13 *309:4 *308:7 2.377e-05
14 *309:5 *308:5 2.377e-05
15 *309:4 *308:5 8.959e-05
16 *309:5 *308:6 8.95899977e-05

*RES
1 *723:Y *309:9 0.447656
2 *309:2 *309:9 3.2
3 *309:3 *309:2 0.467969
4 *309:4 *309:3 3.2
5 *309:5 *309:4 1.83857
6 *309:8 *309:5 3.2
7 *309:7 *309:8 0.77998
8 *309:6 *309:7 0.183887
9 *721:B0 *309:6 6.4000001
*END

*D_NET *310 0.00133636

*CONN
*I *722:Y O *C 107.91 64.68 *L 0 *D AOI211X1
*I *720:C0 I *C 113.19 63 *L 0.00329 *D OAI221XL

*CAP
1 *722:Y 0.000139839
2 *720:C0 0.000139839
3 *310:2 0.000140748
4 *310:3 0.000140748
5 *310:4 7.01321e-05
6 *310:5 7.01321e-05
7 *310:6 0.000282619
8 *310:7 0.0003523

*RES
1 *310:5 *720:C0 3.20000005
2 *310:5 *310:4 0.156006
3 *310:7 *310:4 3.20000005
4 *310:6 *310:7 1.10312
5 *310:2 *722:Y 3.20000005
6 *310:3 *310:6 3.20000005
7 *310:3 *310:2 0.156006
*END

*D_NET *311 0.00290033

*CONN
*I *721:Y O *C 112.53 84.84 *L 0 *D AOI211X1
*I *718:B0 I *C 105.93 72.52 *L 0.00302 *D OAI21XL

*CAP
1 *721:Y 4.12082e-05
2 *718:B0 6.32998e-05
3 *311:2 0.000252268
4 *311:3 0.00018259
5 *311:4 0.000337319375
6 *311:5 0.000303791
7 *311:6 0.000337319375
8 *311:7 7.65383e-05
9 *311:8 0.00024081
10 *311:6 *92:10 0.00030858
11 *311:4 *92:11 0.000308580002
12 *311:6 *94:15 9.047e-05
13 *311:4 *94:16 9.04700009e-05
14 *311:8 *359:6 0.0001186
15 *311:5 *359:7 0.0001186
16 *311:8 *359:4 1.494e-05
17 *311:5 *359:5 1.4939998e-05

*RES
1 *311:7 *721:Y 0.223828
2 *311:8 *311:7 6.4000001
3 *311:5 *311:8 1.55996
4 *311:6 *311:5 3.2
5 *311:4 *311:6 2.02246
6 *311:2 *311:4 3.2
7 *311:3 *311:2 1.09199
8 *718:B0 *311:3 6.4000001
*END

*D_NET *312 0.0067516

*CONN
*I *757:Y O *C 120.45 78.12 *L 0 *D INVX1
*I *746:A I *C 118.47 77.56 *L 0.0043 *D NOR2X1
*I *723:B0 I *C 115.83 87.64 *L 0.00352 *D OAI221XL
*I *720:A0 I *C 111.21 62.44 *L 0.00361 *D OAI221XL
*I *682:B I *C 113.19 88.2 *L 0.00385 *D NOR2X1

*CAP
1 *757:Y 0.00013984
2 *746:A 6.32999e-05
3 *723:B0 0.00013984
4 *720:A0 6.32999e-05
5 *682:B 0.00013984
6 *312:5 0.000329984
7 *312:6 0.000157733
8 *312:7 0.00016994
9 *312:8 0.000239627
10 *312:9 0.000226665
11 *312:10 0.000658135
12 *312:11 0.000482385
13 *312:12 0.000101997
14 *312:13 0.000106218
15 *312:14 0.000187012
16 *312:15 0.000463892
17 *312:16 0.000463892
18 *312:17 0.000181258
19 *312:18 0.000236128
20 *312:19 0.000120602
21 *312:20 0.00030126
22 *312:21 0.00072791
23 *312:22 0.000120602
24 *312:23 0.000422684
25 *312:24 7.25522e-05
26 *312:25 0.000120602
27 *312:26 0.000120602
28 *312:5 *295:3 9.689e-05
29 *312:6 *295:2 9.68900015e-05

*RES
1 *312:24 *723:B0 3.2
2 *312:13 *312:24 0.183887
3 *312:14 *312:13 0.312012
4 *312:12 *682:B 3.2
5 *312:5 *312:14 0.551562
6 *312:5 *312:12 0.467969
7 *312:26 *757:Y 3.2
8 *312:6 *312:5 0.77998
9 *312:25 *746:A 6.4000001
10 *312:9 *312:26 3.2
11 *312:22 *312:6 6.4000001
12 *312:10 *312:25 3.2
13 *312:10 *312:9 0.551562
14 *312:23 *312:22 3.2
15 *312:11 *312:10 1.4709
16 *312:21 *312:23 1.71602
17 *312:21 *312:11 3.2
18 *312:20 *312:21 1.55996
19 *312:20 *312:15 0.183887
20 *312:16 *312:15 1.87197
21 *312:17 *312:16 0.183887
22 *312:18 *312:17 0.77998
23 *312:7 *312:18 3.2
24 *312:8 *312:7 0.551562
25 *312:19 *312:8 3.2
26 *720:A0 *312:19 6.4000001
*END

*D_NET *313 0.00200654

*CONN
*I *718:Y O *C 105.93 71.96 *L 0 *D OAI21XL
*I *707:B0 I *C 102.63 62.44 *L 0.00492 *D AOI211X1

*CAP
1 *718:Y 0.000139844
2 *707:B0 6.33035e-05
3 *313:2 0.00074016
4 *313:3 0.000523268
5 *313:4 0.00034359
6 *313:5 0.000196382

*RES
1 *313:5 *718:Y 3.2
2 *313:4 *313:5 0.467969
3 *313:2 *313:4 1.10312
4 *313:3 *313:2 2.18398
5 *707:B0 *313:3 6.4000001
*END

*D_NET *314 0.00591479

*CONN
*I *773:Y O *C 127.71 47.88 *L 0 *D INVX1
*I *764:B0 I *C 125.73 53.48 *L 0.00339 *D OAI22XL
*I *759:A1 I *C 128.37 37.8 *L 0.00472 *D AOI22X1
*I *736:B0 I *C 127.05 62.44 *L 0.00302 *D OAI21XL
*I *717:B I *C 125.73 57.4 *L 0.00375 *D NAND2X1
*I *703:C I *C 114.51 63.56 *L 0.00437 *D NAND3X1

*CAP
1 *773:Y 0.000179706
2 *764:B0 6.33052e-05
3 *759:A1 6.33052e-05
4 *736:B0 6.33052e-05
5 *717:B 0.000139844
6 *703:C 0.000139844
7 *314:6 8.5341e-05
8 *314:7 8.5341e-05
9 *314:8 0.000136918
10 *314:9 0.000192249
11 *314:10 0.000586783
12 *314:11 0.000571981
13 *314:12 0.00055197
14 *314:13 0.000383436
15 *314:14 0.000362598
16 *314:15 0.00080903
17 *314:16 0.00080903
18 *314:17 0.000194335
19 *314:18 7.71563e-05
20 *314:19 7.99956e-05
21 *314:20 0.000105982
22 *314:21 7.24158e-05
23 *314:8 *289:3 8.047e-05
24 *314:9 *289:2 8.0469997e-05

*RES
1 *314:11 *759:A1 6.4000001
2 *314:11 *314:10 2.496
3 *314:21 *314:10 0.183887
4 *773:Y *314:21 3.2
5 *314:18 *773:Y 0.223828
6 *314:18 *314:19 0.189941
7 *314:20 *314:19 6.4000001
8 *314:13 *314:20 0.367676
9 *314:12 *764:B0 6.4000001
10 *314:13 *314:12 1.24805
11 *314:14 *717:B 3.2
12 *314:12 *314:14 1.09199
13 *314:14 *314:17 0.624023
14 *314:17 *314:9 0.367676
15 *314:8 *736:B0 6.4000001
16 *314:9 *314:8 0.77998
17 *314:15 *314:8 3.2
18 *314:6 *703:C 3.2
19 *314:16 *314:15 3.49326
20 *314:7 *314:6 0.312012
21 *314:7 *314:16 3.2
*END

*D_NET *315 0.0033799

*CONN
*I *716:Y O *C 108.57 56.84 *L 0 *D MXI2X1
*I *711:D I *C 100.65 42.28 *L 0.00206 *D DFFRX1

*CAP
1 *716:Y 0.000139839
2 *711:D 0.000139839
3 *315:2 0.000142101
4 *315:3 0.000270832
5 *315:4 0.000325713
6 *315:5 0.000342675
7 *315:6 0.00069259
8 *315:7 0.000342675
9 *315:8 0.000622914
10 *315:7 *17:134 0.00012559
11 *315:5 *17:135 0.00012559
12 *315:8 *17:104 1.83e-05
13 *315:6 *17:105 1.83e-05
14 *315:8 *17:105 8.82e-06
15 *315:6 *17:136 8.82e-06
16 *315:8 *17:105 2.765e-05
17 *315:6 *17:136 2.76500035e-05

*RES
1 *315:8 *716:Y 3.20000005
2 *315:6 *315:8 2.96401
3 *315:7 *315:6 3.20000005
4 *315:5 *315:7 2.02241
5 *315:4 *315:5 3.20000005
6 *315:3 *315:4 1.09199
7 *315:2 *315:3 0.183838
8 *711:D *315:2 3.20000005
*END

*D_NET *316 0.00233598

*CONN
*I *715:Y O *C 116.49 74.2 *L 0 *D MXI2X1
*I *708:D I *C 111.21 68.6 *L 0.00206 *D DFFRX1

*CAP
1 *715:Y 0.000139841
2 *708:D 0.000139841
3 *316:2 0.000120598
4 *316:3 0.000573749727
5 *316:4 0.000428944
6 *316:5 0.000573749727
7 *316:6 0.000359256

*RES
1 *316:6 *715:Y 3.20000005
2 *316:4 *316:6 1.09199
3 *316:5 *316:4 3.20000005
4 *316:3 *316:5 1.47085
5 *316:2 *316:3 3.20000005
6 *708:D *316:2 3.20000005
*END

*D_NET *317 0.00449864

*CONN
*I *714:Y O *C 115.83 77 *L 0 *D MXI2X1
*I *710:D I *C 110.55 102.76 *L 0.00206 *D DFFRX1

*CAP
1 *714:Y 0.000139834
2 *710:D 0.000139834
3 *317:2 0.000488828
4 *317:3 0.000419156
5 *317:4 0.00038833
6 *317:5 0.00038833
7 *317:6 0.00068434
8 *317:7 0.00068434
9 *317:8 0.000148125
10 *317:9 0.000202999
11 *317:10 0.000139238
12 *317:11 0.000120599
13 *317:12 0.000124442
14 *317:13 0.000120599
15 *317:12 *329:16 3.33e-05
16 *317:10 *329:17 3.33e-05
17 *317:8 *329:16 3.149e-05
18 *317:9 *329:17 3.149e-05
19 *317:6 *329:16 9.003e-05
20 *317:7 *329:17 9.00300042e-05

*RES
1 *317:2 *710:D 3.20001
2 *317:3 *317:2 2.02801
3 *317:13 *714:Y 3.20001
4 *317:11 *317:3 3.20001
5 *317:4 *317:13 3.20001
6 *317:12 *317:11 3.20001
7 *317:5 *317:4 1.47086
8 *317:10 *317:12 0.624019
9 *317:9 *317:5 3.20001
10 *317:6 *317:10 0.183865
11 *317:9 *317:8 0.624019
12 *317:7 *317:6 3.43199992
13 *317:7 *317:8 0.183865
*END

*D_NET *318 0.000907461

*CONN
*I *713:Y O *C 123.75 77 *L 0 *D MXI2X1
*I *709:D I *C 127.05 78.68 *L 0.00206 *D DFFRX1

*CAP
1 *713:Y 0.000139841
2 *709:D 0.000139841
3 *318:2 0.000120599
4 *318:3 0.00019329
5 *318:4 0.000120599
6 *318:5 0.00019329

*RES
1 *318:4 *709:D 3.20000005
2 *318:5 *318:4 3.20000005
3 *318:3 *318:5 0.919287
4 *318:2 *318:3 3.20000005
5 *713:Y *318:2 3.20000005
*END

*D_NET *319 0.00370839

*CONN
*I *717:Y O *C 126.39 58.52 *L 0 *D NAND2X1
*I *712:B0 I *C 137.61 42.84 *L 0.00258 *D OAI2BB1XL
*I *705:B I *C 128.37 57.96 *L 0.00385 *D NOR2X1

*CAP
1 *717:Y 0.00015518
2 *712:B0 0.000139841
3 *705:B 3.98403e-05
4 *319:3 0.0006689
5 *319:4 0.000738594688
6 *319:5 0.000177991
7 *319:6 0.000177991
8 *319:7 0.000117898
9 *319:8 0.000114427
10 *319:9 0.000654023
11 *319:10 0.000723695

*RES
1 *319:9 *712:B0 3.20000005
2 *319:8 *705:B 0.223828
3 *319:9 *319:10 3.12002
4 *319:7 *319:8 0.379834
5 *319:3 *319:10 3.20000005
6 *717:Y *319:7 0.223828
7 *319:4 *319:3 2.9417
8 *319:6 *717:Y 3.20000005
9 *319:5 *319:4 3.20000005
10 *319:5 *319:6 0.77998
*END

*D_NET *320 0.00178389

*CONN
*I *712:Y O *C 136.95 41.72 *L 0 *D OAI2BB1XL
*I *706:D I *C 131.01 36.68 *L 0.00184 *D DFFRHQX1

*CAP
1 *712:Y 0.00011959
2 *706:D 6.33004e-05
3 *320:2 0.000120598
4 *320:3 0.00025213
5 *320:4 0.00041061
6 *320:5 0.00025213
7 *320:6 0.000154921
8 *320:7 0.00041061

*RES
1 *320:6 *712:Y 0.671484
2 *320:7 *320:6 3.2
3 *320:4 *320:7 1.55996
4 *320:5 *320:4 3.2
5 *320:3 *320:5 0.919238
6 *320:2 *320:3 3.2
7 *706:D *320:2 6.4000001
*END

*D_NET *321 0.00146035

*CONN
*I *719:Y O *C 113.19 57.96 *L 0 *D INVX1
*I *703:B I *C 115.17 63 *L 0.00455 *D NAND3X1
*I *700:B I *C 113.85 57.4 *L 0.00375 *D NAND2X1

*CAP
1 *719:Y 3.9859e-05
2 *703:B 0.000139842
3 *700:B 7.45925e-05
4 *321:3 0.000151748
5 *321:4 0.000120497
6 *321:5 0.000118532
7 *321:6 0.00040764
8 *321:7 0.00040764

*RES
1 *321:7 *703:B 3.20000005
2 *321:6 *321:7 1.09199
3 *321:5 *321:6 3.20000005
4 *321:4 *321:5 0.447656
5 *700:B *321:3 0.379834
6 *321:3 *321:4 0.189893
7 *719:Y *321:3 0.223828
*END

*D_NET *322 0.00944909

*CONN
*I *720:Y O *C 111.21 61.88 *L 0 *D OAI221XL
*I *719:A I *C 112.53 57.4 *L 0.00346 *D INVX1
*I *717:A I *C 126.39 57.96 *L 0.00403 *D NAND2X1
*I *716:B I *C 107.25 57.4 *L 0.00389 *D MXI2X1
*I *715:B I *C 115.17 73.64 *L 0.00389 *D MXI2X1
*I *714:B I *C 114.51 77.56 *L 0.00389 *D MXI2X1
*I *713:B I *C 122.43 77.56 *L 0.00389 *D MXI2X1
*I *702:B I *C 120.45 57.4 *L 0.00375 *D NAND2X1
*I *699:A1 I *C 117.15 57.4 *L 0.00324 *D OAI21XL

*CAP
1 *720:Y 0.000279675
2 *719:A 0.000139844
3 *717:A 0.000139844
4 *716:B 0.000139844
5 *715:B 0.000139844
6 *714:B 0.000139844
7 *713:B 0.000139844
8 *702:B 0.000139844
9 *699:A1 4.2269e-05
10 *322:9 0.000244418
11 *322:10 0.000299737
12 *322:11 7.10666e-05
13 *322:12 0.000140752
14 *322:13 0.000117901
15 *322:14 0.000411955
16 *322:15 0.000862152813
17 *322:16 0.000113112
18 *322:17 5.77926e-05
19 *322:18 0.000149303
20 *322:19 0.000283306
21 *322:20 0.000133766
22 *322:21 0.000131543
23 *322:22 6.18577e-05
24 *322:23 0.000526672
25 *322:24 0.000306368
26 *322:25 0.000251048
27 *322:26 0.000154144
28 *322:27 0.000368554
29 *322:28 0.000402233
30 *322:29 0.000182113
31 *322:30 0.000112428
32 *322:31 0.000243813
33 *322:32 0.00016726
34 *322:33 0.000120597
35 *322:34 0.000566744
36 *322:35 0.000142396
37 *322:36 0.000120597
38 *322:37 0.000636416
39 *322:38 0.000148014
40 *322:39 0.000208437
41 *322:18 *325:3 0.00015423
42 *322:19 *325:4 0.00015423
43 *322:19 *325:3 3.131e-05
44 *322:20 *325:4 3.131e-05
45 *322:21 *325:8 2.034e-05
46 *322:22 *325:6 2.03399994e-05

*RES
1 *322:29 *713:B 3.20000005
2 *322:30 *322:29 0.312012
3 *322:37 *322:30 3.20000005
4 *322:34 *322:37 2.2063
5 *322:35 *714:B 3.20000005
6 *322:31 *322:34 3.20000005
7 *322:31 *322:35 0.312012
8 *322:32 *322:31 0.77998
9 *322:27 *715:B 3.20000005
10 *322:32 *322:27 0.183838
11 *322:12 *717:A 3.20000005
12 *322:28 *322:27 1.71602
13 *322:12 *322:11 0.156006
14 *322:24 *322:28 0.367725
15 *322:39 *322:11 3.20000005
16 *322:25 *322:24 0.935986
17 *322:22 *702:B 3.20000005
18 *322:38 *322:39 0.735449
19 *720:Y *322:25 3.20000005
20 *322:22 *322:21 0.156006
21 *322:18 *322:38 0.156006
22 *322:19 *322:21 3.20000005
23 *322:19 *322:18 0.919287
24 *322:9 *720:Y 3.20000005
25 *322:26 *699:A1 0.223828
26 *322:20 *322:19 0.735449
27 *322:10 *322:9 1.09199
28 *322:36 *322:26 3.20000005
29 *322:13 *322:20 0.156006
30 *322:16 *322:10 0.367725
31 *322:14 *322:36 3.20000005
32 *322:14 *322:13 0.367725
33 *322:17 *719:A 3.20000005
34 *322:17 *322:16 0.156006
35 *322:15 *322:14 1.10312
36 *322:15 *322:17 3.20000005
37 *322:23 *322:15 1.47085
38 *322:33 *322:23 3.20000005
39 *716:B *322:33 3.20000005
*END

*D_NET *323 0.00679944

*CONN
*I *707:Y O *C 101.97 64.68 *L 0 *D AOI211X1
*I *705:A I *C 129.03 57.4 *L 0.0043 *D NOR2X1
*I *704:A I *C 132.33 57.4 *L 0.0043 *D NOR2X1
*I *703:A I *C 115.83 64.12 *L 0.00477 *D NAND3X1
*I *702:A I *C 121.11 57.96 *L 0.00403 *D NAND2X1
*I *699:A0 I *C 117.81 57.4 *L 0.00336 *D OAI21XL

*CAP
1 *707:Y 0.00013984
2 *705:A 6.32957e-05
3 *704:A 6.32957e-05
4 *703:A 0.00013984
5 *702:A 0.00013984
6 *699:A0 0.00011728
7 *323:6 0.000137494
8 *323:7 6.78118e-05
9 *323:8 0.000432739
10 *323:9 0.000457441992
11 *323:10 0.000161988
12 *323:11 0.000290917
13 *323:12 0.000151587
14 *323:13 0.000178356
15 *323:14 0.000238776
16 *323:15 0.000173149
17 *323:16 0.000163893
18 *323:17 0.000442539
19 *323:18 0.000442539
20 *323:19 0.000126026
21 *323:20 0.000181581
22 *323:21 0.000205062
23 *323:22 0.000106223
24 *323:23 0.000199338
25 *323:24 0.00011728
26 *323:25 0.000128057
27 *323:26 9.69608e-05
28 *323:27 0.000142227
29 *323:28 0.000199338
30 *323:29 0.000211414
31 *323:30 9.0232e-05
32 *323:31 0.000120595
33 *323:32 0.000120595
34 *323:13 *325:3 0.00015283
35 *323:14 *325:4 0.000152829995
36 *323:10 *324:4 6.162e-05
37 *323:11 *324:5 6.162e-05
38 *323:11 *324:4 3.678e-05
39 *323:12 *324:5 3.678e-05
40 *323:13 *324:6 0.00010133
41 *323:14 *324:7 0.00010133
42 *323:13 *324:15 2.337e-05
43 *323:14 *324:13 2.33700105e-05

*RES
1 *323:32 *704:A 6.4000001
2 *323:31 *705:A 6.4000001
3 *323:10 *323:32 3.2
4 *323:11 *323:31 3.2
5 *323:11 *323:10 0.919238
6 *323:12 *323:11 0.735449
7 *323:13 *323:12 0.155957
8 *323:14 *323:13 1.4709
9 *323:19 *702:A 3.2
10 *323:20 *323:14 3.2
11 *323:20 *323:19 0.312012
12 *323:21 *323:20 0.155957
13 *323:29 *323:21 0.735449
14 *323:29 *323:30 0.312012
15 *323:27 *323:30 0.183887
16 *699:A0 *323:27 3.2
17 *699:A0 *323:28 0.379785
18 *323:23 *323:28 0.671484
19 *323:23 *323:24 0.379785
20 *323:9 *323:24 3.2
21 *323:8 *703:A 3.2
22 *323:9 *323:8 1.24805
23 *323:8 *323:25 0.155957
24 *323:26 *323:25 3.2
25 *323:22 *323:26 0.551562
26 *323:22 *323:17 0.155957
27 *323:18 *323:17 1.83857
28 *323:15 *323:18 0.155957
29 *323:16 *323:15 1.10312
30 *323:6 *323:16 3.2
31 *323:7 *323:6 0.155957
32 *707:Y *323:7 3.2
*END

*D_NET *324 0.00610436

*CONN
*I *704:Y O *C 132.99 57.96 *L 0 *D NOR2X1
*I *700:A I *C 114.51 57.96 *L 0.00403 *D NAND2X1
*I *696:B0 I *C 147.51 47.32 *L 0.00319 *D AOI21XL

*CAP
1 *704:Y 4.12122e-05
2 *700:A 0.000139844
3 *696:B0 6.33068e-05
4 *324:3 0.000782279
5 *324:4 0.00109612
6 *324:5 0.000319143
7 *324:6 0.00025291
8 *324:7 0.00025291
9 *324:8 0.000624722
10 *324:9 0.000555043
11 *324:10 0.000124807
12 *324:11 0.000124807
13 *324:12 0.000158342
14 *324:13 0.000482821
15 *324:14 0.000158342
16 *324:15 0.00040503
17 *324:16 7.65369e-05
18 *324:4 *323:10 6.162e-05
19 *324:5 *323:11 6.162e-05
20 *324:4 *323:11 3.678e-05
21 *324:5 *323:12 3.678e-05
22 *324:6 *323:13 0.00010133
23 *324:7 *323:14 0.00010133
24 *324:15 *323:13 2.337e-05
25 *324:13 *323:14 2.33700105e-05

*RES
1 *324:9 *696:B0 6.4000001
2 *704:Y *324:16 0.223828
3 *324:9 *324:8 2.496
4 *324:10 *324:16 3.2
5 *324:3 *324:8 3.2
6 *324:11 *324:10 0.155957
7 *324:4 *324:3 3.86104
8 *324:4 *324:11 3.2
9 *324:5 *324:4 1.83857
10 *324:6 *324:5 0.0780273
11 *324:7 *324:6 1.28701
12 *324:15 *324:7 0.0780273
13 *324:14 *700:A 3.2
14 *324:13 *324:15 2.20625
15 *324:12 *324:14 0.624023
16 *324:12 *324:13 3.2
*END

*D_NET *325 0.00218797

*CONN
*I *702:Y O *C 121.11 58.52 *L 0 *D NAND2X1
*I *699:B0 I *C 118.47 58.52 *L 0.00302 *D OAI21XL
*I *695:A I *C 124.41 57.4 *L 0.0043 *D NOR2X1

*CAP
1 *702:Y 7.97302e-05
2 *699:B0 6.3297e-05
3 *695:A 6.3297e-05
4 *325:3 0.00025174
5 *325:4 0.00025174
6 *325:5 0.000112938
7 *325:6 0.000136789
8 *325:7 0.000191601
9 *325:8 0.000198811
10 *325:9 0.000120598
11 *325:3 *322:18 0.00015423
12 *325:4 *322:19 0.00015423
13 *325:3 *322:19 3.131e-05
14 *325:4 *322:20 3.131e-05
15 *325:8 *322:21 2.034e-05
16 *325:6 *322:22 2.03399994e-05
17 *325:3 *323:13 0.00015283
18 *325:4 *323:14 0.000152829995

*RES
1 *325:9 *695:A 6.4000001
2 *325:3 *325:9 3.2
3 *325:4 *325:3 1.28701
4 *325:6 *325:4 3.2
5 *325:7 *702:Y 0.447656
6 *325:6 *325:8 0.312012
7 *325:8 *325:7 3.2
8 *325:5 *325:8 0.367676
9 *699:B0 *325:5 6.4000001
*END

*D_NET *326 0.00247581

*CONN
*I *756:Y O *C 89.43 57.96 *L 0 *D INVX1
*I *743:A I *C 96.69 56.84 *L 0.00477 *D NAND3X1
*I *698:A I *C 90.75 57.4 *L 0.0031 *D NAND2XL
*I *676:B I *C 93.39 57.4 *L 0.00375 *D NAND2X1

*CAP
1 *756:Y 0.000139842
2 *743:A 0.000139842
3 *698:A 0.000139842
4 *676:B 6.32776e-05
5 *326:4 9.20704e-05
6 *326:5 0.000161751
7 *326:6 0.000266441523
8 *326:7 0.000266441523
9 *326:8 0.00023153
10 *326:9 0.000169769
11 *326:10 0.000112679
12 *326:11 0.000112301
13 *326:12 0.000119001
14 *326:13 9.8608e-05
15 *326:6 *248:9 0.00015538
16 *326:7 *248:6 0.00015538
17 *326:8 *248:2 2.583e-05
18 *326:9 *248:3 2.5830008e-05

*RES
1 *326:4 *743:A 3.20000005
2 *326:5 *326:4 0.312012
3 *326:6 *326:5 3.20000005
4 *326:7 *326:6 1.28701
5 *326:13 *676:B 0.447656
6 *326:9 *326:7 3.20000005
7 *326:8 *326:13 3.20000005
8 *326:9 *326:8 0.468018
9 *326:12 *698:A 3.20000005
10 *326:12 *326:8 0.367725
11 *326:11 *326:12 0.156006
12 *326:10 *326:11 0.367725
13 *756:Y *326:10 3.20000005
*END

*D_NET *327 0.00902962

*CONN
*I *758:Y O *C 109.23 68.04 *L 0 *D INVX1
*I *742:A I *C 99.99 74.2 *L 0.00477 *D NAND3X1
*I *739:A I *C 98.67 77.56 *L 0.00366 *D AND4X2
*I *736:A1 I *C 125.73 63.56 *L 0.00324 *D OAI21XL
*I *697:A I *C 129.03 63.56 *L 0.0031 *D NAND2XL
*I *675:B I *C 95.37 83.72 *L 0.00375 *D NAND2X1

*CAP
1 *758:Y 0.000139841
2 *742:A 6.33015e-05
3 *739:A 6.33015e-05
4 *736:A1 0.000139841
5 *697:A 0.000139841
6 *675:B 0.000139841
7 *327:6 0.000275007
8 *327:7 0.000344681
9 *327:8 0.000282809
10 *327:9 0.000282809
11 *327:10 0.000421802
12 *327:11 0.000421802
13 *327:12 0.00097588
14 *327:13 0.000544876
15 *327:14 0.000453668
16 *327:15 0.000154568
17 *327:16 0.000141003
18 *327:17 0.000197201
19 *327:18 0.000203902
20 *327:19 0.000318235
21 *327:20 0.000241219
22 *327:21 0.000310953
23 *327:22 0.000241278
24 *327:23 0.000207774
25 *327:24 0.000217036
26 *327:25 0.000112367
27 *327:26 0.000678999
28 *327:27 0.000678999
29 *327:28 0.000210171
30 *327:29 0.000120602
31 *327:30 6.48353e-05
32 *327:31 0.000120602
33 *327:32 0.000120602

*RES
1 *327:32 *697:A 3.2
2 *327:8 *327:32 3.2
3 *327:9 *327:8 0.919238
4 *327:22 *736:A1 3.2
5 *327:22 *327:9 3.2
6 *327:22 *327:21 0.936035
7 *327:23 *327:21 3.2
8 *327:24 *327:23 1.10312
9 *327:10 *327:24 0.155957
10 *327:11 *327:10 1.83857
11 *327:11 *327:14 0.155957
12 *327:31 *758:Y 3.2
13 *327:12 *327:14 1.65469
14 *327:12 *327:31 3.2
15 *327:18 *742:A 6.4000001
16 *327:13 *327:12 2.9417
17 *327:18 *327:17 0.624023
18 *327:27 *327:13 3.2
19 *327:15 *327:17 3.2
20 *327:27 *327:26 2.65195
21 *327:16 *327:15 0.367676
22 *327:16 *327:26 3.2
23 *327:29 *739:A 6.4000001
24 *327:25 *327:16 0.183887
25 *327:30 *327:29 3.2
26 *327:25 *327:28 0.312012
27 *327:28 *327:30 0.183887
28 *327:28 *327:19 0.467969
29 *327:6 *675:B 3.2
30 *327:20 *327:19 0.735449
31 *327:7 *327:6 1.24805
32 *327:7 *327:20 3.2
*END

*D_NET *328 7.972e-05

*CONN
*I *696:Y O *C 148.17 46.76 *L 0 *D AOI21XL
*I *689:A I *C 148.83 47.32 *L 0.0026 *D INVXL

*CAP
1 *696:Y 3.986e-05
2 *689:A 3.986e-05

*RES
1 *696:Y *689:A 0.223826
*END

*D_NET *329 0.0133797

*CONN
*I *705:Y O *C 129.69 57.96 *L 0 *D NOR2X1
*I *698:B I *C 90.09 57.96 *L 0.00277 *D NAND2XL
*I *697:B I *C 128.37 63 *L 0.00277 *D NAND2XL
*I *694:B I *C 114.51 93.24 *L 0.00277 *D NAND2XL
*I *693:B I *C 125.07 93.24 *L 0.00277 *D NAND2XL

*CAP
1 *705:Y 7.97354e-05
2 *698:B 0.000139829
3 *697:B 0.000139829
4 *694:B 0.000139829
5 *693:B 0.000139829
6 *329:5 0.000220553
7 *329:6 0.00023424
8 *329:7 6.93752e-05
9 *329:8 0.000271276
10 *329:9 0.000271276
11 *329:10 0.000186484
12 *329:11 0.000116816
13 *329:12 0.000745755
14 *329:13 0.000934801
15 *329:14 0.000192192
16 *329:15 0.000122502
17 *329:16 0.00132867
18 *329:17 0.00131406
19 *329:18 0.000687392
20 *329:19 0.000702
21 *329:20 0.00020244
22 *329:21 0.000668537
23 *329:22 0.00147279
24 *329:23 0.000817647
25 *329:24 0.000120592
26 *329:25 0.000120592
27 *329:26 0.000115063
28 *329:27 0.000120592
29 *329:28 0.000120592
30 *329:21 *40:12 0.0002384
31 *329:22 *40:13 0.0002384
32 *329:22 *40:12 0.00027608
33 *329:23 *40:13 0.000276079995
34 *329:16 *317:12 3.33e-05
35 *329:17 *317:10 3.33e-05
36 *329:16 *317:8 3.149e-05
37 *329:17 *317:9 3.149e-05
38 *329:16 *317:6 9.003e-05
39 *329:17 *317:7 9.00300042e-05
40 *329:5 *289:3 0.00012287
41 *329:6 *289:2 0.000122870002

*RES
1 *329:11 *693:B 3.20002
2 *329:15 *694:B 3.20002
3 *329:11 *329:10 0.624048
4 *329:15 *329:14 0.624048
5 *329:12 *329:10 3.20002
6 *329:13 *329:14 3.20002
7 *329:13 *329:12 2.94168
8 *329:26 *705:Y 0.447691
9 *329:20 *329:13 0.73542
10 *329:6 *329:26 3.20002
11 *329:7 *697:B 3.20002
12 *329:16 *329:20 3.20002
13 *329:6 *329:5 0.935971
14 *329:5 *329:7 0.312024
15 *329:17 *329:16 6.55200005
16 *329:27 *329:5 3.20002
17 *329:18 *329:17 0.36771
18 *329:28 *329:27 3.20002
19 *329:19 *329:18 2.80801
20 *329:21 *329:28 3.20002
21 *329:22 *329:19 3.20002
22 *329:22 *329:21 4.96419
23 *329:23 *329:22 5.69961
24 *329:25 *329:23 3.20002
25 *329:24 *329:25 3.20002
26 *329:8 *329:24 3.20002
27 *329:9 *329:8 1.09203
28 *698:B *329:9 3.20002
*END

*D_NET *330 0.00875842

*CONN
*I *765:Y O *C 118.47 62.44 *L 0 *D NAND2X1
*I *756:A I *C 88.77 57.4 *L 0.00346 *D INVX1
*I *754:A I *C 111.21 57.4 *L 0.0043 *D NOR2X1
*I *753:A I *C 99.99 58.52 *L 0.0047 *D NOR3X1
*I *727:B0 I *C 94.71 63.56 *L 0.00353 *D OAI222XL
*I *720:B0 I *C 110.55 63.56 *L 0.00352 *D OAI221XL
*I *692:B I *C 89.43 63 *L 0.00385 *D NOR2X1
*I *674:B I *C 86.79 57.96 *L 0.00385 *D NOR2X1

*CAP
1 *765:Y 3.98611e-05
2 *756:A 0.000111897
3 *754:A 6.33035e-05
4 *753:A 3.98611e-05
5 *727:B0 0.000254986
6 *720:B0 2.53673e-05
7 *692:B 0.000119532
8 *674:B 7.4585e-05
9 *330:8 0.000141177
10 *330:9 0.000115351
11 *330:10 0.000292272
12 *330:11 6.39536e-05
13 *330:12 0.0008354
14 *330:13 0.000774977
15 *330:14 0.000202428
16 *330:15 0.000193735
17 *330:16 0.000198184
18 *330:17 0.000250206
19 *330:18 5.72358e-05
20 *330:19 0.000267772
21 *330:20 7.51713e-05
22 *330:21 0.000198464
23 *330:22 0.000116996
24 *330:23 0.000354862
25 *330:24 0.000153224
26 *330:25 0.000354862
27 *330:26 0.00030841
28 *330:27 0.000151732
29 *330:28 0.000144517
30 *330:29 0.000317678
31 *330:30 0.000103024
32 *330:31 0.000249173
33 *330:32 0.000174499
34 *330:33 6.80583e-05
35 *330:34 6.5853e-05
36 *330:35 0.000115912
37 *330:36 0.000272514
38 *330:37 0.000404628
39 *330:38 0.000167705
40 *330:39 6.89506e-05
41 *330:40 0.000474318
42 *330:41 7.99899e-05
43 *330:42 0.000138628
44 *330:43 7.71599e-05

*RES
1 *330:43 *765:Y 0.223828
2 *330:41 *330:43 0.189941
3 *330:42 *330:41 3.2
4 *720:B0 *330:33 0.14248
5 *330:39 *330:42 0.155957
6 *330:34 *330:33 6.4000001
7 *330:40 *330:39 3.2
8 *330:34 *330:38 0.183887
9 *330:37 *330:40 1.65469
10 *330:36 *330:38 0.624023
11 *330:36 *330:37 3.2
12 *330:35 *330:36 0.312012
13 *330:30 *754:A 6.4000001
14 *330:32 *330:35 0.183887
15 *330:30 *330:31 0.312012
16 *330:31 *330:32 0.467969
17 *330:12 *330:31 3.2
18 *330:13 *330:12 2.57402
19 *330:29 *330:13 0.155957
20 *330:26 *330:29 0.735449
21 *330:27 *753:A 0.223828
22 *330:11 *330:26 6.4000001
23 *330:9 *330:27 3.2
24 *330:11 *330:9 0.155957
25 *330:9 *330:8 0.312012
26 *330:28 *330:8 3.2
27 *330:10 *727:B0 1.34297
28 *330:24 *330:28 0.551562
29 *330:22 *330:10 0.189941
30 *330:24 *330:25 0.155957
31 *692:B *330:22 0.447656
32 *330:23 *330:25 1.65469
33 *330:20 *692:B 0.223828
34 *330:14 *330:23 0.155957
35 *330:21 *330:20 6.4000001
36 *330:15 *330:14 0.735449
37 *330:19 *330:21 0.936035
38 *330:19 *330:15 3.2
39 *330:18 *330:19 0.155957
40 *756:A *330:17 0.569727
41 *330:17 *330:18 6.4000001
42 *330:16 *330:17 0.671484
43 *674:B *330:16 0.379785
*END

*D_NET *331 0.0111357

*CONN
*I *703:Y O *C 116.49 64.68 *L 0 *D NAND3X1
*I *701:A I *C 116.49 93.8 *L 0.00346 *D INVX1
*I *692:A I *C 88.77 63.56 *L 0.0043 *D NOR2X1
*I *691:A I *C 91.41 83.72 *L 0.0043 *D NOR2X1

*CAP
1 *703:Y 0.000139848
2 *701:A 0.000139848
3 *692:A 6.32885e-05
4 *691:A 6.32885e-05
5 *331:4 0.000138665
6 *331:5 6.89823e-05
7 *331:6 0.000151323
8 *331:7 8.164e-05
9 *331:8 6.41207e-05
10 *331:9 6.41207e-05
11 *331:10 0.000223875
12 *331:11 0.000293536
13 *331:12 0.00136548
14 *331:13 0.00143516
15 *331:14 0.000581006
16 *331:15 0.000635885
17 *331:16 0.000823298
18 *331:17 0.000768419
19 *331:18 0.00038606
20 *331:19 0.00038606
21 *331:20 0.00114243
22 *331:21 0.00114243
23 *331:22 5.09155e-05
24 *331:23 0.000161397
25 *331:24 0.000275404
26 *331:25 0.000120599
27 *331:26 0.000120599
28 *331:27 0.000127409
29 *331:28 0.000120599

*RES
1 *331:10 *701:A 3.2
2 *331:11 *331:10 1.09199
3 *331:8 *331:11 3.2
4 *331:9 *331:8 0.183887
5 *331:16 *331:9 3.2
6 *331:17 *331:16 3.27598
7 *331:6 *703:Y 3.2
8 *331:17 *331:18 0.183887
9 *331:7 *331:6 0.155957
10 *331:19 *331:18 1.55996
11 *331:4 *331:7 3.2
12 *331:14 *331:19 0.183887
13 *331:5 *331:4 0.183887
14 *331:15 *331:14 2.496
15 *331:15 *331:5 3.2
16 *331:25 *691:A 6.4000001
17 *331:20 *331:15 3.2
18 *331:26 *331:25 3.2
19 *331:21 *331:20 6.25117
20 *331:12 *331:26 3.2
21 *331:28 *331:21 3.2
22 *331:13 *331:12 5.61602
23 *331:27 *331:28 3.2
24 *331:24 *331:13 3.2
25 *331:24 *331:27 0.551562
26 *331:23 *331:24 0.735449
27 *331:22 *331:23 6.4000001
28 *692:A *331:22 6.4000001
*END

*D_NET *332 0.0100274

*CONN
*I *763:Y O *C 120.45 62.44 *L 0 *D NAND2X1
*I *758:A I *C 108.57 67.48 *L 0.00346 *D INVX1
*I *755:A I *C 112.53 73.64 *L 0.0043 *D NOR2X1
*I *749:A I *C 101.31 71.4 *L 0.00283 *D OR3XL
*I *735:A0 I *C 108.57 78.68 *L 0.00508 *D OAI33X1
*I *718:A0 I *C 105.27 73.64 *L 0.00336 *D OAI21XL
*I *691:B I *C 90.75 83.16 *L 0.00385 *D NOR2X1
*I *683:B I *C 88.77 83.16 *L 0.00385 *D NOR2X1

*CAP
1 *763:Y 6.33039e-05
2 *758:A 3.72977e-05
3 *755:A 6.33039e-05
4 *749:A 5.49107e-05
5 *735:A0 6.33039e-05
6 *718:A0 0.000139835
7 *691:B 7.45856e-05
8 *683:B 7.45856e-05
9 *332:8 0.000109685
10 *332:9 0.000109685
11 *332:10 0.000584353
12 *332:11 0.000396814
13 *332:12 0.000637366797
14 *332:13 0.000637366797
15 *332:14 0.000369787
16 *332:15 0.000384122
17 *332:16 0.000216414
18 *332:17 0.000316704
19 *332:18 0.000432906
20 *332:19 0.000270615
21 *332:20 0.00040794
22 *332:21 0.00040794
23 *332:22 0.000272385
24 *332:23 0.000209402
25 *332:24 0.000149531
26 *332:25 0.00014143
27 *332:26 0.000142713
28 *332:27 0.000150805
29 *332:28 0.000521622
30 *332:29 0.000521622
31 *332:30 0.000198198
32 *332:31 0.000124799
33 *332:32 0.000212913
34 *332:33 0.000124799
35 *332:34 9.02341e-05
36 *332:35 6.68829e-05
37 *332:36 0.000120597
38 *332:37 0.000156533
39 *332:38 0.000120597
40 *332:17 *362:21 6.491e-05
41 *332:18 *362:19 6.491e-05
42 *332:18 *362:21 1.188e-05
43 *332:14 *362:19 1.188e-05
44 *332:19 *362:7 0.00017819
45 *332:10 *362:8 0.00017819
46 *332:10 *362:7 2.089e-05
47 *332:11 *362:8 2.089e-05
48 *332:10 *362:8 2.089e-05
49 *332:11 *362:18 2.0889994e-05
50 *332:14 *218:4 4.861e-05
51 *332:15 *218:5 4.861e-05
52 *332:15 *218:4 7.937e-05
53 *332:16 *218:5 7.93699985e-05

*RES
1 *332:23 *763:Y 6.4000001
2 *332:23 *332:22 1.09199
3 *332:24 *332:22 3.2
4 *332:25 *332:24 0.551562
5 *332:12 *332:25 0.0780273
6 *332:13 *332:12 2.39014
7 *332:13 *332:26 0.0780273
8 *758:A *332:37 0.189941
9 *332:27 *332:26 0.551562
10 *749:A *332:34 0.223828
11 *332:38 *755:A 6.4000001
12 *332:11 *332:37 3.2
13 *332:11 *332:27 3.2
14 *332:19 *735:A0 6.4000001
15 *332:9 *332:34 6.4000001
16 *332:17 *332:38 3.2
17 *332:11 *332:10 1.55996
18 *332:10 *332:19 1.404
19 *332:9 *332:8 0.467969
20 *332:36 *718:A0 3.2
21 *332:18 *332:17 1.10312
22 *332:18 *332:10 3.2
23 *332:35 *332:8 6.4000001
24 *332:14 *332:36 3.2
25 *332:14 *332:18 0.919238
26 *332:35 *332:15 0.155957
27 *332:15 *332:14 0.919238
28 *332:16 *332:15 1.28701
29 *332:29 *332:16 3.2
30 *332:29 *332:28 2.18398
31 *332:20 *332:28 3.2
32 *332:21 *332:20 1.83857
33 *332:31 *332:21 3.2
34 *332:31 *332:33 0.155957
35 *332:32 *691:B 0.379785
36 *332:32 *332:33 3.2
37 *332:30 *683:B 0.379785
38 *332:30 *332:32 0.671484
*END

*D_NET *333 0.00730996

*CONN
*I *978:B I *C 124.41 87.64 *L 0.00444 *D NAND3BX1
*I *762:Y O *C 123.09 63 *L 0 *D NOR2X1
*I *757:A I *C 119.79 77.56 *L 0.00346 *D INVX1
*I *750:A I *C 119.79 84.28 *L 0.00477 *D NAND3X1
*I *693:A I *C 125.73 93.8 *L 0.0031 *D NAND2XL
*I *690:B I *C 120.45 97.72 *L 0.00375 *D NAND2X1
*I *680:B I *C 123.75 97.72 *L 0.00375 *D NAND2X1

*CAP
1 *978:B 6.32965e-05
2 *762:Y 4.22923e-05
3 *757:A 0.000139838
4 *750:A 0.000139838
5 *693:A 0.000139838
6 *690:B 0.000139838
7 *680:B 7.9726e-05
8 *333:7 0.00033206
9 *333:8 0.000240942
10 *333:9 6.50755e-05
11 *333:10 0.000518316
12 *333:11 0.00097972
13 *333:12 0.000733172
14 *333:13 0.000348669
15 *333:14 0.000374367
16 *333:15 0.000205332
17 *333:16 0.000151678
18 *333:17 0.000125636
19 *333:18 0.000268195
20 *333:19 0.000348983
21 *333:20 0.000155685
22 *333:21 0.000266132
23 *333:22 0.000115067
24 *333:23 0.000124799
25 *333:24 0.000221493
26 *333:25 0.000181099
27 *333:26 7.76182e-05
28 *333:27 0.000133709
29 *333:28 0.00018234
30 *333:29 0.000101597
31 *333:30 0.000184448
32 *333:31 0.000129119

*RES
1 *333:17 *690:B 3.2
2 *333:22 *680:B 0.447656
3 *333:16 *333:17 0.155957
4 *333:23 *333:22 3.2
5 *333:16 *333:21 0.551562
6 *333:21 *333:23 0.155957
7 *333:20 *333:21 0.77998
8 *333:20 *333:25 0.183887
9 *333:31 *693:A 3.2
10 *333:24 *333:25 0.77998
11 *333:30 *333:31 0.624023
12 *333:24 *333:7 0.367676
13 *333:7 *333:30 0.367676
14 *333:8 *978:B 6.4000001
15 *333:8 *333:7 1.09199
16 *333:9 *333:8 0.155957
17 *333:29 *333:9 6.4000001
18 *333:13 *333:29 0.312012
19 *762:Y *333:26 0.223828
20 *333:14 *333:13 1.28701
21 *333:27 *333:26 6.4000001
22 *333:15 *333:14 3.2
23 *333:27 *333:28 0.467969
24 *333:10 *750:A 3.2
25 *333:10 *333:15 0.467969
26 *333:18 *333:28 0.367676
27 *333:11 *757:A 3.2
28 *333:11 *333:10 1.87197
29 *333:18 *333:19 0.936035
30 *333:12 *333:11 2.34004
31 *333:12 *333:19 0.735449
*END

*D_NET *334 0.00197815

*CONN
*I *701:Y O *C 117.15 93.24 *L 0 *D INVX1
*I *690:A I *C 121.11 98.28 *L 0.00403 *D NAND2X1
*I *688:A I *C 118.47 93.24 *L 0.00403 *D NAND2X1

*CAP
1 *701:Y 0.00013984
2 *690:A 6.32994e-05
3 *688:A 0.00013984
4 *334:3 0.000215622
5 *334:4 0.000271048
6 *334:5 9.52508e-05
7 *334:6 0.000178783
8 *334:7 0.000123458
9 *334:8 0.000280363
10 *334:9 0.0001206
11 *334:10 0.00035004

*RES
1 *334:9 *690:A 6.4000001
2 *334:10 *334:9 3.2
3 *334:7 *688:A 3.2
4 *334:8 *334:10 1.10312
5 *334:7 *334:6 0.624023
6 *334:3 *334:8 3.2
7 *334:4 *334:6 0.367676
8 *334:4 *334:3 0.77998
9 *334:5 *334:4 0.312012
10 *701:Y *334:5 3.2
*END

*D_NET *335 0.00202034

*CONN
*I *689:Y O *C 149.49 46.76 *L 0 *D INVXL
*I *671:D I *C 144.87 36.68 *L 0.00184 *D DFFRHQX1

*CAP
1 *689:Y 0.000139838
2 *671:D 6.3298e-05
3 *335:2 0.000307274
4 *335:3 0.00084831
5 *335:4 0.000661626

*RES
1 *335:4 *689:Y 3.2
2 *335:3 *335:4 2.80801
3 *335:2 *335:3 1.28701
4 *671:D *335:2 6.4000001
*END

*D_NET *336 0.0118518

*CONN
*I *766:Y O *C 125.07 63 *L 0 *D NOR2X1
*I *761:A I *C 97.35 87.64 *L 0.00346 *D INVX1
*I *748:A I *C 109.23 94.36 *L 0.00477 *D NAND3X1
*I *745:A I *C 109.89 87.64 *L 0.00324 *D NAND4XL
*I *741:B I *C 103.95 93.8 *L 0.00444 *D NAND3BX1
*I *736:A0 I *C 126.39 63.56 *L 0.00336 *D OAI21XL
*I *694:A I *C 115.17 93.8 *L 0.0031 *D NAND2XL
*I *688:B I *C 117.81 93.8 *L 0.00375 *D NAND2X1
*I *677:B I *C 100.65 93.8 *L 0.00375 *D NAND2X1

*CAP
1 *766:Y 7.9713e-05
2 *761:A 6.32993e-05
3 *748:A 0.000139839
4 *745:A 6.32993e-05
5 *741:B 6.32993e-05
6 *736:A0 0.000117301
7 *694:A 0.000139839
8 *688:B 0.000139839
9 *677:B 0.000139839
10 *336:9 0.000494716
11 *336:10 0.000439971
12 *336:11 0.000668052
13 *336:12 0.000381407
14 *336:13 0.000218783
15 *336:14 0.000663242
16 *336:15 0.000707226
17 *336:16 8.21924e-05
18 *336:17 8.21924e-05
19 *336:18 6.89523e-05
20 *336:19 6.89523e-05
21 *336:20 0.000391251
22 *336:21 0.000431516
23 *336:22 0.000133268
24 *336:23 6.3572e-05
25 *336:24 0.000197906
26 *336:25 0.000267603
27 *336:26 0.000566198
28 *336:27 0.00162488
29 *336:28 0.00162488
30 *336:29 6.78118e-05
31 *336:30 0.000199245
32 *336:31 0.000146235
33 *336:32 6.58531e-05
34 *336:33 0.00018965
35 *336:34 0.000120921
36 *336:35 0.000120598
37 *336:36 0.000180625
38 *336:37 0.000154318
39 *336:11 *279:10 3.182e-05
40 *336:12 *279:7 3.182e-05
41 *336:11 *279:7 0.00012561
42 *336:12 *279:5 0.00012561
43 *336:12 *279:7 6.262e-05
44 *336:13 *279:5 6.262e-05
45 *336:11 *279:12 2.163e-05
46 *336:12 *279:9 2.16300181e-05

*RES
1 *766:Y *336:37 0.447662
2 *336:37 *736:A0 0.379793
3 *336:25 *736:A0 3.20002
4 *336:25 *336:24 0.623962
5 *336:22 *336:24 3.20002
6 *336:23 *336:22 0.183841
7 *336:28 *336:23 3.20002
8 *336:28 *336:27 7.48799992
9 *336:14 *336:27 3.20002
10 *336:35 *688:B 3.20002
11 *336:15 *336:14 2.574
12 *336:36 *336:35 3.20002
13 *336:32 *745:A 6.40004
14 *336:19 *694:A 3.20002
15 *336:15 *336:33 0.312038
16 *336:33 *336:36 0.367682
17 *336:10 *336:32 0.183841
18 *336:19 *336:18 0.155962
19 *336:33 *336:34 0.155962
20 *336:17 *741:B 6.40004
21 *336:9 *748:A 3.20002
22 *336:10 *336:9 1.71604
23 *336:26 *336:18 3.20002
24 *336:26 *336:34 0.367682
25 *336:17 *336:16 0.155962
26 *336:11 *336:9 3.20002
27 *336:11 *336:26 1.65468
28 *336:12 *336:16 6.40004
29 *336:12 *336:11 1.47084
30 *336:13 *336:12 0.919318
31 *336:29 *336:13 3.20002
32 *336:30 *677:B 3.20002
33 *336:30 *336:29 0.155962
34 *336:20 *336:30 0.367682
35 *336:21 *336:20 1.71604
36 *336:31 *336:21 0.551522
37 *761:A *336:31 6.40004
*END

*D_NET *337 0.00119218

*CONN
*I *834:Y O *C 131.67 66.92 *L 0 *D NOR3X1
*I *687:B I *C 130.35 63 *L 0.00385 *D NOR2X1
*I *662:A1 I *C 132.33 63.56 *L 0.00314 *D AOI21XL

*CAP
1 *834:Y 0.000139841
2 *687:B 0.000139841
3 *662:A1 6.32985e-05
4 *337:3 0.000192061
5 *337:4 9.63418e-05
6 *337:5 7.60917e-05
7 *337:6 0.00021247
8 *337:7 8.77503e-05
9 *337:8 9.97103e-05
10 *337:9 8.47773e-05

*RES
1 *337:9 *834:Y 3.2
2 *337:8 *337:9 0.312012
3 *337:5 *662:A1 6.4000001
4 *337:7 *337:8 0.183887
5 *337:5 *337:6 0.312012
6 *337:6 *337:7 0.312012
7 *337:3 *337:6 0.551562
8 *337:4 *337:3 0.467969
9 *687:B *337:4 3.2
*END

*D_NET *338 0.000997732

*CONN
*I *697:Y O *C 129.69 64.12 *L 0 *D NAND2XL
*I *687:A I *C 131.01 63.56 *L 0.0043 *D NOR2X1
*I *662:A0 I *C 132.99 63 *L 0.00314 *D AOI21XL

*CAP
1 *697:Y 7.97303e-05
2 *687:A 6.32995e-05
3 *662:A0 6.32995e-05
4 *338:3 0.0001916
5 *338:4 0.000166732
6 *338:5 0.000118682
7 *338:6 0.000124272
8 *338:7 8.38818e-05
9 *338:8 0.000106239

*RES
1 *338:8 *662:A0 6.4000001
2 *338:6 *338:8 0.367676
3 *338:6 *338:7 0.155957
4 *338:5 *687:A 6.4000001
5 *338:5 *338:7 0.183887
6 *338:4 *338:5 0.312012
7 *338:3 *338:4 3.2
8 *697:Y *338:3 0.447656
*END

*D_NET *339 0.00186419

*CONN
*I *837:Y O *C 112.53 107.24 *L 0 *D NOR3X1
*I *686:B I *C 115.83 113.4 *L 0.00385 *D NOR2X1
*I *661:A1 I *C 113.19 113.96 *L 0.00314 *D AOI21XL

*CAP
1 *837:Y 0.000139842
2 *686:B 0.000139842
3 *661:A1 3.98624e-05
4 *339:3 8.06994e-05
5 *339:4 0.000177468
6 *339:5 0.000205492
7 *339:6 0.00029432
8 *339:7 0.000199002
9 *339:8 8.25497e-05
10 *339:9 5.09194e-05
11 *339:10 0.000227098
12 *339:11 0.000227098

*RES
1 *339:7 *837:Y 3.2
2 *339:7 *339:6 0.77998
3 *339:6 *339:5 0.551562
4 *339:4 *686:B 3.2
5 *339:5 *339:4 0.312012
6 *339:4 *339:3 0.155957
7 *339:11 *339:3 6.4000001
8 *339:10 *339:11 0.551562
9 *339:9 *339:10 6.4000001
10 *339:8 *339:9 6.4000001
11 *661:A1 *339:8 0.223828
*END

*D_NET *340 0.00349592

*CONN
*I *694:Y O *C 115.83 94.36 *L 0 *D NAND2XL
*I *686:A I *C 116.49 113.96 *L 0.0043 *D NOR2X1
*I *661:A0 I *C 113.85 113.4 *L 0.00314 *D AOI21XL

*CAP
1 *694:Y 0.000139841
2 *686:A 6.33015e-05
3 *661:A0 6.33015e-05
4 *340:3 0.000105982
5 *340:4 0.000182686
6 *340:5 0.000182686
7 *340:6 0.00034848
8 *340:7 0.000363411
9 *340:8 0.000899579
10 *340:9 0.00098142
11 *340:10 0.000165225

*RES
1 *340:6 *694:Y 3.2
2 *340:6 *340:7 1.71602
3 *340:7 *340:8 0.183887
4 *340:9 *686:A 6.4000001
5 *340:8 *340:9 3.74404
6 *340:9 *340:10 0.312012
7 *340:5 *340:10 0.367676
8 *340:4 *340:5 0.467969
9 *340:3 *340:4 0.367676
10 *661:A0 *340:3 6.4000001
*END

*D_NET *341 0.00161627

*CONN
*I *839:Y O *C 86.79 33.88 *L 0 *D NOR3X1
*I *685:B I *C 87.45 27.72 *L 0.00385 *D NOR2X1
*I *663:A1 I *C 89.43 27.16 *L 0.00314 *D AOI21XL

*CAP
1 *839:Y 4.12118e-05
2 *685:B 0.000139843
3 *663:A1 0.000139843
4 *341:3 9.32508e-05
5 *341:4 0.00028577
6 *341:5 7.65411e-05
7 *341:6 0.000129361
8 *341:7 0.000164433
9 *341:8 0.00025975
10 *341:6 *83:7 8.047e-05
11 *341:4 *83:8 8.047e-05
12 *341:4 *83:7 6.267e-05
13 *341:3 *83:8 6.26699955e-05

*RES
1 *341:7 *663:A1 3.2
2 *341:5 *839:Y 0.223828
3 *341:7 *341:8 0.624023
4 *341:6 *341:5 6.4000001
5 *341:4 *341:8 0.551562
6 *341:4 *341:6 0.624023
7 *341:3 *341:4 0.467969
8 *685:B *341:3 3.2
*END

*D_NET *342 0.00466358

*CONN
*I *698:Y O *C 91.41 56.84 *L 0 *D NAND2XL
*I *685:A I *C 88.11 27.16 *L 0.0043 *D NOR2X1
*I *663:A0 I *C 90.09 27.72 *L 0.00314 *D AOI21XL

*CAP
1 *698:Y 6.32817e-05
2 *685:A 6.32817e-05
3 *663:A0 0.00013984
4 *342:3 0.00165329
5 *342:4 0.00172296
6 *342:5 0.000120595
7 *342:6 0.000167997
8 *342:7 0.000107003
9 *342:8 6.81455e-05
10 *342:9 0.000120595
11 *342:10 0.000171626
12 *342:11 9.34371e-05
13 *342:12 5.09251e-05
14 *342:13 0.000120595

*RES
1 *342:12 *698:Y 6.40001
2 *342:13 *342:12 6.40001
3 *342:3 *342:13 3.19994
4 *342:4 *342:3 8.11200047
5 *342:9 *663:A0 3.19994
6 *342:11 *342:4 3.19994
7 *342:10 *342:9 3.19994
8 *342:10 *342:11 0.367748
9 *342:8 *342:10 0.183812
10 *342:7 *342:8 0.155962
11 *342:6 *342:7 0.367748
12 *342:5 *342:6 3.19994
13 *685:A *342:5 6.40001
*END

*D_NET *343 0.00258896

*CONN
*I *842:Y O *C 144.21 94.36 *L 0 *D NOR3X1
*I *684:B I *C 133.65 93.24 *L 0.00385 *D NOR2X1
*I *660:A1 I *C 135.63 93.8 *L 0.00314 *D AOI21XL

*CAP
1 *842:Y 0.000139843
2 *684:B 7.4593e-05
3 *660:A1 0.000139843
4 *343:3 0.000101837
5 *343:4 0.000116772
6 *343:5 0.000294329
7 *343:6 0.00035475
8 *343:7 0.000330775
9 *343:8 0.000270359
10 *343:9 0.000156992
11 *343:10 0.00011773
12 *343:11 6.58508e-05
13 *343:12 0.000120599
14 *343:7 *79:13 1.263e-05
15 *343:8 *79:10 1.263e-05
16 *343:7 *79:10 7.752e-05
17 *343:8 *79:11 7.752e-05
18 *343:5 *79:10 6.219e-05
19 *343:6 *79:11 6.21899915e-05

*RES
1 *343:12 *842:Y 3.2
2 *343:7 *343:12 3.2
3 *343:8 *343:7 1.4709
4 *343:5 *343:8 0.155957
5 *343:6 *343:5 1.28701
6 *343:3 *660:A1 3.2
7 *343:3 *343:6 3.2
8 *343:4 *343:3 0.467969
9 *343:11 *343:4 0.183887
10 *343:10 *343:11 6.4000001
11 *343:9 *684:B 0.379785
12 *343:9 *343:10 0.447656
*END

*D_NET *344 0.00244555

*CONN
*I *693:Y O *C 126.39 94.36 *L 0 *D NAND2XL
*I *684:A I *C 134.31 93.8 *L 0.0043 *D NOR2X1
*I *660:A0 I *C 136.29 93.24 *L 0.00314 *D AOI21XL

*CAP
1 *693:Y 0.00013984
2 *684:A 6.32991e-05
3 *660:A0 0.00013984
4 *344:3 0.00020905
5 *344:4 0.00018301
6 *344:5 0.00032011
7 *344:6 0.00032011
8 *344:7 0.0001206
9 *344:8 5.51223e-05
10 *344:9 0.000129001
11 *344:10 0.00015084
12 *344:5 *205:10 0.00024492
13 *344:6 *205:8 0.00024492
14 *344:5 *205:8 6.244e-05
15 *344:6 *205:6 6.24400089e-05

*RES
1 *344:4 *660:A0 3.2
2 *344:4 *344:3 0.467969
3 *344:8 *684:A 6.4000001
4 *344:10 *344:3 0.551562
5 *344:8 *344:9 0.155957
6 *344:9 *344:10 0.155957
7 *344:5 *344:9 3.2
8 *344:6 *344:5 2.20625
9 *344:7 *344:6 3.2
10 *693:Y *344:7 3.2
*END

*D_NET *345 0.0127783

*CONN
*I *700:Y O *C 114.51 58.52 *L 0 *D NAND2X1
*I *683:A I *C 89.43 83.72 *L 0.0043 *D NOR2X1
*I *682:A I *C 113.85 87.64 *L 0.0043 *D NOR2X1
*I *681:A I *C 96.03 87.64 *L 0.0043 *D NOR2X1
*I *674:A I *C 87.45 57.4 *L 0.0043 *D NOR2X1

*CAP
1 *700:Y 0.000139849
2 *683:A 6.32921e-05
3 *682:A 6.32921e-05
4 *681:A 6.32921e-05
5 *674:A 6.32921e-05
6 *345:5 0.00029972
7 *345:6 0.00023003
8 *345:7 0.000116877
9 *345:8 0.000179838
10 *345:9 0.000954097
11 *345:10 0.00101449
12 *345:11 0.00052258
13 *345:12 0.00052258
14 *345:13 0.000144758
15 *345:14 0.000205734
16 *345:15 7.55368e-05
17 *345:16 0.000274459
18 *345:17 0.000196688
19 *345:18 0.000869597
20 *345:19 0.000564637
21 *345:20 0.000438742
22 *345:21 0.000634272
23 *345:22 0.000608569
24 *345:23 0.00180734
25 *345:24 0.00180734
26 *345:25 0.0001206
27 *345:26 0.0001206
28 *345:27 0.0001206
29 *345:9 *247:11 0.00027779
30 *345:10 *247:12 0.000277789992

*RES
1 *345:6 *683:A 6.39995
2 *345:7 *681:A 6.39995
3 *345:6 *345:5 0.780045
4 *345:26 *682:A 6.39995
5 *345:27 *700:Y 3.20004
6 *345:8 *345:7 0.311993
7 *345:19 *345:5 3.20004
8 *345:21 *345:26 3.20004
9 *345:16 *345:27 3.20004
10 *345:18 *345:8 3.20004
11 *345:19 *345:18 1.83852
12 *345:22 *345:21 2.94166
13 *345:17 *345:16 0.55157
14 *345:18 *345:20 2.02247
15 *345:20 *345:22 0.311993
16 *345:11 *345:17 0.0779667
17 *345:23 *345:20 3.20004
18 *345:12 *345:11 2.20628
19 *345:24 *345:23 8.26799965
20 *345:12 *345:13 0.0779667
21 *345:14 *345:24 3.20004
22 *345:14 *345:13 0.55157
23 *345:15 *345:14 0.183815
24 *345:15 *345:9 0.15606
25 *345:10 *345:9 4.22875
26 *345:25 *345:10 3.20004
27 *674:A *345:25 6.39995
*END

*D_NET *346 0.00213272

*CONN
*I *852:Y O *C 82.83 99.4 *L 0 *D NAND3BX1
*I *679:B I *C 85.47 87.64 *L 0.00375 *D NAND2X1
*I *654:A1 I *C 87.45 87.64 *L 0.00324 *D OAI21XL

*CAP
1 *852:Y 9.20745e-05
2 *679:B 6.33001e-05
3 *654:A1 6.33001e-05
4 *346:3 0.000127394
5 *346:4 0.000537048
6 *346:5 0.00058436
7 *346:6 0.000137086
8 *346:7 9.73265e-05
9 *346:8 0.000140189
10 *346:9 0.00013327
11 *346:10 0.000106448
12 *346:11 5.09236e-05

*RES
1 *346:11 *654:A1 6.4000001
2 *346:7 *346:11 6.4000001
3 *346:8 *346:7 0.367676
4 *346:8 *346:10 0.312012
5 *346:6 *679:B 6.4000001
6 *346:9 *346:10 0.183887
7 *346:6 *346:5 0.467969
8 *346:5 *346:9 3.2
9 *346:5 *346:4 2.02803
10 *346:3 *346:4 3.2
11 *852:Y *346:3 0.447656
*END

*D_NET *347 0.00265694

*CONN
*I *691:Y O *C 92.07 83.16 *L 0 *D NOR2X1
*I *679:A I *C 86.13 88.2 *L 0.00403 *D NAND2X1
*I *654:A0 I *C 88.11 87.64 *L 0.00336 *D OAI21XL

*CAP
1 *691:Y 0.000139837
2 *679:A 0.000139837
3 *654:A0 0.000139837
4 *347:3 0.000243501
5 *347:4 0.00035767
6 *347:5 0.000237339
7 *347:6 0.000262979
8 *347:7 0.000237688
9 *347:8 0.000215213
10 *347:9 0.000166209
11 *347:10 0.000160331
12 *347:11 0.000120599
13 *347:12 0.000235887

*RES
1 *347:11 *691:Y 3.20000005
2 *347:12 *347:11 3.20000005
3 *347:9 *347:12 0.919287
4 *347:8 *347:9 3.20000005
5 *347:8 *347:10 0.624023
6 *347:7 *347:10 0.183838
7 *347:4 *654:A0 3.20000005
8 *347:7 *347:4 0.77998
9 *347:4 *347:3 0.624023
10 *347:6 *347:3 0.551562
11 *347:5 *347:6 0.468018
12 *679:A *347:5 3.20000005
*END

*D_NET *348 0.00238894

*CONN
*I *855:Y O *C 46.53 61.88 *L 0 *D NAND3BX1
*I *678:B I *C 53.13 57.4 *L 0.00375 *D NAND2X1
*I *655:A1 I *C 55.11 57.4 *L 0.00324 *D OAI21XL

*CAP
1 *855:Y 0.000139845
2 *678:B 0.000139845
3 *655:A1 6.32979e-05
4 *348:3 0.00034184
5 *348:4 0.000249556
6 *348:5 0.000164668
7 *348:6 9.49912e-05
8 *348:7 0.000175878
9 *348:8 0.00024556
10 *348:9 0.000155321
11 *348:10 0.000218301
12 *348:11 0.000105679
13 *348:11 *40:8 3.79e-05
14 *348:3 *40:6 3.79e-05
15 *348:3 *40:8 7.543e-05
16 *348:4 *40:6 7.543e-05
17 *348:3 *40:6 2.489e-05
18 *348:4 *40:7 2.489e-05
19 *348:6 *40:9 8.86e-06
20 *348:5 *40:10 8.86000219e-06

*RES
1 *348:9 *655:A1 6.4000001
2 *348:7 *678:B 3.2
3 *348:9 *348:10 0.624023
4 *348:7 *348:8 0.77998
5 *348:11 *348:10 3.2
6 *348:3 *348:8 3.2
7 *348:3 *348:11 0.551562
8 *348:4 *348:3 1.4709
9 *348:6 *855:Y 3.2
10 *348:5 *348:4 3.2
11 *348:5 *348:6 0.467969
*END

*D_NET *349 0.00550821

*CONN
*I *692:Y O *C 88.11 63 *L 0 *D NOR2X1
*I *678:A I *C 53.79 57.96 *L 0.00403 *D NAND2X1
*I *655:A0 I *C 55.77 57.4 *L 0.00336 *D OAI21XL

*CAP
1 *692:Y 0.000329584
2 *678:A 0.000139839
3 *655:A0 0.000139839
4 *349:3 0.000455864
5 *349:4 0.000481502
6 *349:5 7.31774e-05
7 *349:6 0.000113439
8 *349:7 0.000142104
9 *349:8 0.000284377
10 *349:9 0.00027748
11 *349:10 0.000286182
12 *349:11 0.000419034
13 *349:12 0.00073497
14 *349:13 0.000419034
15 *349:14 0.000364922
16 *349:15 0.000120594
17 *349:16 0.000726267

*RES
1 *349:14 *692:Y 1.7906
2 *349:15 *349:14 3.19999
3 *349:16 *349:15 3.19999
4 *349:12 *349:16 3.67714286
5 *349:12 *349:13 0.155982
6 *349:11 *349:13 2.02244
7 *349:10 *349:11 0.155982
8 *349:9 *349:10 1.28702
9 *349:3 *349:9 3.19999
10 *349:4 *349:3 1.87201
11 *349:8 *655:A0 3.19999
12 *349:8 *349:4 0.551549
13 *349:6 *349:8 0.367737
14 *349:6 *349:5 0.155982
15 *349:7 *349:5 0.183868
16 *678:A *349:7 3.19999
*END

*D_NET *350 0.0161885

*CONN
*I *695:Y O *C 125.07 57.96 *L 0 *D NOR2X1
*I *680:A I *C 124.41 98.28 *L 0.00403 *D NAND2X1
*I *677:A I *C 101.31 93.24 *L 0.00403 *D NAND2X1
*I *676:A I *C 94.05 57.96 *L 0.00403 *D NAND2X1
*I *675:A I *C 96.03 83.16 *L 0.00403 *D NAND2X1

*CAP
1 *695:Y 0.000139846
2 *680:A 0.000139846
3 *677:A 0.000139846
4 *676:A 0.000139846
5 *675:A 0.000139846
6 *350:5 0.000489379
7 *350:6 0.0003218
8 *350:7 0.000553141
9 *350:8 0.000587869
10 *350:9 0.000499139
11 *350:10 0.000499139
12 *350:11 0.000316046
13 *350:12 0.000280769
14 *350:13 0.000331722
15 *350:14 0.00032302
16 *350:15 0.000212839
17 *350:16 0.000381577
18 *350:17 0.000191388
19 *350:18 0.0002141
20 *350:19 0.000144421
21 *350:20 0.00133248
22 *350:21 0.00128645
23 *350:22 0.000320336
24 *350:23 0.000129456
25 *350:24 0.000173435
26 *350:25 0.000329079
27 *350:26 0.000329079
28 *350:27 0.000495743
29 *350:28 0.000495743
30 *350:29 0.000192303
31 *350:30 0.000117297
32 *350:31 0.000500033
33 *350:32 0.000520162
34 *350:33 0.000357422
35 *350:34 0.000357422
36 *350:35 0.000120591
37 *350:36 0.000120591
38 *350:37 0.000120591
39 *350:38 0.000378304
40 *350:39 0.000447982
41 *350:40 0.000823582
42 *350:41 0.000768705
43 *350:42 0.00010341
44 *350:43 0.000120591
45 *350:7 *246:6 0.00010107
46 *350:8 *246:4 0.00010107

*RES
1 *350:36 *675:A 3.20001
2 *350:37 *350:36 3.20001
3 *350:38 *350:37 3.20001
4 *350:38 *350:39 1.71598
5 *350:26 *350:39 3.20001
6 *350:26 *350:25 1.4709
7 *350:6 *350:25 3.20001
8 *350:43 *680:A 3.20001
9 *350:5 *677:A 3.20001
10 *350:6 *350:5 1.09198
11 *350:23 *350:43 3.20001
12 *350:5 *350:22 1.09198
13 *350:24 *350:23 0.551555
14 *350:21 *350:22 3.20001
15 *350:42 *350:24 0.312043
16 *350:21 *350:20 5.69957161
17 *350:20 *350:42 0.183852
18 *350:29 *350:20 3.20001
19 *350:30 *350:29 0.467978
20 *350:30 *350:33 0.0919258
21 *350:34 *350:33 1.56004
22 *350:31 *350:34 0.0919258
23 *350:32 *350:31 2.18404
24 *350:27 *350:32 0.183852
25 *350:28 *350:27 2.33998
26 *350:19 *695:Y 3.20001
27 *350:28 *350:41 0.183852
28 *350:19 *350:18 0.623999
29 *350:40 *350:41 3.58798
30 *350:15 *350:18 3.20001
31 *350:16 *350:40 3.20001
32 *350:16 *350:15 0.919258
33 *350:17 *350:16 0.735406
34 *350:9 *350:17 0.156022
35 *350:10 *350:9 2.20631
36 *350:7 *350:10 0.156022
37 *350:8 *350:7 2.75786
38 *350:11 *350:8 0.312043
39 *350:12 *350:11 1.10311
40 *350:13 *350:12 0.156022
41 *350:14 *350:13 0.919258
42 *350:35 *350:14 3.20001
43 *676:A *350:35 3.20001
*END

*D_NET *351 0.00110277

*CONN
*I *832:Y O *C 108.57 134.68 *L 0 *D NOR3X1
*I *673:B I *C 113.85 133.56 *L 0.00385 *D NOR2X1
*I *640:A1 I *C 111.21 134.12 *L 0.00314 *D AOI21XL

*CAP
1 *832:Y 7.97295e-05
2 *673:B 0.00013984
3 *640:A1 0.000115059
4 *351:3 0.00012594
5 *351:4 5.62583e-05
6 *351:5 0.00023267
7 *351:6 0.000120601
8 *351:7 0.00023267

*RES
1 *351:6 *673:B 3.20000005
2 *351:7 *351:6 3.20000005
3 *351:5 *351:7 0.735449
4 *351:4 *351:5 3.20000005
5 *351:4 *351:3 0.156006
6 *640:A1 *351:3 3.20000005
7 *832:Y *640:A1 0.447656
*END

*D_NET *352 0.00647694

*CONN
*I *688:Y O *C 118.47 92.68 *L 0 *D NAND2X1
*I *673:A I *C 114.51 134.12 *L 0.0043 *D NOR2X1
*I *640:A0 I *C 111.87 133.56 *L 0.00314 *D AOI21XL

*CAP
1 *688:Y 0.000139853
2 *673:A 6.32974e-05
3 *640:A0 0.000139853
4 *352:3 0.000158493
5 *352:4 0.000322867
6 *352:5 0.000177778
7 *352:6 9.1617e-05
8 *352:7 0.000161294
9 *352:8 0.000532821
10 *352:9 0.000477942
11 *352:10 0.00096112
12 *352:11 0.00096112
13 *352:12 0.000682749
14 *352:13 0.000682749
15 *352:14 0.000114114
16 *352:15 0.000168979
17 *352:16 0.000189613
18 *352:17 0.000126624
19 *352:18 6.68758e-05
20 *352:19 0.000120611
21 *352:20 0.000136553

*RES
1 *352:19 *688:Y 3.2
2 *352:20 *352:19 3.2
3 *352:18 *352:20 0.183887
4 *352:15 *352:18 3.2
5 *352:15 *352:14 0.467969
6 *352:14 *352:13 0.183887
7 *352:13 *352:12 3.27598
8 *352:11 *352:12 0.183887
9 *352:11 *352:10 4.67998
10 *352:9 *352:10 0.183887
11 *352:17 *673:A 6.4000001
12 *352:9 *352:8 2.18398
13 *352:16 *352:17 0.467969
14 *352:3 *352:8 3.2
15 *352:4 *352:16 3.2
16 *352:4 *352:3 0.919238
17 *352:6 *640:A0 3.2
18 *352:5 *352:4 0.735449
19 *352:7 *352:6 0.312012
20 *352:7 *352:5 3.2
*END

*D_NET *353 0.00277124

*CONN
*I *840:Y O *C 141.57 127.4 *L 0 *D NOR3X1
*I *672:B I *C 141.57 118.44 *L 0.00385 *D NOR2X1
*I *639:A1 I *C 138.93 117.88 *L 0.00314 *D AOI21XL

*CAP
1 *840:Y 6.32977e-05
2 *672:B 0.000139836
3 *639:A1 0.000139836
4 *353:3 0.000447424
5 *353:4 0.00053367
6 *353:5 0.000153379
7 *353:6 0.000288964
8 *353:7 0.000250023
9 *353:8 0.000264021
10 *353:9 0.000344542
11 *353:10 0.000146245

*RES
1 *353:10 *840:Y 6.4000001
2 *353:9 *353:10 0.551562
3 *353:8 *353:9 0.936035
4 *353:5 *672:B 3.2
5 *353:3 *353:8 0.183887
6 *353:6 *353:5 0.624023
7 *353:4 *639:A1 3.2
8 *353:4 *353:3 1.71602
9 *353:7 *353:6 0.735449
10 *353:7 *353:4 0.467969
*END

*D_NET *354 0.00556693

*CONN
*I *690:Y O *C 121.11 98.84 *L 0 *D NAND2X1
*I *672:A I *C 142.23 117.88 *L 0.0043 *D NOR2X1
*I *639:A0 I *C 139.59 118.44 *L 0.00314 *D AOI21XL

*CAP
1 *690:Y 3.73086e-05
2 *672:A 6.32907e-05
3 *639:A0 0.000139832
4 *354:3 0.00109642
5 *354:4 0.00109642
6 *354:5 0.000243509
7 *354:6 0.000245484
8 *354:7 0.000315349
9 *354:8 0.000306633
10 *354:9 0.000790741
11 *354:10 0.000643999
12 *354:11 0.000120609
13 *354:12 7.01836e-05
14 *354:13 0.000145386
15 *354:14 0.000120609
16 *354:15 0.000131166

*RES
1 *354:14 *672:A 6.4000001
2 *354:15 *354:14 3.2
3 *354:12 *354:15 0.183887
4 *354:11 *639:A0 3.2
5 *354:12 *354:13 0.155957
6 *354:9 *354:11 3.2
7 *354:9 *354:13 0.551562
8 *354:10 *354:9 2.39014
9 *354:7 *354:10 0.155957
10 *354:8 *354:7 1.65469
11 *354:3 *354:8 3.2
12 *354:4 *354:3 5.14805
13 *354:5 *354:4 3.2
14 *354:6 *354:5 1.11914
15 *690:Y *354:6 0.189941
*END

*D_NET *355 0.00185186

*CONN
*I *977:A I *C 47.85 57.4 *L 0.00557 *D XNOR2X1
*I *678:Y O *C 53.79 58.52 *L 0 *D NAND2X1
*I *655:B0 I *C 56.43 58.52 *L 0.00302 *D OAI21XL

*CAP
1 *977:A 6.33007e-05
2 *678:Y 6.33007e-05
3 *655:B0 6.33007e-05
4 *355:3 0.000120598
5 *355:4 0.000177229
6 *355:5 0.000231049
7 *355:6 0.000185932
8 *355:7 5.09228e-05
9 *355:8 0.00035162
10 *355:9 0.000219691
11 *355:10 0.000120598
12 *355:11 0.000204319

*RES
1 *355:10 *655:B0 6.4000001
2 *355:11 *355:10 3.2
3 *355:9 *355:11 0.467969
4 *355:7 *678:Y 6.4000001
5 *355:8 *355:9 0.551562
6 *355:8 *355:7 6.4000001
7 *355:5 *355:8 0.919238
8 *355:5 *355:6 0.155957
9 *355:4 *355:6 0.735449
10 *355:3 *355:4 3.2
11 *977:A *355:3 6.4000001
*END

*D_NET *356 0.00169146

*CONN
*I *976:A I *C 81.51 83.72 *L 0.00557 *D XNOR2X1
*I *679:Y O *C 86.13 88.76 *L 0 *D NAND2X1
*I *654:B0 I *C 88.77 88.76 *L 0.00302 *D OAI21XL

*CAP
1 *976:A 6.32981e-05
2 *679:Y 0.000146731
3 *654:B0 8.34277e-05
4 *356:3 0.00010598
5 *356:4 0.00032873
6 *356:5 0.00032873
7 *356:6 0.000195302
8 *356:7 0.00018236
9 *356:8 7.24174e-05
10 *356:9 0.000118761
11 *356:10 6.57209e-05

*RES
1 *356:9 *654:B0 0.447656
2 *356:10 *356:9 6.4000001
3 *356:8 *356:10 0.183887
4 *679:Y *356:8 6.4000001
5 *356:6 *679:Y 0.447656
6 *356:7 *356:6 3.2
7 *356:5 *356:7 0.367676
8 *356:4 *356:5 1.404
9 *356:3 *356:4 0.367676
10 *976:A *356:3 6.4000001
*END

*D_NET *357 0.00328964

*CONN
*I *754:Y O *C 111.87 57.96 *L 0 *D NOR2X1
*I *716:S0 I *C 106.59 57.96 *L 0.00672 *D MXI2X1
*I *670:B0 I *C 107.91 53.48 *L 0.00348 *D OAI2BB2XL
*I *670:A0N I *C 105.27 53.48 *L 0.0019 *D OAI2BB2XL

*CAP
1 *754:Y 6.33037e-05
2 *716:S0 0.000139844
3 *670:B0 0.000139844
4 *670:A0N 0.000139844
5 *357:4 0.000268292
6 *357:5 0.000268292
7 *357:6 0.000120597
8 *357:7 0.00023351
9 *357:8 0.000335765
10 *357:9 0.00068144
11 *357:10 5.09195e-05
12 *357:11 0.000185325
13 *357:12 5.09195e-05
14 *357:13 0.000611762

*RES
1 *357:12 *754:Y 6.4000001
2 *357:13 *357:12 6.4000001
3 *357:9 *357:13 1.4709
4 *357:10 *670:B0 3.2
5 *357:4 *716:S0 3.2
6 *357:4 *357:9 3.2
7 *357:11 *357:10 6.4000001
8 *357:5 *357:4 1.24805
9 *357:8 *357:11 0.367676
10 *357:8 *357:5 6.4000001
11 *357:7 *357:8 0.367676
12 *357:6 *357:7 3.2
13 *670:A0N *357:6 3.2
*END

*D_NET *358 0.00226064

*CONN
*I *670:Y O *C 109.23 53.48 *L 0 *D OAI2BB2XL
*I *651:D I *C 102.63 48.44 *L 0.00206 *D DFFRX1

*CAP
1 *670:Y 0.000139842
2 *651:D 0.000139842
3 *358:2 0.000123121
4 *358:3 0.000192804
5 *358:4 0.000226538
6 *358:5 0.000281596
7 *358:6 0.000182357
8 *358:7 0.00048727
9 *358:8 0.00048727

*RES
1 *358:2 *670:Y 3.20000005
2 *358:3 *358:2 0.312012
3 *358:8 *358:3 3.20000005
4 *358:7 *358:8 1.47085
5 *358:4 *358:7 3.20000005
6 *358:5 *358:4 0.77998
7 *358:6 *358:5 0.367725
8 *651:D *358:6 3.20000005
*END

*D_NET *359 0.00351974

*CONN
*I *747:Y O *C 112.53 78.12 *L 0 *D NOR2X1
*I *714:S0 I *C 113.85 78.12 *L 0.00672 *D MXI2X1
*I *669:B0 I *C 108.57 83.72 *L 0.00348 *D OAI2BB2XL
*I *669:A0N I *C 105.93 83.72 *L 0.0019 *D OAI2BB2XL

*CAP
1 *747:Y 3.73024e-05
2 *714:S0 0.000139838
3 *669:B0 0.000139838
4 *669:A0N 0.000139838
5 *359:4 0.000218059
6 *359:5 0.000218059
7 *359:6 0.000176418
8 *359:7 0.000176418
9 *359:8 0.00022154
10 *359:9 0.000205819
11 *359:10 0.000251717
12 *359:11 0.000266211016
13 *359:12 0.0001206
14 *359:13 0.000132661
15 *359:14 0.0001206
16 *359:15 0.00010683
17 *359:16 6.32228e-05
18 *359:17 0.000117728
19 *359:18 0.000119698
20 *359:8 *360:2 0.00012591
21 *359:9 *360:3 0.00012591
22 *359:16 *360:2 7.53e-06
23 *359:13 *360:3 7.53e-06
24 *359:11 *360:2 6.68e-06
25 *359:15 *360:3 6.68000945e-06
26 *359:6 *311:8 0.0001186
27 *359:7 *311:5 0.0001186
28 *359:4 *311:8 1.494e-05
29 *359:5 *311:5 1.4939998e-05

*RES
1 *747:Y *359:18 0.189893
2 *359:7 *714:S0 3.20000005
3 *359:17 *359:18 0.447656
4 *359:7 *359:6 0.935986
5 *359:5 *359:17 3.20000005
6 *359:10 *359:6 3.20000005
7 *359:5 *359:4 0.624023
8 *359:11 *359:10 0.735449
9 *359:11 *359:4 3.20000005
10 *359:15 *359:11 0.551562
11 *359:15 *359:16 0.156006
12 *359:14 *669:B0 3.20000005
13 *359:13 *359:16 0.183838
14 *359:8 *359:14 3.20000005
15 *359:13 *359:8 0.468018
16 *359:9 *359:8 0.735449
17 *359:12 *359:9 3.20000005
18 *669:A0N *359:12 3.20000005
*END

*D_NET *360 0.00356249

*CONN
*I *669:Y O *C 109.89 83.72 *L 0 *D OAI2BB2XL
*I *645:D I *C 105.27 98.84 *L 0.00206 *D DFFRX1

*CAP
1 *669:Y 0.000139842
2 *645:D 6.33009e-05
3 *360:2 0.000349364
4 *360:3 0.000279678
5 *360:4 0.000189181
6 *360:5 0.000258855
7 *360:6 0.000279061
8 *360:7 0.00033394
9 *360:8 0.00040433
10 *360:9 0.00040433
11 *360:10 0.000176977
12 *360:11 0.000120599
13 *360:12 0.000162182
14 *360:13 0.000120599
15 *360:2 *359:8 0.00012591
16 *360:3 *359:9 0.00012591
17 *360:2 *359:16 7.53e-06
18 *360:3 *359:13 7.53e-06
19 *360:2 *359:11 6.68e-06
20 *360:3 *359:15 6.68000945e-06

*RES
1 *360:4 *645:D 6.4000001
2 *360:5 *360:4 0.624023
3 *360:13 *669:Y 3.2
4 *360:11 *360:5 3.2
5 *360:2 *360:13 3.2
6 *360:12 *360:11 3.2
7 *360:3 *360:2 1.28701
8 *360:10 *360:12 0.624023
9 *360:7 *360:3 3.2
10 *360:9 *360:10 0.183887
11 *360:7 *360:6 1.09199
12 *360:8 *360:9 1.71602
13 *360:8 *360:6 0.183887
*END

*D_NET *361 0.00267249

*CONN
*I *755:Y O *C 113.19 73.08 *L 0 *D NOR2X1
*I *715:S0 I *C 114.51 73.08 *L 0.00672 *D MXI2X1
*I *668:B0 I *C 109.89 73.64 *L 0.00348 *D OAI2BB2XL
*I *668:A0N I *C 107.25 73.64 *L 0.0019 *D OAI2BB2XL

*CAP
1 *755:Y 0.000139842
2 *715:S0 6.33024e-05
3 *668:B0 0.000139842
4 *668:A0N 0.000139842
5 *361:4 0.000117146
6 *361:5 0.000117146
7 *361:6 0.000317706
8 *361:7 0.000186831
9 *361:8 0.000186831
10 *361:9 0.00048927
11 *361:10 0.000237942
12 *361:11 0.000106238
13 *361:12 0.000324321
14 *361:13 0.000106238

*RES
1 *361:13 *715:S0 6.4000001
2 *361:10 *361:13 0.367676
3 *361:10 *755:Y 3.2
4 *361:7 *668:B0 3.2
5 *361:10 *361:11 0.467969
6 *361:7 *361:8 0.312012
7 *361:12 *361:11 3.2
8 *361:9 *361:8 3.2
9 *361:9 *361:12 0.919238
10 *361:6 *361:9 0.735449
11 *361:5 *361:6 3.2
12 *361:4 *361:5 0.312012
13 *668:A0N *361:4 3.2
*END

*D_NET *362 0.0087785

*CONN
*I *699:Y O *C 118.47 59.08 *L 0 *D OAI21XL
*I *670:A1N I *C 105.93 52.92 *L 0.00224 *D OAI2BB2XL
*I *669:A1N I *C 106.59 83.16 *L 0.00224 *D OAI2BB2XL
*I *668:A1N I *C 107.91 73.08 *L 0.00224 *D OAI2BB2XL
*I *667:A1N I *C 119.13 73.08 *L 0.00224 *D OAI2BB2XL

*CAP
1 *699:Y 6.33014e-05
2 *670:A1N 6.33014e-05
3 *669:A1N 6.33014e-05
4 *668:A1N 6.33014e-05
5 *667:A1N 6.33014e-05
6 *362:5 0.000148178
7 *362:6 0.000217862
8 *362:7 0.000425087
9 *362:8 0.000458604
10 *362:9 0.00091211
11 *362:10 0.00091211
12 *362:11 0.0013153
13 *362:12 0.000441885
14 *362:13 0.000872833
15 *362:14 0.000151971
16 *362:15 6.29602e-05
17 *362:16 5.09181e-05
18 *362:17 0.000112293
19 *362:18 4.69241e-05
20 *362:19 0.000585789
21 *362:20 0.000181976
22 *362:21 0.000647344
23 *362:22 0.000140752
24 *362:23 0.000112473
25 *362:24 7.10685e-05
26 *362:21 *332:17 6.491e-05
27 *362:19 *332:18 6.491e-05
28 *362:21 *332:18 1.188e-05
29 *362:19 *332:14 1.188e-05
30 *362:7 *332:19 0.00017819
31 *362:8 *332:10 0.00017819
32 *362:7 *332:10 2.089e-05
33 *362:8 *332:11 2.089e-05
34 *362:8 *332:10 2.089e-05
35 *362:18 *332:11 2.0889994e-05

*RES
1 *362:5 *669:A1N 6.4000001
2 *362:6 *362:5 0.624023
3 *362:17 *362:6 3.2
4 *362:17 *362:20 0.367676
5 *362:7 *362:20 3.2
6 *362:8 *668:A1N 6.4000001
7 *362:8 *362:7 2.18398
8 *362:24 *667:A1N 6.4000001
9 *362:18 *362:8 0.155957
10 *362:22 *362:24 0.155957
11 *362:19 *362:18 3.2
12 *362:23 *362:22 3.2
13 *362:19 *362:21 2.57402
14 *362:21 *362:23 0.551562
15 *362:15 *699:Y 6.4000001
16 *362:13 *362:21 3.2
17 *362:15 *362:14 0.155957
18 *362:11 *362:13 3.58799
19 *362:11 *362:14 0.551562
20 *362:12 *362:11 1.87197
21 *362:9 *362:12 3.2
22 *362:10 *362:9 3.12559
23 *362:16 *362:10 6.4000001
24 *670:A1N *362:16 6.4000001
*END

*D_NET *363 0.00519933

*CONN
*I *668:Y O *C 111.21 73.64 *L 0 *D OAI2BB2XL
*I *650:D I *C 77.55 68.6 *L 0.00206 *D DFFRX1

*CAP
1 *668:Y 6.32937e-05
2 *650:D 6.32937e-05
3 *363:2 0.000519716
4 *363:3 0.000519716
5 *363:4 0.00084308
6 *363:5 0.00084308
7 *363:6 0.000124799
8 *363:7 5.51247e-05
9 *363:8 0.000244002
10 *363:9 0.000244002
11 *363:10 0.000107008
12 *363:11 0.000161759
13 *363:12 0.000412799
14 *363:13 0.000120605
15 *363:14 0.000412799
16 *363:15 6.58538e-05
17 *363:2 *171:30 7.547e-05
18 *363:3 *171:29 7.547e-05
19 *363:2 *171:28 1.335e-05
20 *363:3 *171:27 1.335e-05
21 *363:2 *171:27 6.68e-06
22 *363:3 *171:26 6.68e-06
23 *363:4 *171:13 0.00010371
24 *363:5 *171:14 0.000103709997

*RES
1 *363:15 *668:Y 6.4000001
2 *363:10 *363:15 0.183887
3 *363:11 *363:10 0.312012
4 *363:2 *363:11 3.2
5 *363:3 *363:2 2.57402
6 *363:13 *363:3 3.2
7 *363:14 *363:13 3.2
8 *363:12 *363:14 2.39014
9 *363:8 *363:12 3.2
10 *363:9 *363:8 0.624023
11 *363:4 *363:9 3.2
12 *363:5 *363:4 4.22871
13 *363:6 *363:5 3.2
14 *363:7 *363:6 0.155957
15 *650:D *363:7 6.4000001
*END

*D_NET *364 0.00250012

*CONN
*I *746:Y O *C 119.13 78.12 *L 0 *D NOR2X1
*I *713:S0 I *C 121.77 78.12 *L 0.00672 *D MXI2X1
*I *667:B0 I *C 121.11 73.64 *L 0.00348 *D OAI2BB2XL
*I *667:A0N I *C 118.47 73.64 *L 0.0019 *D OAI2BB2XL

*CAP
1 *746:Y 0.000139841
2 *713:S0 0.000139841
3 *667:B0 0.000139841
4 *667:A0N 0.000139841
5 *364:4 0.000120809
6 *364:5 0.000199591
7 *364:6 0.000135741
8 *364:7 0.000248579
9 *364:8 0.00030333
10 *364:9 0.000226057
11 *364:10 0.000199591
12 *364:11 0.000240988
13 *364:12 0.000140499
14 *364:13 0.000125567

*RES
1 *364:13 *713:S0 3.20000005
2 *364:12 *364:13 0.468018
3 *364:11 *364:12 0.183838
4 *364:9 *667:B0 3.20000005
5 *364:9 *364:11 0.77998
6 *364:8 *746:Y 3.20000005
7 *364:10 *364:9 3.20000005
8 *364:7 *364:8 0.77998
9 *364:5 *364:10 0.735449
10 *364:6 *364:7 0.183838
11 *364:4 *364:5 3.20000005
12 *364:4 *364:6 0.468018
13 *667:A0N *364:4 3.20000005
*END

*D_NET *365 0.00024236

*CONN
*I *667:Y O *C 122.43 73.64 *L 0 *D OAI2BB2XL
*I *652:D I *C 124.41 72.52 *L 0.00206 *D DFFRX1

*CAP
1 *365:2 0.00012118
2 *365:3 0.00012118

*RES
1 *365:3 *652:D 3.20000005
2 *365:2 *365:3 0.551562
3 *667:Y *365:2 3.20000005
*END

*D_NET *366 0.000841409

*CONN
*I *854:Y O *C 69.63 41.72 *L 0 *D NAND3BX1
*I *666:B I *C 74.25 43.4 *L 0.00375 *D NAND2X1
*I *627:A1 I *C 71.61 43.4 *L 0.00324 *D OAI21XL

*CAP
1 *854:Y 0.000100649
2 *666:B 6.3299e-05
3 *627:A1 4.2248e-05
4 *366:3 9.3729e-05
5 *366:4 0.00022262
6 *366:5 8.631e-05
7 *366:6 0.000166828
8 *366:7 6.57211e-05

*RES
1 *366:7 *666:B 6.4000001
2 *366:5 *366:7 0.183887
3 *366:5 *366:6 0.312012
4 *366:4 *366:6 0.551562
5 *366:3 *366:4 3.2
6 *854:Y *366:3 0.223828
7 *854:Y *627:A1 0.223828
*END

*D_NET *367 0.0047677

*CONN
*I *674:Y O *C 88.11 57.96 *L 0 *D NOR2X1
*I *666:A I *C 74.91 42.84 *L 0.00403 *D NAND2X1
*I *627:A0 I *C 72.27 43.4 *L 0.00336 *D OAI21XL

*CAP
1 *674:Y 0.000139836
2 *666:A 6.33048e-05
3 *627:A0 0.000139836
4 *367:3 0.00065416
5 *367:4 0.000620002
6 *367:5 0.000298237
7 *367:6 0.000228564
8 *367:7 0.000120601
9 *367:8 0.000136691
10 *367:9 7.35263e-05
11 *367:10 0.000179553
12 *367:11 0.000120601
13 *367:12 0.000134505
14 *367:13 0.000460702
15 *367:14 0.000460702
16 *367:15 0.00017016
17 *367:16 0.00014829
18 *367:17 0.000163093
19 *367:18 0.000139925
20 *367:19 0.000194816
21 *367:20 0.000120601

*RES
1 *367:20 *674:Y 3.2
2 *367:5 *367:20 3.2
3 *367:6 *367:5 0.551562
4 *367:19 *367:6 3.2
5 *367:18 *367:19 0.467969
6 *367:14 *367:18 0.183887
7 *367:13 *367:14 2.496
8 *367:13 *367:17 0.183887
9 *367:16 *367:17 0.624023
10 *367:11 *666:A 6.4000001
11 *367:15 *367:16 3.2
12 *367:12 *367:11 3.2
13 *367:3 *367:15 0.312012
14 *367:9 *367:12 0.183887
15 *367:4 *367:3 3.30947
16 *367:9 *367:10 0.155957
17 *367:10 *367:4 0.155957
18 *367:8 *367:10 0.551562
19 *367:7 *367:8 3.2
20 *627:A0 *367:7 3.2
*END

*D_NET *368 0.000800412

*CONN
*I *851:Y O *C 66.33 82.04 *L 0 *D NAND3BX1
*I *665:B I *C 70.95 83.72 *L 0.00375 *D NAND2X1
*I *628:A1 I *C 68.31 83.72 *L 0.00324 *D OAI21XL

*CAP
1 *851:Y 0.000100651
2 *665:B 6.33019e-05
3 *628:A1 4.2252e-05
4 *368:3 9.37281e-05
5 *368:4 0.0001865
6 *368:5 9.25522e-05
7 *368:6 0.00022143

*RES
1 *368:5 *665:B 6.4000001
2 *368:5 *368:6 0.312012
3 *368:4 *368:6 0.735449
4 *368:3 *368:4 6.4000001
5 *851:Y *368:3 0.223828
6 *851:Y *628:A1 0.223828
*END

*D_NET *369 0.00366099

*CONN
*I *683:Y O *C 90.09 83.16 *L 0 *D NOR2X1
*I *665:A I *C 71.61 83.16 *L 0.00403 *D NAND2X1
*I *628:A0 I *C 68.97 83.72 *L 0.00336 *D OAI21XL

*CAP
1 *683:Y 6.32996e-05
2 *665:A 6.32996e-05
3 *628:A0 0.00013984
4 *369:3 5.51209e-05
5 *369:4 5.51209e-05
6 *369:5 0.00057696
7 *369:6 0.000515976
8 *369:7 0.000210562
9 *369:8 0.000271537
10 *369:9 0.000182363
11 *369:10 0.00011018
12 *369:11 0.00011688
13 *369:12 0.000105981
14 *369:13 0.000359857
15 *369:14 0.000359857
16 *369:5 *381:7 0.00018153
17 *369:6 *381:8 0.00018153
18 *369:14 *381:7 3.552e-05
19 *369:13 *381:8 3.552e-05
20 *369:14 *381:8 2.003e-05
21 *369:13 *381:9 2.00299905e-05

*RES
1 *369:4 *683:Y 6.4000001
2 *369:4 *369:3 0.155957
3 *369:5 *369:3 3.2
4 *369:6 *369:5 2.75781
5 *369:14 *369:6 0.155957
6 *369:13 *369:14 2.02246
7 *369:12 *665:A 6.4000001
8 *369:13 *369:7 0.155957
9 *369:10 *369:12 0.367676
10 *369:8 *369:7 0.735449
11 *369:10 *369:11 0.155957
12 *369:11 *369:8 3.2
13 *369:9 *369:11 0.367676
14 *628:A0 *369:9 3.2
*END

*D_NET *370 0.00358579

*CONN
*I *853:Y O *C 132.99 149.8 *L 0 *D NAND3BX1
*I *664:B I *C 109.23 148.12 *L 0.00375 *D NAND2X1
*I *630:A1 I *C 111.21 148.12 *L 0.00324 *D OAI21XL

*CAP
1 *853:Y 3.98649e-05
2 *664:B 0.000139844
3 *630:A1 6.32987e-05
4 *370:3 0.00131261
5 *370:4 0.0013823
6 *370:5 0.000222632
7 *370:6 0.000152942
8 *370:7 0.00015174
9 *370:8 0.000120586

*RES
1 *853:Y *370:7 0.223807
2 *370:8 *370:7 3.20005
3 *370:3 *370:8 3.20005
4 *370:4 *370:3 6.61885691
5 *370:6 *630:A1 6.4
6 *370:6 *370:4 3.20005
7 *370:5 *370:6 0.551538
8 *664:B *370:5 3.20005
*END

*D_NET *371 0.00862173

*CONN
*I *682:Y O *C 114.51 88.2 *L 0 *D NOR2X1
*I *664:A I *C 109.89 148.68 *L 0.00403 *D NAND2X1
*I *630:A0 I *C 111.87 148.12 *L 0.00336 *D OAI21XL

*CAP
1 *682:Y 0.000139865
2 *664:A 6.33077e-05
3 *630:A0 0.000139865
4 *371:3 0.00021753
5 *371:4 0.00025732
6 *371:5 0.000185791
7 *371:6 0.000185791
8 *371:7 0.00279197
9 *371:8 0.00272231
10 *371:9 0.00012112
11 *371:10 0.000209776
12 *371:11 0.000218169
13 *371:12 0.000120608
14 *371:13 0.000120608
15 *371:7 *169:23 0.000132
16 *371:8 *169:24 0.000132
17 *371:7 *169:24 0.00016857
18 *371:8 *169:25 0.000168570001
19 *371:7 *92:36 0.00011671
20 *371:8 *92:35 0.00011671
21 *371:7 *92:35 7.703e-05
22 *371:8 *92:33 7.703e-05
23 *371:7 *92:25 4.506e-05
24 *371:8 *92:26 4.506e-05
25 *371:7 *92:26 2.453e-05
26 *371:8 *92:32 2.45300015e-05

*RES
1 *371:12 *682:Y 3.20008
2 *371:13 *371:12 3.20008
3 *371:8 *371:13 3.20008
4 *371:8 *371:7 15.9119997
5 *371:5 *371:7 3.20008
6 *371:6 *371:5 0.735435
7 *371:11 *371:6 3.20008
8 *371:4 *630:A0 3.20008
9 *371:11 *371:4 0.62399
10 *371:4 *371:3 0.62399
11 *371:10 *371:3 0.551637
12 *371:9 *371:10 0.468114
13 *664:A *371:9 6.39991
*END

*D_NET *372 0.00023918

*CONN
*I *663:Y O *C 91.41 26.6 *L 0 *D AOI21XL
*I *642:A I *C 93.39 27.16 *L 0.00346 *D INVX1

*CAP
1 *663:Y 0.00011959
2 *642:A 0.00011959

*RES
1 *663:Y *642:A 0.671478
*END

*D_NET *373 0.00121578

*CONN
*I *662:Y O *C 134.31 64.12 *L 0 *D AOI21XL
*I *643:A I *C 139.59 63.56 *L 0.00346 *D INVX1

*CAP
1 *662:Y 6.33008e-05
2 *643:A 0.000139844
3 *373:2 0.000120598
4 *373:3 0.00038572
5 *373:4 0.000120598
6 *373:5 0.00038572

*RES
1 *373:4 *643:A 3.2
2 *373:5 *373:4 3.2
3 *373:3 *373:5 1.4709
4 *373:2 *373:3 3.2
5 *662:Y *373:2 6.4000001
*END

*D_NET *374 0.000885611

*CONN
*I *661:Y O *C 115.17 114.52 *L 0 *D AOI21XL
*I *644:A I *C 113.85 117.88 *L 0.00346 *D INVX1

*CAP
1 *661:Y 3.73016e-05
2 *644:A 0.000139841
3 *374:2 9.15206e-05
4 *374:3 0.00026173
5 *374:4 0.00026173
6 *374:5 9.34895e-05

*RES
1 *374:4 *644:A 3.2
2 *374:3 *374:4 0.77998
3 *661:Y *374:5 0.189941
4 *374:2 *374:3 6.4000001
5 *374:2 *374:5 0.223828
*END

*D_NET *375 0.00129966

*CONN
*I *660:Y O *C 137.61 94.36 *L 0 *D AOI21XL
*I *641:A I *C 134.31 87.64 *L 0.00346 *D INVX1

*CAP
1 *660:Y 0.000139837
2 *641:A 0.000139837
3 *375:2 0.000105642
4 *375:3 0.000241751
5 *375:4 0.00032577
6 *375:5 0.000204589
7 *375:6 0.000142228

*RES
1 *375:6 *660:Y 3.20000005
2 *375:5 *375:6 0.183838
3 *375:4 *375:5 0.77998
4 *375:3 *375:4 0.735449
5 *375:2 *375:3 0.624023
6 *641:A *375:2 3.20000005
*END

*D_NET *376 0.00297289

*CONN
*I *841:Y O *C 140.91 107.24 *L 0 *D NOR3X1
*I *659:B I *C 125.73 103.32 *L 0.00385 *D NOR2X1
*I *633:A1 I *C 127.71 103.88 *L 0.00314 *D AOI21XL

*CAP
1 *841:Y 6.3301e-05
2 *659:B 0.000139835
3 *633:A1 6.3301e-05
4 *376:3 8.16432e-05
5 *376:4 8.16432e-05
6 *376:5 0.00014714
7 *376:6 0.000210118
8 *376:7 0.00020968
9 *376:8 5.09221e-05
10 *376:9 0.000224923
11 *376:10 0.000175335
12 *376:11 0.000175615
13 *376:12 0.00047029
14 *376:13 0.000107298
15 *376:14 0.00047029
16 *376:15 0.00015512
17 *376:16 0.000146422

*RES
1 *376:5 *841:Y 6.4000001
2 *376:6 *376:5 0.467969
3 *376:16 *376:6 3.2
4 *376:15 *376:16 0.551562
5 *376:14 *376:15 0.155957
6 *376:12 *376:14 2.39014
7 *376:12 *376:13 0.155957
8 *376:11 *376:13 0.367676
9 *376:8 *633:A1 6.4000001
10 *376:10 *376:11 0.467969
11 *376:9 *376:8 6.4000001
12 *376:9 *376:10 0.367676
13 *376:7 *376:9 0.551562
14 *376:3 *376:7 3.2
15 *376:4 *376:3 0.155957
16 *659:B *376:4 3.2
*END

*D_NET *377 0.00169637

*CONN
*I *680:Y O *C 124.41 98.84 *L 0 *D NAND2X1
*I *659:A I *C 126.39 103.88 *L 0.0043 *D NOR2X1
*I *633:A0 I *C 128.37 103.32 *L 0.00314 *D AOI21XL

*CAP
1 *680:Y 3.98384e-05
2 *659:A 6.33038e-05
3 *633:A0 6.33038e-05
4 *377:3 7.71401e-05
5 *377:4 7.71588e-05
6 *377:5 7.51893e-05
7 *377:6 0.000400241
8 *377:7 0.000408449063
9 *377:8 0.000186615
10 *377:9 0.000108259
11 *377:10 0.000196879

*RES
1 *377:9 *633:A0 6.4000001
2 *377:9 *377:10 0.467969
3 *377:8 *377:10 0.551562
4 *377:7 *659:A 6.4000001
5 *377:7 *377:8 0.312012
6 *377:6 *377:7 1.404
7 *377:5 *377:6 3.2
8 *377:4 *377:5 0.223828
9 *377:3 *377:4 0.189941
10 *680:Y *377:3 0.223828
*END

*D_NET *378 0.00109917

*CONN
*I *838:Y O *C 77.55 56.84 *L 0 *D NOR3X1
*I *658:B I *C 83.49 57.96 *L 0.00385 *D NOR2X1
*I *632:A1 I *C 80.85 57.4 *L 0.00314 *D AOI21XL

*CAP
1 *838:Y 0.000122369
2 *658:B 0.00013984
3 *632:A1 0.0001577
4 *378:3 0.000145579
5 *378:4 0.000171220039
6 *378:5 6.99198e-05
7 *378:6 0.000150439
8 *378:7 0.000142099

*RES
1 *378:7 *658:B 3.20000005
2 *378:5 *378:7 0.183838
3 *378:5 *378:6 0.156006
4 *378:4 *378:6 0.551562
5 *378:3 *378:4 0.312012
6 *632:A1 *378:3 3.20000005
7 *838:Y *632:A1 0.671484
*END

*D_NET *379 0.00221257

*CONN
*I *676:Y O *C 94.05 58.52 *L 0 *D NAND2X1
*I *658:A I *C 84.15 57.4 *L 0.0043 *D NOR2X1
*I *632:A0 I *C 81.51 57.96 *L 0.00314 *D AOI21XL

*CAP
1 *676:Y 8.53122e-05
2 *658:A 6.33044e-05
3 *632:A0 6.33044e-05
4 *379:3 0.000197178
5 *379:4 5.09163e-05
6 *379:5 0.000163839
7 *379:6 0.000120601
8 *379:7 6.63209e-05
9 *379:8 0.000206698
10 *379:9 0.0005416
11 *379:10 0.000120601
12 *379:11 0.000532898

*RES
1 *379:3 *676:Y 0.447656
2 *379:10 *379:3 3.2
3 *379:6 *658:A 6.4000001
4 *379:11 *379:10 3.2
5 *379:7 *379:6 3.2
6 *379:9 *379:11 2.39014
7 *379:7 *379:8 0.155957
8 *379:8 *379:9 0.155957
9 *379:5 *379:8 0.735449
10 *379:4 *379:5 6.4000001
11 *632:A0 *379:4 6.4000001
*END

*D_NET *380 0.00112086

*CONN
*I *843:Y O *C 76.23 87.08 *L 0 *D NOR3X1
*I *657:B I *C 74.25 83.16 *L 0.00385 *D NOR2X1
*I *635:A1 I *C 76.23 83.72 *L 0.00314 *D AOI21XL

*CAP
1 *843:Y 6.32967e-05
2 *657:B 4.22473e-05
3 *635:A1 0.000139839
4 *380:3 7.75803e-05
5 *380:4 6.57208e-05
6 *380:5 7.31771e-05
7 *380:6 7.31771e-05
8 *380:7 0.00033515
9 *380:8 0.000250671

*RES
1 *380:8 *843:Y 6.4000001
2 *380:7 *635:A1 3.2
3 *380:7 *380:8 0.936035
4 *380:6 *380:7 0.183887
5 *380:5 *380:6 0.155957
6 *380:4 *380:5 0.183887
7 *380:3 *380:4 6.4000001
8 *657:B *380:3 0.223828
*END

*D_NET *381 0.00399102

*CONN
*I *675:Y O *C 96.03 82.6 *L 0 *D NAND2X1
*I *657:A I *C 74.91 83.72 *L 0.0043 *D NOR2X1
*I *635:A0 I *C 76.89 83.16 *L 0.00314 *D AOI21XL

*CAP
1 *675:Y 0.000139848
2 *657:A 6.3301e-05
3 *635:A0 6.3301e-05
4 *381:3 0.000197816
5 *381:4 0.000128132
6 *381:5 0.000164927
7 *381:6 0.000101946
8 *381:7 0.000835212
9 *381:8 0.00095498
10 *381:9 0.000141874
11 *381:10 9.38586e-05
12 *381:11 0.000120598
13 *381:12 0.000154843
14 *381:7 *431:11 0.00017811
15 *381:8 *431:12 0.00017811
16 *381:7 *369:5 0.00018153
17 *381:8 *369:6 0.00018153
18 *381:7 *369:14 3.552e-05
19 *381:8 *369:13 3.552e-05
20 *381:8 *369:14 2.003e-05
21 *381:9 *369:13 2.00299905e-05

*RES
1 *381:11 *675:Y 3.2
2 *381:12 *381:11 3.2
3 *381:4 *635:A0 6.4000001
4 *381:10 *381:12 0.367676
5 *381:4 *381:3 0.467969
6 *381:10 *381:7 0.155957
7 *381:8 *381:3 3.2
8 *381:8 *381:7 5.14805
9 *381:9 *381:8 0.551562
10 *381:5 *381:9 3.2
11 *381:6 *381:5 0.312012
12 *657:A *381:6 6.4000001
*END

*D_NET *382 0.00100951

*CONN
*I *833:Y O *C 96.69 114.52 *L 0 *D NOR3X1
*I *656:B I *C 98.67 113.4 *L 0.00385 *D NOR2X1
*I *634:A1 I *C 100.65 113.96 *L 0.00314 *D AOI21XL

*CAP
1 *833:Y 4.12096e-05
2 *656:B 7.45893e-05
3 *634:A1 0.000139839
4 *382:3 0.0001982
5 *382:4 0.000117731
6 *382:5 0.000142099
7 *382:6 0.000155321
8 *382:7 0.00014052

*RES
1 *382:7 *634:A1 3.20000005
2 *382:6 *382:7 0.468018
3 *382:5 *382:6 0.183838
4 *382:4 *382:5 3.20000005
5 *382:3 *382:4 0.447656
6 *382:3 *656:B 0.379834
7 *833:Y *382:3 0.223828
*END

*D_NET *383 0.00393568

*CONN
*I *677:Y O *C 101.31 92.68 *L 0 *D NAND2X1
*I *656:A I *C 99.33 113.96 *L 0.0043 *D NOR2X1
*I *634:A0 I *C 101.31 113.4 *L 0.00314 *D AOI21XL

*CAP
1 *677:Y 0.000139841
2 *656:A 6.3296e-05
3 *634:A0 0.000139841
4 *383:3 0.000171751
5 *383:4 0.00030733
6 *383:5 0.000173541
7 *383:6 0.000358698
8 *383:7 0.000152661
9 *383:8 0.000132529
10 *383:9 0.000374888
11 *383:10 0.00039502
12 *383:11 0.000272376
13 *383:12 0.000272376
14 *383:13 6.57191e-05
15 *383:14 0.000173764
16 *383:15 0.000104639
17 *383:16 6.57191e-05
18 *383:17 0.00016412
19 *383:18 0.00016412
20 *383:19 0.000243443

*RES
1 *383:3 *634:A0 3.2
2 *383:16 *656:A 6.4000001
3 *383:4 *383:3 0.624023
4 *383:5 *383:16 0.183887
5 *383:6 *383:4 0.735449
6 *383:6 *383:5 0.77998
7 *383:15 *383:6 0.467969
8 *383:10 *383:15 0.183887
9 *383:17 *677:Y 3.2
10 *383:9 *383:10 2.02803
11 *383:17 *383:18 0.467969
12 *383:9 *383:12 0.0918945
13 *383:19 *383:18 3.2
14 *383:11 *383:12 1.24805
15 *383:14 *383:19 0.919238
16 *383:8 *383:11 0.0918945
17 *383:13 *383:14 6.4000001
18 *383:7 *383:8 0.467969
19 *383:7 *383:13 0.183887
*END

*D_NET *384 0.00179057

*CONN
*I *856:Y O *C 85.47 109.48 *L 0 *D NAND3BX1
*I *653:B I *C 79.53 107.8 *L 0.00375 *D NAND2X1
*I *625:A1 I *C 81.51 107.8 *L 0.00324 *D OAI21XL

*CAP
1 *856:Y 5.49101e-05
2 *653:B 0.000139841
3 *625:A1 6.33049e-05
4 *384:3 0.00021445
5 *384:4 0.000112428
6 *384:5 0.000351247
7 *384:6 0.00042093
8 *384:7 0.00022262
9 *384:8 9.02429e-05
10 *384:9 0.000120598

*RES
1 *856:Y *384:8 0.223828
2 *384:9 *384:8 3.2
3 *384:5 *384:9 3.2
4 *384:6 *384:5 1.65469
5 *384:4 *384:6 3.2
6 *384:3 *625:A1 6.4000001
7 *384:4 *384:3 0.312012
8 *384:7 *384:3 0.551562
9 *653:B *384:7 3.2
*END

*D_NET *385 0.00557348

*CONN
*I *681:Y O *C 96.69 88.2 *L 0 *D NOR2X1
*I *653:A I *C 80.19 108.36 *L 0.00403 *D NAND2X1
*I *625:A0 I *C 82.17 107.8 *L 0.00336 *D OAI21XL

*CAP
1 *681:Y 5.56553e-05
2 *653:A 6.32989e-05
3 *625:A0 0.000139834
4 *385:3 0.000200322
5 *385:4 0.000543218
6 *385:5 0.000521299
7 *385:6 0.000187733
8 *385:7 0.00011273
9 *385:8 0.000374679
10 *385:9 0.000374679
11 *385:10 0.000103358
12 *385:11 0.000108683
13 *385:12 9.0979e-05
14 *385:13 0.00092082
15 *385:14 0.00092082
16 *385:15 0.00014558
17 *385:16 0.000234199
18 *385:6 *216:4 2.433e-05
19 *385:7 *216:2 2.433e-05
20 *385:8 *216:4 0.00018913
21 *385:9 *216:2 0.00018913
22 *385:10 *216:4 2.433e-05
23 *385:11 *216:2 2.43299891e-05

*RES
1 *681:Y *385:12 0.223828
2 *385:11 *385:12 6.4000001
3 *385:11 *385:10 0.467969
4 *385:9 *385:10 0.0918945
5 *385:9 *385:8 2.496
6 *385:8 *385:7 0.0918945
7 *385:7 *385:6 0.467969
8 *385:13 *385:6 3.2
9 *385:14 *385:13 4.22871
10 *385:5 *385:14 3.2
11 *385:4 *625:A0 3.2
12 *385:5 *385:4 1.87197
13 *385:4 *385:3 0.624023
14 *385:16 *385:3 0.551562
15 *385:15 *385:16 0.467969
16 *653:A *385:15 6.4000001
*END

*D_NET *386 0.00177023

*CONN
*I *684:Y O *C 134.97 93.24 *L 0 *D NOR2X1
*I *660:B0 I *C 136.95 93.8 *L 0.00319 *D AOI21XL
*I *649:B0 I *C 140.91 93.24 *L 0.00451 *D AOI2BB2X1
*I *649:A0N I *C 138.93 93.24 *L 0.00239 *D AOI2BB2X1

*CAP
1 *684:Y 6.32991e-05
2 *660:B0 6.32991e-05
3 *649:B0 0.00013984
4 *649:A0N 3.73011e-05
5 *386:4 7.04508e-05
6 *386:5 7.04508e-05
7 *386:6 5.09205e-05
8 *386:7 0.000123338
9 *386:8 0.000211348
10 *386:9 7.45126e-05
11 *386:10 6.68797e-05
12 *386:11 6.7809e-05
13 *386:12 7.51919e-05
14 *386:13 5.09205e-05
15 *386:14 0.00030916
16 *386:15 7.71591e-05
17 *386:16 0.000218349

*RES
1 *386:15 *649:A0N 0.189941
2 *386:4 *649:B0 3.2
3 *386:12 *386:15 0.223828
4 *386:5 *386:4 0.155957
5 *386:11 *660:B0 6.4000001
6 *386:13 *386:12 6.4000001
7 *386:16 *386:5 6.4000001
8 *386:9 *386:11 0.155957
9 *386:14 *386:13 6.4000001
10 *386:14 *386:16 0.735449
11 *386:10 *386:9 6.4000001
12 *386:8 *386:14 0.367676
13 *386:8 *386:10 0.155957
14 *386:7 *386:8 0.551562
15 *386:6 *386:7 6.4000001
16 *684:Y *386:6 6.4000001
*END

*D_NET *387 0.00287592

*CONN
*I *686:Y O *C 117.15 113.4 *L 0 *D NOR2X1
*I *661:B0 I *C 114.51 113.96 *L 0.00319 *D AOI21XL
*I *648:B0 I *C 122.43 113.4 *L 0.00451 *D AOI2BB2X1
*I *648:A0N I *C 120.45 113.4 *L 0.00239 *D AOI2BB2X1

*CAP
1 *686:Y 0.00013984
2 *661:B0 6.32999e-05
3 *648:B0 0.00013984
4 *648:A0N 6.32999e-05
5 *387:4 0.00028061
6 *387:5 0.000151727
7 *387:6 0.000315753
8 *387:7 0.000237853
9 *387:8 0.000140757
10 *387:9 0.00012961
11 *387:10 0.000161952
12 *387:11 0.000414379883
13 *387:12 0.000414379883
14 *387:13 0.000222621

*RES
1 *387:13 *648:B0 3.2
2 *387:10 *648:A0N 6.4000001
3 *387:10 *387:13 0.551562
4 *387:10 *387:9 0.155957
5 *387:12 *387:9 3.2
6 *387:11 *387:12 0.919238
7 *387:8 *686:Y 3.2
8 *387:7 *387:11 3.2
9 *387:8 *387:7 0.155957
10 *387:7 *387:6 0.467969
11 *387:4 *387:6 0.735449
12 *387:5 *387:4 0.467969
13 *661:B0 *387:5 6.4000001
*END

*D_NET *388 0.00180884

*CONN
*I *687:Y O *C 131.67 63 *L 0 *D NOR2X1
*I *662:B0 I *C 133.65 63.56 *L 0.00319 *D AOI21XL
*I *647:B0 I *C 137.61 63 *L 0.00451 *D AOI2BB2X1
*I *647:A0N I *C 135.63 63 *L 0.00239 *D AOI2BB2X1

*CAP
1 *687:Y 6.32992e-05
2 *662:B0 6.32992e-05
3 *647:B0 0.000139838
4 *647:A0N 3.72985e-05
5 *388:4 8.59198e-05
6 *388:5 0.000262419
7 *388:6 0.00014664
8 *388:7 0.000220889
9 *388:8 0.000151731
10 *388:9 0.000146799
11 *388:10 7.71592e-05
12 *388:11 0.000274831797
13 *388:12 0.000138718

*RES
1 *388:12 *647:B0 3.2
2 *388:10 *647:A0N 0.189941
3 *388:11 *388:12 0.467969
4 *388:8 *388:10 0.223828
5 *388:7 *388:11 0.735449
6 *388:9 *388:8 3.2
7 *388:7 *388:9 0.312012
8 *388:4 *662:B0 6.4000001
9 *388:5 *388:9 0.367676
10 *388:5 *388:4 0.312012
11 *388:6 *388:5 0.551562
12 *687:Y *388:6 6.4000001
*END

*D_NET *389 0.00131177

*CONN
*I *972:A I *C 72.93 37.24 *L 0.00557 *D XNOR2X1
*I *666:Y O *C 74.91 42.28 *L 0 *D NAND2X1
*I *627:B0 I *C 72.93 42.28 *L 0.00302 *D OAI21XL

*CAP
1 *972:A 6.33038e-05
2 *666:Y 3.98609e-05
3 *627:B0 6.33038e-05
4 *389:3 0.000112676
5 *389:4 6.57179e-05
6 *389:5 0.000384112
7 *389:6 0.000151728
8 *389:7 0.00043107

*RES
1 *389:4 *972:A 6.4000001
2 *389:4 *389:5 0.183887
3 *389:6 *666:Y 0.223828
4 *389:5 *389:7 1.404
5 *389:7 *389:6 3.2
6 *389:3 *389:7 0.367676
7 *627:B0 *389:3 6.4000001
*END

*D_NET *390 0.00107932

*CONN
*I *975:A I *C 114.51 148.12 *L 0.00557 *D XNOR2X1
*I *664:Y O *C 109.89 149.24 *L 0 *D NAND2X1
*I *630:B0 I *C 112.53 149.24 *L 0.00302 *D OAI21XL

*CAP
1 *975:A 0.000139841
2 *664:Y 6.32994e-05
3 *630:B0 0.00011876
4 *390:3 7.24209e-05
5 *390:4 0.00011876
6 *390:5 6.57203e-05
7 *390:6 6.57203e-05
8 *390:7 0.00014635
9 *390:8 0.000106091
10 *390:9 0.00018236

*RES
1 *390:9 *975:A 3.2
2 *390:7 *390:9 0.367676
3 *390:7 *390:8 0.312012
4 *390:6 *390:8 0.183887
5 *630:B0 *390:6 6.4000001
6 *390:4 *630:B0 0.447656
7 *390:5 *390:4 6.4000001
8 *390:3 *390:5 0.183887
9 *664:Y *390:3 6.4000001
*END

*D_NET *391 0.00252926

*CONN
*I *685:Y O *C 88.77 27.72 *L 0 *D NOR2X1
*I *663:B0 I *C 90.75 27.16 *L 0.00319 *D AOI21XL
*I *646:B0 I *C 92.73 22.68 *L 0.00451 *D AOI2BB2X1
*I *646:A0N I *C 90.75 22.68 *L 0.00239 *D AOI2BB2X1

*CAP
1 *685:Y 0.000139839
2 *663:B0 6.32985e-05
3 *646:B0 0.000139839
4 *646:A0N 3.72986e-05
5 *391:4 0.000167841
6 *391:5 0.00042312
7 *391:6 0.000217129
8 *391:7 0.000255099
9 *391:8 0.000142564
10 *391:9 0.000110178
11 *391:10 0.000207496
12 *391:11 8.25192e-05
13 *391:12 0.000180334
14 *391:13 0.000220589
15 *391:14 0.000142099

*RES
1 *391:14 *646:B0 3.2
2 *391:12 *391:14 0.183887
3 *391:12 *391:13 0.77998
4 *391:9 *391:13 0.367676
5 *391:11 *663:B0 6.4000001
6 *391:9 *391:10 0.155957
7 *391:10 *391:11 0.312012
8 *391:4 *685:Y 3.2
9 *391:5 *391:10 0.551562
10 *391:5 *391:4 0.467969
11 *391:8 *646:A0N 0.189941
12 *391:7 *391:5 1.09199
13 *391:6 *391:8 0.671484
14 *391:6 *391:7 3.2
*END

*D_NET *392 0.0015635

*CONN
*I *974:A I *C 73.59 107.8 *L 0.00557 *D XNOR2X1
*I *653:Y O *C 80.19 108.92 *L 0 *D NAND2X1
*I *625:B0 I *C 82.83 108.92 *L 0.00302 *D OAI21XL

*CAP
1 *974:A 6.33012e-05
2 *653:Y 0.000185661
3 *625:B0 8.34307e-05
4 *392:3 0.000146239
5 *392:4 0.000182212
6 *392:5 0.000182212
7 *392:6 0.00023423
8 *392:7 0.000222621
9 *392:8 7.24188e-05
10 *392:9 0.000118761
11 *392:10 7.24188e-05

*RES
1 *392:9 *625:B0 0.447656
2 *392:10 *392:9 6.4000001
3 *392:8 *392:10 0.183887
4 *653:Y *392:8 6.4000001
5 *392:6 *653:Y 0.671484
6 *392:7 *392:6 3.2
7 *392:5 *392:7 0.551562
8 *392:4 *392:5 0.312012
9 *392:3 *392:4 0.551562
10 *974:A *392:3 6.4000001
*END

*D_NET *393 0.00238351

*CONN
*I *973:A I *C 55.11 83.72 *L 0.00557 *D XNOR2X1
*I *665:Y O *C 71.61 82.6 *L 0 *D NAND2X1
*I *628:B0 I *C 69.63 82.6 *L 0.00302 *D OAI21XL

*CAP
1 *973:A 6.32961e-05
2 *665:Y 6.32961e-05
3 *628:B0 6.32961e-05
4 *393:3 0.00064562
5 *393:4 0.000577546
6 *393:5 0.000333267
7 *393:6 0.000290403
8 *393:7 0.000120593
9 *393:8 5.09226e-05
10 *393:9 5.09226e-05
11 *393:10 0.000124326

*RES
1 *393:9 *665:Y 6.4000001
2 *393:8 *628:B0 6.4000001
3 *393:10 *393:9 6.4000001
4 *393:3 *393:8 6.4000001
5 *393:3 *393:10 0.551562
6 *393:4 *393:3 2.57402
7 *393:4 *393:5 0.312012
8 *393:6 *393:5 1.28701
9 *393:7 *393:6 3.2
10 *973:A *393:7 6.4000001
*END

*D_NET *394 0.00235649

*CONN
*I *640:Y O *C 113.19 134.68 *L 0 *D AOI21XL
*I *626:A I *C 109.23 144.2 *L 0.00346 *D INVX1

*CAP
1 *640:Y 4.12099e-05
2 *626:A 0.000139839
3 *394:2 0.000184472
4 *394:3 0.000254151
5 *394:4 0.00043218
6 *394:5 0.000377299
7 *394:6 0.000277621
8 *394:7 7.65374e-05
9 *394:8 6.57222e-05
10 *394:9 0.000277621
11 *394:9 *17:222 1.463e-05
12 *394:6 *17:223 1.463e-05
13 *394:4 *17:224 4.242e-05
14 *394:5 *17:217 4.242e-05
15 *394:4 *17:217 5.787e-05
16 *394:5 *17:106 5.78700006e-05

*RES
1 *640:Y *394:7 0.223828
2 *394:8 *394:7 6.4000001
3 *394:8 *394:5 0.183887
4 *394:5 *394:4 1.87197
5 *394:9 *394:4 3.2
6 *394:2 *626:A 3.2
7 *394:6 *394:9 1.4709
8 *394:3 *394:2 0.77998
9 *394:3 *394:6 3.2
*END

*D_NET *395 0.00125264

*CONN
*I *639:Y O *C 140.91 117.32 *L 0 *D AOI21XL
*I *629:A I *C 136.29 117.88 *L 0.00346 *D INVX1

*CAP
1 *639:Y 6.33014e-05
2 *629:A 0.000139839
3 *395:2 0.000120601
4 *395:3 0.000369312
5 *395:4 0.000120601
6 *395:5 0.00043899

*RES
1 *395:4 *639:Y 6.4000001
2 *395:5 *395:4 3.2
3 *395:3 *395:5 1.28701
4 *395:2 *395:3 3.2
5 *629:A *395:2 3.2
*END

*D_NET *396 0.00134053

*CONN
*I *654:Y O *C 88.77 89.32 *L 0 *D OAI21XL
*I *638:A I *C 91.41 88.2 *L 0.00403 *D NAND2X1
*I *605:A0 I *C 93.39 87.64 *L 0.00336 *D OAI21XL

*CAP
1 *654:Y 0.000125997
2 *638:A 0.000139842
3 *605:A0 0.000139842
4 *396:3 0.00025998
5 *396:4 0.00015796
6 *396:5 0.000161332
7 *396:6 0.000130131
8 *396:7 0.000225451

*RES
1 *396:6 *605:A0 3.20000005
2 *396:4 *638:A 3.20000005
3 *396:6 *396:7 0.468018
4 *396:4 *396:3 0.312012
5 *396:3 *396:7 0.551562
6 *396:5 *396:3 3.20000005
7 *654:Y *396:5 0.671484
*END

*D_NET *397 0.00141648

*CONN
*I *655:Y O *C 56.43 59.08 *L 0 *D OAI21XL
*I *637:A I *C 58.41 52.92 *L 0.00403 *D NAND2X1
*I *606:A0 I *C 55.77 53.48 *L 0.00336 *D OAI21XL

*CAP
1 *655:Y 0.000139841
2 *637:A 0.000139841
3 *606:A0 6.32993e-05
4 *397:3 0.000210769
5 *397:4 0.000155709
6 *397:5 0.000151252
7 *397:6 0.000206308
8 *397:7 0.00013654
9 *397:8 0.00021292

*RES
1 *397:4 *637:A 3.2
2 *397:4 *397:3 0.624023
3 *397:7 *397:3 0.367676
4 *397:7 *397:8 0.312012
5 *397:8 *655:Y 3.2
6 *397:6 *397:8 0.367676
7 *397:5 *397:6 0.77998
8 *606:A0 *397:5 6.4000001
*END

*D_NET *398 0.00339481

*CONN
*I *673:Y O *C 115.17 133.56 *L 0 *D NOR2X1
*I *640:B0 I *C 112.53 134.12 *L 0.00319 *D AOI21XL
*I *636:B0 I *C 108.57 138.6 *L 0.00451 *D AOI2BB2X1
*I *636:A0N I *C 106.59 138.6 *L 0.00239 *D AOI2BB2X1

*CAP
1 *673:Y 4.12108e-05
2 *640:B0 6.32979e-05
3 *636:B0 0.000139835
4 *636:A0N 6.32979e-05
5 *398:4 0.000237863
6 *398:5 0.000307535
7 *398:6 0.000496725
8 *398:7 0.00069859
9 *398:8 0.000215275
10 *398:9 0.000120594
11 *398:10 0.000120594
12 *398:11 6.78176e-05
13 *398:12 6.78176e-05
14 *398:13 7.65374e-05
15 *398:14 0.000338907
16 *398:15 0.000338907

*RES
1 *398:11 *640:B0 6.4000001
2 *398:11 *398:12 0.155957
3 *398:5 *398:12 3.2
4 *398:5 *398:4 0.919238
5 *673:Y *398:13 0.223828
6 *398:14 *398:4 3.2
7 *398:14 *398:13 3.2
8 *398:14 *398:15 1.09199
9 *398:10 *636:B0 3.2
10 *398:6 *398:15 3.2
11 *398:7 *398:10 3.2
12 *398:7 *398:6 2.02246
13 *398:8 *398:7 0.551562
14 *398:9 *398:8 3.2
15 *636:A0N *398:9 6.4000001
*END

*D_NET *399 7.972e-05

*CONN
*I *635:Y O *C 78.21 84.28 *L 0 *D AOI21XL
*I *621:A I *C 78.87 83.72 *L 0.00346 *D INVX1

*CAP
1 *635:Y 3.986e-05
2 *621:A 3.986e-05

*RES
1 *635:Y *621:A 0.223826
*END

*D_NET *400 0.000829439

*CONN
*I *634:Y O *C 102.63 114.52 *L 0 *D AOI21XL
*I *623:A I *C 103.95 117.88 *L 0.00346 *D INVX1

*CAP
1 *634:Y 6.32986e-05
2 *623:A 0.00013984
3 *400:2 0.00014565
4 *400:3 0.00020071
5 *400:4 0.000167499
6 *400:5 0.000112439

*RES
1 *400:2 *623:A 3.2
2 *400:3 *400:2 0.624023
3 *400:4 *400:3 0.367676
4 *400:5 *400:4 0.312012
5 *634:Y *400:5 6.4000001
*END

*D_NET *401 0.00101221

*CONN
*I *633:Y O *C 129.69 104.44 *L 0 *D AOI21XL
*I *622:A I *C 131.67 107.8 *L 0.00346 *D INVX1

*CAP
1 *633:Y 8.34823e-05
2 *622:A 0.000139838
3 *401:2 0.000118809
4 *401:3 0.00029143
5 *401:4 0.00023655
6 *401:5 0.000142102

*RES
1 *401:5 *622:A 3.20000005
2 *401:4 *401:5 0.183838
3 *401:3 *401:4 0.935986
4 *401:2 *401:3 3.20000005
5 *633:Y *401:2 0.447656
*END

*D_NET *402 0.00081459

*CONN
*I *632:Y O *C 82.83 56.84 *L 0 *D AOI21XL
*I *624:A I *C 80.85 53.48 *L 0.00346 *D INVX1

*CAP
1 *632:Y 3.73002e-05
2 *624:A 0.00013984
3 *402:2 0.000149051
4 *402:3 0.000163849297
5 *402:4 9.02415e-05
6 *402:5 0.0001421
7 *402:6 9.22091e-05

*RES
1 *402:6 *632:Y 0.189893
2 *402:4 *402:6 0.223828
3 *402:5 *402:4 3.20000005
4 *402:3 *402:5 0.183838
5 *402:2 *402:3 0.77998
6 *624:A *402:2 3.20000005
*END

*D_NET *403 0.00189553

*CONN
*I *672:Y O *C 142.89 118.44 *L 0 *D NOR2X1
*I *639:B0 I *C 140.25 117.88 *L 0.00319 *D AOI21XL
*I *631:B0 I *C 142.23 123.48 *L 0.00451 *D AOI2BB2X1
*I *631:A0N I *C 140.25 123.48 *L 0.00239 *D AOI2BB2X1

*CAP
1 *672:Y 7.97306e-05
2 *639:B0 6.3296e-05
3 *631:B0 0.000139841
4 *631:A0N 6.3296e-05
5 *403:4 9.91196e-05
6 *403:5 0.000399201328
7 *403:6 0.000372503
8 *403:7 0.000117028
9 *403:8 0.000156525
10 *403:9 0.000182359
11 *403:10 0.000222617

*RES
1 *403:7 *672:Y 0.447656
2 *403:10 *631:B0 3.2
3 *403:7 *403:8 0.189941
4 *403:6 *631:A0N 6.4000001
5 *403:6 *403:10 0.551562
6 *403:9 *403:8 3.2
7 *403:5 *403:6 1.09199
8 *403:5 *403:9 0.367676
9 *403:4 *403:5 0.467969
10 *639:B0 *403:4 6.4000001
*END

*D_NET *404 0.00179159

*CONN
*I *656:Y O *C 99.99 113.4 *L 0 *D NOR2X1
*I *634:B0 I *C 101.97 113.96 *L 0.00319 *D AOI21XL
*I *620:B0 I *C 101.97 118.44 *L 0.00451 *D AOI2BB2X1
*I *620:A0N I *C 99.99 118.44 *L 0.00239 *D AOI2BB2X1

*CAP
1 *656:Y 6.3303e-05
2 *634:B0 6.3303e-05
3 *620:B0 0.000139842
4 *620:A0N 6.3303e-05
5 *404:4 0.00039465
6 *404:5 0.00010309
7 *404:6 0.000221699
8 *404:7 8.45003e-05
9 *404:8 0.000371291
10 *404:9 0.00028661

*RES
1 *404:7 *634:B0 6.4000001
2 *404:9 *620:B0 3.2
3 *404:7 *404:8 0.312012
4 *404:8 *404:9 0.936035
5 *404:6 *620:A0N 6.4000001
6 *404:4 *404:8 0.551562
7 *404:4 *404:6 0.936035
8 *404:5 *404:4 0.467969
9 *656:Y *404:5 6.4000001
*END

*D_NET *405 0.00244764

*CONN
*I *658:Y O *C 84.81 57.96 *L 0 *D NOR2X1
*I *632:B0 I *C 82.17 57.4 *L 0.00319 *D AOI21XL
*I *619:B0 I *C 84.81 52.92 *L 0.00451 *D AOI2BB2X1
*I *619:A0N I *C 82.83 52.92 *L 0.00239 *D AOI2BB2X1

*CAP
1 *658:Y 0.000139841
2 *632:B0 6.33016e-05
3 *619:B0 0.000139841
4 *619:A0N 6.33016e-05
5 *405:4 0.00039558
6 *405:5 0.000188255
7 *405:6 6.5719e-05
8 *405:7 0.000330837
9 *405:8 0.000226784
10 *405:9 0.00044128
11 *405:10 0.0003929

*RES
1 *405:10 *658:Y 3.2
2 *405:9 *619:B0 3.2
3 *405:9 *405:10 1.404
4 *405:8 *405:9 0.467969
5 *405:5 *405:8 0.551562
6 *405:4 *619:A0N 6.4000001
7 *405:5 *405:4 0.467969
8 *405:4 *405:7 1.24805
9 *405:6 *405:7 0.183887
10 *632:B0 *405:6 6.4000001
*END

*D_NET *406 0.0013262

*CONN
*I *642:Y O *C 94.05 27.72 *L 0 *D INVX1
*I *618:A I *C 95.37 27.72 *L 0.00403 *D NAND2X1
*I *600:A0 I *C 98.01 27.16 *L 0.00336 *D OAI21XL

*CAP
1 *642:Y 3.73009e-05
2 *618:A 0.00013984
3 *600:A0 7.45903e-05
4 *406:3 0.00012731
5 *406:4 0.000188169785
6 *406:5 0.000179771
7 *406:6 0.000188169785
8 *406:7 0.000117031
9 *406:8 0.000119701
10 *406:9 0.00015432

*RES
1 *600:A0 *406:9 0.379834
2 *406:4 *618:A 3.20000005
3 *406:7 *406:9 0.447656
4 *406:4 *406:6 0.312012
5 *406:7 *406:8 0.189893
6 *406:5 *406:6 3.20000005
7 *406:5 *406:8 0.447656
8 *406:3 *406:5 0.447656
9 *642:Y *406:3 0.189893
*END

*D_NET *407 0.00184725

*CONN
*I *644:Y O *C 114.51 118.44 *L 0 *D INVX1
*I *617:A I *C 118.47 123.48 *L 0.00403 *D NAND2X1
*I *602:A0 I *C 115.83 124.04 *L 0.00336 *D OAI21XL

*CAP
1 *644:Y 0.000139839
2 *617:A 0.000139839
3 *602:A0 0.000139839
4 *407:3 0.00033382
5 *407:4 0.00038888125
6 *407:5 0.000244123
7 *407:6 0.0001123
8 *407:7 0.0001123
9 *407:8 9.06233e-05
10 *407:9 0.000145678

*RES
1 *407:8 *617:A 3.20000005
2 *407:8 *407:9 0.312012
3 *407:7 *407:9 0.367725
4 *407:6 *407:7 0.156006
5 *407:5 *602:A0 3.20000005
6 *407:5 *407:6 0.367725
7 *407:4 *407:5 0.367725
8 *407:3 *407:4 1.404
9 *644:Y *407:3 3.20000005
*END

*D_NET *408 0.00176873

*CONN
*I *641:Y O *C 134.97 88.2 *L 0 *D INVX1
*I *616:A I *C 136.29 83.16 *L 0.00403 *D NAND2X1
*I *603:A0 I *C 138.27 83.72 *L 0.00336 *D OAI21XL

*CAP
1 *641:Y 0.000139843
2 *616:A 0.000139843
3 *603:A0 0.000139843
4 *408:3 0.000262632
5 *408:4 0.00031795
6 *408:5 0.000150841
7 *408:6 0.0001401
8 *408:7 0.000124798
9 *408:8 0.000224299
10 *408:9 0.000128582

*RES
1 *408:9 *603:A0 3.20000005
2 *408:8 *408:9 0.468018
3 *408:5 *408:8 0.551562
4 *408:7 *616:A 3.20000005
5 *408:5 *408:6 0.156006
6 *408:6 *408:7 0.156006
7 *408:3 *641:Y 3.20000005
8 *408:4 *408:6 0.367725
9 *408:4 *408:3 1.248
*END

*D_NET *409 0.00195442

*CONN
*I *643:Y O *C 140.25 63 *L 0 *D INVX1
*I *615:A I *C 146.19 63 *L 0.00403 *D NAND2X1
*I *599:A0 I *C 148.17 63.56 *L 0.00336 *D OAI21XL

*CAP
1 *643:Y 0.000139835
2 *615:A 0.000139835
3 *599:A0 6.32968e-05
4 *409:3 0.000120597
5 *409:4 0.00051113
6 *409:5 0.000120597
7 *409:6 0.00054203
8 *409:7 9.10786e-05
9 *409:8 9.21703e-05
10 *409:9 5.09236e-05
11 *409:10 8.29153e-05

*RES
1 *409:9 *599:A0 6.4000001
2 *409:10 *409:9 6.4000001
3 *409:8 *409:10 0.183887
4 *409:5 *615:A 3.2
5 *409:7 *409:8 0.155957
6 *409:6 *409:5 3.2
7 *409:6 *409:7 0.367676
8 *409:4 *409:6 1.65469
9 *409:3 *409:4 3.2
10 *643:Y *409:3 3.2
*END

*D_NET *410 0.00196257

*CONN
*I *657:Y O *C 75.57 83.16 *L 0 *D NOR2X1
*I *635:B0 I *C 77.55 83.72 *L 0.00319 *D AOI21XL
*I *614:B0 I *C 72.27 78.12 *L 0.00451 *D AOI2BB2X1
*I *614:A0N I *C 70.29 78.12 *L 0.00239 *D AOI2BB2X1

*CAP
1 *657:Y 3.72984e-05
2 *635:B0 6.32978e-05
3 *614:B0 0.000139844
4 *614:A0N 6.32978e-05
5 *410:4 0.000190883
6 *410:5 0.000174193
7 *410:6 0.000152937
8 *410:7 0.00032925
9 *410:8 0.00029691
10 *410:9 0.00022262
11 *410:10 0.000193676
12 *410:11 9.83605e-05

*RES
1 *410:11 *635:B0 6.4000001
2 *410:10 *410:11 0.467969
3 *410:9 *410:10 0.551562
4 *410:4 *410:9 3.2
5 *410:4 *657:Y 0.189941
6 *410:5 *410:4 1.11914
7 *410:8 *410:5 3.2
8 *410:7 *614:B0 3.2
9 *410:7 *410:8 1.09199
10 *410:6 *410:7 0.551562
11 *614:A0N *410:6 6.4000001
*END

*D_NET *411 0.00182107

*CONN
*I *659:Y O *C 127.05 103.32 *L 0 *D NOR2X1
*I *633:B0 I *C 129.03 103.88 *L 0.00319 *D AOI21XL
*I *613:B0 I *C 133.65 103.32 *L 0.00451 *D AOI2BB2X1
*I *613:A0N I *C 131.67 103.32 *L 0.00239 *D AOI2BB2X1

*CAP
1 *659:Y 0.000139841
2 *633:B0 6.33e-05
3 *613:B0 0.000139841
4 *613:A0N 7.99876e-05
5 *411:4 8.4363e-05
6 *411:5 0.0002602
7 *411:6 0.00022262
8 *411:7 0.00017378
9 *411:8 0.00018236
10 *411:9 9.92083e-05
11 *411:10 0.00015294
12 *411:11 0.00022262

*RES
1 *411:11 *613:B0 3.2
2 *411:10 *411:11 0.551562
3 *613:A0N *411:10 6.4000001
4 *411:9 *613:A0N 0.189941
5 *411:7 *411:9 0.447656
6 *411:8 *411:7 3.2
7 *411:4 *633:B0 6.4000001
8 *411:5 *411:8 0.367676
9 *411:5 *411:4 0.312012
10 *411:6 *411:5 0.551562
11 *659:Y *411:6 3.2
*END

*D_NET *412 0.00178474

*CONN
*I *625:Y O *C 82.83 109.48 *L 0 *D OAI21XL
*I *612:A I *C 86.13 113.4 *L 0.00403 *D NAND2X1
*I *589:A0 I *C 83.49 113.96 *L 0.00336 *D OAI21XL

*CAP
1 *625:Y 0.000139842
2 *612:A 0.000139842
3 *589:A0 0.000139842
4 *412:3 0.000175668
5 *412:4 0.00042618
6 *412:5 0.000210069
7 *412:6 0.000309599
8 *412:7 0.000243697

*RES
1 *412:7 *612:A 3.20000005
2 *412:6 *412:7 0.624023
3 *412:5 *589:A0 3.20000005
4 *412:4 *412:6 0.735449
5 *412:4 *412:5 0.77998
6 *412:3 *412:4 0.468018
7 *625:Y *412:3 3.20000005
*END

*D_NET *413 0.00160887

*CONN
*I *626:Y O *C 109.89 143.64 *L 0 *D INVX1
*I *611:A I *C 105.93 143.64 *L 0.00403 *D NAND2X1
*I *591:A0 I *C 102.63 144.2 *L 0.00336 *D OAI21XL

*CAP
1 *626:Y 0.00016223
2 *611:A 6.32997e-05
3 *591:A0 6.32997e-05
4 *413:3 0.000146242
5 *413:4 0.000209541
6 *413:5 0.00014202
7 *413:6 0.000155921
8 *413:7 0.000149301
9 *413:8 0.000105979
10 *413:9 0.00021151
11 *413:10 0.00019953

*RES
1 *413:10 *626:Y 0.895312
2 *413:9 *413:10 0.189941
3 *413:4 *413:9 0.895312
4 *413:5 *413:4 3.2
5 *413:8 *611:A 6.4000001
6 *413:5 *413:6 0.312012
7 *413:6 *413:8 0.367676
8 *413:6 *413:7 0.155957
9 *413:3 *413:7 0.551562
10 *591:A0 *413:3 6.4000001
*END

*D_NET *414 0.00428022

*CONN
*I *630:Y O *C 112.53 149.8 *L 0 *D OAI21XL
*I *610:A I *C 128.37 148.68 *L 0.00403 *D NAND2X1
*I *590:A0 I *C 125.07 148.12 *L 0.00336 *D OAI21XL

*CAP
1 *630:Y 6.3296e-05
2 *610:A 0.000139836
3 *590:A0 6.3296e-05
4 *414:3 0.000303499
5 *414:4 0.000240519
6 *414:5 0.00015914
7 *414:6 0.000200056
8 *414:7 0.000222119
9 *414:8 0.000239316
10 *414:9 0.00059284
11 *414:10 0.000184406
12 *414:11 0.00059284
13 *414:12 0.000391744
14 *414:13 0.000288708
15 *414:14 0.000309894
16 *414:15 0.000288708

*RES
1 *414:13 *610:A 3.2
2 *414:4 *590:A0 6.4000001
3 *414:13 *414:15 0.936035
4 *414:4 *414:3 1.09199
5 *414:14 *414:15 3.2
6 *414:12 *414:3 3.2
7 *414:12 *414:14 1.11914
8 *414:10 *414:12 0.447656
9 *414:10 *414:11 0.379785
10 *414:9 *414:11 2.90977
11 *414:8 *414:9 0.379785
12 *414:6 *414:8 0.671484
13 *414:7 *414:6 3.2
14 *414:5 *414:7 0.624023
15 *630:Y *414:5 6.4000001
*END

*D_NET *415 0.00176201

*CONN
*I *629:Y O *C 136.95 118.44 *L 0 *D INVX1
*I *609:A I *C 134.31 118.44 *L 0.00403 *D NAND2X1
*I *586:A0 I *C 132.99 124.04 *L 0.00336 *D OAI21XL

*CAP
1 *629:Y 7.97272e-05
2 *609:A 0.000139844
3 *586:A0 0.000139844
4 *415:3 0.00042954
5 *415:4 0.000374477
6 *415:5 0.00020386
7 *415:6 6.87815e-05
8 *415:7 6.87815e-05
9 *415:8 0.000115062
10 *415:9 0.000142099

*RES
1 *415:8 *629:Y 0.447656
2 *415:9 *415:8 3.20000005
3 *415:7 *415:9 0.183838
4 *415:6 *415:7 0.156006
5 *415:4 *586:A0 3.20000005
6 *415:5 *609:A 3.20000005
7 *415:5 *415:6 0.183838
8 *415:3 *415:4 1.56001
9 *415:3 *415:5 0.367725
*END

*D_NET *416 0.00296782

*CONN
*I *627:Y O *C 72.93 41.72 *L 0 *D OAI21XL
*I *608:A I *C 63.69 37.8 *L 0.00403 *D NAND2X1
*I *587:A0 I *C 61.05 37.24 *L 0.00336 *D OAI21XL

*CAP
1 *627:Y 6.32967e-05
2 *608:A 0.000139841
3 *587:A0 0.000139841
4 *416:3 0.000363078
5 *416:4 0.000227501
6 *416:5 0.000164179
7 *416:6 0.00022716
8 *416:7 0.00055905
9 *416:8 0.00055905
10 *416:9 0.000333553
11 *416:10 0.000191272

*RES
1 *416:5 *627:Y 6.4000001
2 *416:6 *416:5 0.467969
3 *416:7 *416:6 3.2
4 *416:10 *608:A 3.2
5 *416:8 *416:7 2.75781
6 *416:10 *416:9 0.624023
7 *416:9 *416:8 3.2
8 *416:3 *416:9 0.735449
9 *416:4 *416:3 0.77998
10 *587:A0 *416:4 3.2
*END

*D_NET *417 0.00241572

*CONN
*I *628:Y O *C 69.63 82.04 *L 0 *D OAI21XL
*I *607:A I *C 63.03 78.12 *L 0.00403 *D NAND2X1
*I *588:A0 I *C 65.01 77.56 *L 0.00336 *D OAI21XL

*CAP
1 *628:Y 6.32938e-05
2 *607:A 0.000139836
3 *588:A0 0.000139836
4 *417:3 0.00018934
5 *417:4 0.000143025
6 *417:5 0.000167053
7 *417:6 0.000230028
8 *417:7 0.000416203
9 *417:8 0.00048588
10 *417:9 0.000114784
11 *417:10 0.000112301
12 *417:11 7.20424e-05
13 *417:12 0.000142098

*RES
1 *417:5 *628:Y 6.4000001
2 *417:6 *417:5 0.624023
3 *417:7 *417:6 3.2
4 *417:12 *588:A0 3.2
5 *417:8 *417:7 1.83857
6 *417:11 *417:12 0.183887
7 *417:9 *417:8 3.2
8 *417:10 *417:11 0.155957
9 *417:3 *607:A 3.2
10 *417:3 *417:9 0.467969
11 *417:4 *417:10 0.367676
12 *417:4 *417:3 0.312012
*END

*D_NET *418 0.0010641

*CONN
*I *606:Y O *C 56.43 51.8 *L 0 *D OAI21XL
*I *595:A I *C 53.13 53.48 *L 0.0026 *D INVXL

*CAP
1 *606:Y 0.00013984
2 *595:A 0.00013984
3 *418:2 0.000120601
4 *418:3 0.00027161
5 *418:4 0.000120601
6 *418:5 0.00027161

*RES
1 *418:4 *606:Y 3.20000005
2 *418:5 *418:4 3.20000005
3 *418:3 *418:5 1.10312
4 *418:2 *418:3 3.20000005
5 *595:A *418:2 3.20000005
*END

*D_NET *419 0.000905241

*CONN
*I *605:Y O *C 94.05 89.32 *L 0 *D OAI21XL
*I *593:A I *C 93.39 83.72 *L 0.0026 *D INVXL

*CAP
1 *605:Y 0.000139839
2 *593:A 0.000139839
3 *419:2 0.00020552
4 *419:3 0.00020552
5 *419:4 0.0001421
6 *419:5 7.24204e-05

*RES
1 *419:5 *605:Y 3.20000005
2 *419:2 *419:5 0.183838
3 *419:3 *419:2 0.77998
4 *419:4 *419:3 0.183838
5 *593:A *419:4 3.20000005
*END

*D_NET *420 0.00170842

*CONN
*I *622:Y O *C 132.33 108.36 *L 0 *D INVX1
*I *604:A I *C 137.61 108.36 *L 0.00403 *D NAND2X1
*I *560:A0 I *C 134.97 107.8 *L 0.00336 *D OAI21XL

*CAP
1 *622:Y 0.000139839
2 *604:A 0.000139839
3 *560:A0 6.32994e-05
4 *420:3 0.000298698789
5 *420:4 0.000283302
6 *420:5 0.000120601
7 *420:6 0.000120601
8 *420:7 0.000180327
9 *420:8 0.000120601
10 *420:9 0.000241311

*RES
1 *420:8 *604:A 3.2
2 *420:9 *420:8 3.2
3 *420:6 *560:A0 6.4000001
4 *420:7 *420:9 0.735449
5 *420:3 *420:6 3.2
6 *420:3 *420:7 0.155957
7 *420:4 *420:3 0.735449
8 *420:5 *420:4 3.2
9 *622:Y *420:5 3.2
*END

*D_NET *421 7.972e-05

*CONN
*I *603:Y O *C 138.93 82.04 *L 0 *D OAI21XL
*I *579:A I *C 140.25 83.72 *L 0.0026 *D INVXL

*CAP
1 *603:Y 3.986e-05
2 *579:A 3.986e-05

*RES
1 *603:Y *579:A 0.223826
*END

*D_NET *422 0.00127323

*CONN
*I *602:Y O *C 116.49 122.36 *L 0 *D OAI21XL
*I *583:A I *C 113.19 124.04 *L 0.0026 *D INVXL

*CAP
1 *602:Y 6.33016e-05
2 *583:A 8.06569e-05
3 *422:2 0.00019389
4 *422:3 0.00028729
5 *422:4 0.00011599
6 *422:5 0.00019389
7 *422:6 5.09174e-05
8 *422:7 0.00028729

*RES
1 *422:6 *602:Y 6.4000001
2 *422:4 *583:A 0.447656
3 *422:7 *422:6 6.4000001
4 *422:5 *422:4 3.2
5 *422:3 *422:7 1.28701
6 *422:2 *422:5 0.467969
7 *422:2 *422:3 3.2
*END

*D_NET *423 0.00372991

*CONN
*I *637:Y O *C 58.41 52.36 *L 0 *D NAND2X1
*I *606:B0 I *C 56.43 52.36 *L 0.00302 *D OAI21XL
*I *601:B0 I *C 50.49 53.48 *L 0.00348 *D OAI2BB2XL
*I *601:A1N I *C 48.51 52.92 *L 0.00224 *D OAI2BB2XL

*CAP
1 *637:Y 0.000139845
2 *606:B0 0.000126262
3 *601:B0 0.000139845
4 *601:A1N 7.96984e-05
5 *423:4 0.000159933
6 *423:5 0.000159933
7 *423:6 0.000148634
8 *423:7 7.8953e-05
9 *423:8 0.000181501
10 *423:9 0.00011182
11 *423:10 0.000383358
12 *423:11 0.000200051
13 *423:12 0.000216162
14 *423:13 0.00039077
15 *423:14 0.000191572
16 *423:15 0.000238129
17 *423:16 6.26568e-05
18 *423:17 0.000120597
19 *423:18 0.000123638
20 *423:12 *164:8 7.505e-05
21 *423:13 *164:9 7.505e-05
22 *423:13 *164:8 7.58e-05
23 *423:10 *164:9 7.58e-05
24 *423:10 *164:8 5.901e-05
25 *423:11 *164:9 5.901e-05
26 *423:18 *164:8 7.53e-06
27 *423:16 *164:9 7.53e-06
28 *423:6 *164:5 2.089e-05
29 *423:7 *164:10 2.0890004e-05

*RES
1 *423:17 *637:Y 3.20000005
2 *423:15 *606:B0 0.671484
3 *423:18 *423:17 3.20000005
4 *423:9 *423:15 3.20000005
5 *423:16 *423:18 0.183838
6 *423:5 *601:B0 3.20000005
7 *423:9 *423:8 0.624023
8 *423:16 *423:12 0.156006
9 *423:5 *423:4 0.312012
10 *423:13 *423:8 3.20000005
11 *423:13 *423:12 1.10312
12 *423:10 *423:4 3.20000005
13 *423:10 *423:13 1.10312
14 *423:11 *423:10 0.919287
15 *423:6 *423:11 3.20000005
16 *423:7 *423:6 0.468018
17 *423:14 *601:A1N 0.447656
18 *423:14 *423:7 3.20000005
*END

*D_NET *424 0.00236217

*CONN
*I *601:Y O *C 51.81 53.48 *L 0 *D OAI2BB2XL
*I *575:D I *C 44.55 43.96 *L 0.00184 *D DFFRHQX1

*CAP
1 *601:Y 0.00013984
2 *575:D 6.32974e-05
3 *424:2 0.000630911
4 *424:3 0.00070059
5 *424:4 0.000353465
6 *424:5 0.000120597
7 *424:6 0.000353465

*RES
1 *424:5 *601:Y 3.2
2 *424:6 *424:5 3.2
3 *424:4 *424:6 2.02246
4 *424:3 *424:4 3.2
5 *424:2 *424:3 2.65195
6 *575:D *424:2 6.4000001
*END

*D_NET *425 7.972e-05

*CONN
*I *600:Y O *C 98.67 28.84 *L 0 *D OAI21XL
*I *584:A I *C 99.99 27.16 *L 0.0026 *D INVXL

*CAP
1 *600:Y 3.986e-05
2 *584:A 3.986e-05

*RES
1 *600:Y *584:A 0.223826
*END

*D_NET *426 7.972e-05

*CONN
*I *599:Y O *C 148.83 61.88 *L 0 *D OAI21XL
*I *592:A I *C 150.15 63.56 *L 0.0026 *D INVXL

*CAP
1 *599:Y 3.986e-05
2 *592:A 3.986e-05

*RES
1 *599:Y *592:A 0.223826
*END

*D_NET *427 0.00159467

*CONN
*I *624:Y O *C 81.51 52.92 *L 0 *D INVX1
*I *598:A I *C 84.15 47.88 *L 0.00403 *D NAND2X1
*I *573:A0 I *C 81.51 47.32 *L 0.00336 *D OAI21XL

*CAP
1 *624:Y 0.000139835
2 *598:A 0.000139835
3 *573:A0 0.000139835
4 *427:3 0.000123642
5 *427:4 0.00039804
6 *427:5 0.000164281
7 *427:6 0.00021165
8 *427:7 0.00027755

*RES
1 *427:6 *598:A 3.20000005
2 *427:6 *427:7 0.624023
3 *427:3 *624:Y 3.20000005
4 *427:4 *427:7 0.735449
5 *427:4 *427:3 0.624023
6 *427:5 *427:4 0.77998
7 *573:A0 *427:5 3.20000005
*END

*D_NET *428 0.00204032

*CONN
*I *623:Y O *C 104.61 118.44 *L 0 *D INVX1
*I *597:A I *C 107.91 123.48 *L 0.00403 *D NAND2X1
*I *571:A0 I *C 105.27 124.04 *L 0.00336 *D OAI21XL

*CAP
1 *623:Y 0.00013984
2 *597:A 0.00013984
3 *571:A0 0.00013984
4 *428:3 0.00029621
5 *428:4 0.000192669
6 *428:5 0.00021662
7 *428:6 9.95774e-05
8 *428:7 0.000104762
9 *428:8 8.99636e-05
10 *428:9 0.000132509
11 *428:10 0.000286302
12 *428:11 0.000202192

*RES
1 *428:11 *597:A 3.20000005
2 *428:9 *428:11 0.468018
3 *428:8 *571:A0 3.20000005
4 *428:10 *428:9 3.20000005
5 *428:7 *428:8 0.312012
6 *428:5 *428:10 0.919287
7 *428:6 *428:7 0.183838
8 *428:3 *428:5 3.20000005
9 *428:3 *428:6 0.312012
10 *428:4 *428:3 0.77998
11 *623:Y *428:4 3.20000005
*END

*D_NET *429 0.0016235

*CONN
*I *621:Y O *C 79.53 83.16 *L 0 *D INVX1
*I *596:A I *C 74.91 78.12 *L 0.00403 *D NAND2X1
*I *572:A0 I *C 76.89 77.56 *L 0.00336 *D OAI21XL

*CAP
1 *621:Y 0.000139843
2 *596:A 6.33001e-05
3 *572:A0 0.000139843
4 *429:3 0.000206982
5 *429:4 0.000262041113
6 *429:5 6.57192e-05
7 *429:6 0.000113441
8 *429:7 7.31804e-05
9 *429:8 0.00024412
10 *429:9 0.000157521
11 *429:10 0.000157521

*RES
1 *429:3 *621:Y 3.2
2 *429:4 *429:3 0.936035
3 *429:10 *429:4 0.367676
4 *429:9 *429:10 0.467969
5 *429:8 *572:A0 3.2
6 *429:8 *429:9 0.367676
7 *429:6 *429:8 0.367676
8 *429:6 *429:7 0.155957
9 *429:5 *429:7 0.183887
10 *596:A *429:5 6.4000001
*END

*D_NET *430 0.00124482

*CONN
*I *595:Y O *C 53.79 54.04 *L 0 *D INVXL
*I *577:D I *C 50.49 46.76 *L 0.00184 *D DFFRHQX1

*CAP
1 *595:Y 7.9733e-05
2 *577:D 6.32987e-05
3 *430:2 0.000146243
4 *430:3 0.00043306
5 *430:4 0.00011506
6 *430:5 0.000407421

*RES
1 *430:4 *595:Y 0.447656
2 *430:5 *430:4 3.2
3 *430:3 *430:5 1.55996
4 *430:2 *430:3 0.551562
5 *577:D *430:2 6.4000001
*END

*D_NET *431 0.00316136

*CONN
*I *638:Y O *C 91.41 88.76 *L 0 *D NAND2X1
*I *605:B0 I *C 94.05 88.76 *L 0.00302 *D OAI21XL
*I *594:B0 I *C 82.83 87.64 *L 0.00348 *D OAI2BB2XL
*I *594:A1N I *C 80.85 88.2 *L 0.00224 *D OAI2BB2XL

*CAP
1 *638:Y 0.000139839
2 *605:B0 8.34277e-05
3 *594:B0 0.000139839
4 *594:A1N 6.33011e-05
5 *431:4 0.000180046
6 *431:5 0.000194667
7 *431:6 7.31809e-05
8 *431:7 7.31809e-05
9 *431:8 0.0001826
10 *431:9 0.000146736
11 *431:10 0.000133737
12 *431:11 0.00050114
13 *431:12 0.00050114
14 *431:13 6.57175e-05
15 *431:14 0.000142102
16 *431:15 0.000118756
17 *431:16 6.57175e-05
18 *431:11 *381:7 0.00017811
19 *431:12 *381:8 0.00017811

*RES
1 *431:15 *605:B0 0.447656
2 *431:16 *431:15 6.4000001
3 *431:10 *431:16 0.183887
4 *431:8 *431:10 0.467969
5 *431:8 *638:Y 3.2
6 *431:9 *431:8 0.312012
7 *431:11 *431:9 3.2
8 *431:12 *431:11 2.75781
9 *431:5 *431:12 3.2
10 *431:14 *594:B0 3.2
11 *431:5 *431:4 0.467969
12 *431:4 *431:14 0.183887
13 *431:7 *431:4 0.183887
14 *431:7 *431:6 0.155957
15 *431:13 *431:6 0.183887
16 *594:A1N *431:13 6.4000001
*END

*D_NET *432 0.00252322

*CONN
*I *594:Y O *C 84.15 87.64 *L 0 *D OAI2BB2XL
*I *578:D I *C 74.25 94.36 *L 0.00184 *D DFFRHQX1

*CAP
1 *594:Y 0.000139844
2 *578:D 6.3303e-05
3 *432:2 0.00054977
4 *432:3 0.000522951
5 *432:4 0.000422753
6 *432:5 0.00015403
7 *432:6 0.000353074
8 *432:7 0.000196889
9 *432:8 0.0001206

*RES
1 *432:8 *594:Y 3.2
2 *432:2 *432:8 3.2
3 *432:3 *432:2 2.02246
4 *432:3 *432:7 0.312012
5 *432:6 *578:D 6.4000001
6 *432:5 *432:7 0.735449
7 *432:4 *432:6 1.55996
8 *432:4 *432:5 3.2
*END

*D_NET *433 0.00235188

*CONN
*I *593:Y O *C 94.05 84.28 *L 0 *D INVXL
*I *576:D I *C 90.75 97.16 *L 0.00184 *D DFFRHQX1

*CAP
1 *593:Y 7.9732e-05
2 *576:D 6.32909e-05
3 *433:2 0.000732324
4 *433:3 0.0008531
5 *433:4 6.57252e-05
6 *433:5 0.000115048
7 *433:6 0.000188389
8 *433:7 0.00025427

*RES
1 *433:5 *593:Y 0.447656
2 *433:4 *576:D 6.4000001
3 *433:6 *433:5 3.2
4 *433:2 *433:4 0.183887
5 *433:6 *433:7 0.624023
6 *433:3 *433:2 3.43203
7 *433:3 *433:7 0.735449
*END

*D_NET *434 0.001791

*CONN
*I *592:Y O *C 150.81 64.12 *L 0 *D INVXL
*I *554:D I *C 142.89 66.92 *L 0.00184 *D DFFRHQX1

*CAP
1 *592:Y 0.00013984
2 *554:D 6.33042e-05
3 *434:2 0.00049242
4 *434:3 0.00049242
5 *434:4 0.000120597
6 *434:5 0.00024121
7 *434:6 0.00024121

*RES
1 *434:5 *592:Y 3.2
2 *434:5 *434:6 0.77998
3 *434:2 *434:6 3.2
4 *434:3 *434:2 2.20625
5 *434:4 *434:3 3.2
6 *554:D *434:4 6.4000001
*END

*D_NET *435 0.00122884

*CONN
*I *591:Y O *C 103.29 142.52 *L 0 *D OAI21XL
*I *562:A I *C 99.33 144.2 *L 0.0026 *D INVXL

*CAP
1 *591:Y 0.000139841
2 *562:A 0.000139841
3 *435:2 0.000295699
4 *435:3 0.00036538
5 *435:4 8.37416e-05
6 *435:5 8.37416e-05
7 *435:6 0.0001206

*RES
1 *435:6 *591:Y 3.20000005
2 *435:2 *435:6 3.20000005
3 *435:3 *435:2 1.28701
4 *435:5 *435:3 3.20000005
5 *435:4 *435:5 0.312012
6 *562:A *435:4 3.20000005
*END

*D_NET *436 0.000852199

*CONN
*I *590:Y O *C 125.73 149.8 *L 0 *D OAI21XL
*I *564:A I *C 125.07 144.2 *L 0.0026 *D INVXL

*CAP
1 *590:Y 6.32993e-05
2 *564:A 0.000139839
3 *436:2 0.000142101
4 *436:3 0.00022062
5 *436:4 0.00022062
6 *436:5 6.57197e-05

*RES
1 *436:5 *590:Y 6.4000001
2 *436:4 *436:5 0.183887
3 *436:3 *436:4 0.77998
4 *436:2 *436:3 0.183887
5 *564:A *436:2 3.2
*END

*D_NET *437 0.000858544

*CONN
*I *589:Y O *C 84.15 112.28 *L 0 *D OAI21XL
*I *566:A I *C 81.51 113.96 *L 0.0026 *D INVXL

*CAP
1 *589:Y 0.00013984
2 *566:A 0.00013984
3 *437:2 8.47815e-05
4 *437:3 0.00026062
5 *437:4 0.000233462

*RES
1 *437:4 *589:Y 3.20000005
2 *437:3 *437:4 0.919287
3 *437:2 *437:3 0.312012
4 *566:A *437:2 3.20000005
*END

*D_NET *438 0.000713402

*CONN
*I *588:Y O *C 65.67 79.24 *L 0 *D OAI21XL
*I *563:A I *C 65.67 73.64 *L 0.0026 *D INVXL

*CAP
1 *588:Y 0.00013984
2 *563:A 0.00013984
3 *438:2 0.000173249
4 *438:3 0.00018805
5 *438:4 7.24194e-05

*RES
1 *438:4 *588:Y 3.20000005
2 *438:3 *438:4 0.183838
3 *438:2 *438:3 0.77998
4 *563:A *438:2 3.20000005
*END

*D_NET *439 0.00106222

*CONN
*I *587:Y O *C 61.71 38.92 *L 0 *D OAI21XL
*I *567:A I *C 57.09 37.24 *L 0.0026 *D INVXL

*CAP
1 *587:Y 6.33012e-05
2 *567:A 0.00013984
3 *439:2 0.000120601
4 *439:3 0.00030894
5 *439:4 0.000120601
6 *439:5 0.00030894

*RES
1 *439:4 *587:Y 6.4000001
2 *439:5 *439:4 3.2
3 *439:3 *439:5 1.4709
4 *439:2 *439:3 3.2
5 *567:A *439:2 3.2
*END

*D_NET *440 0.00110446

*CONN
*I *586:Y O *C 133.65 122.36 *L 0 *D OAI21XL
*I *561:A I *C 129.69 124.04 *L 0.0026 *D INVXL

*CAP
1 *586:Y 0.000139841
2 *561:A 0.000139841
3 *440:2 0.00026487
4 *440:3 0.000144089
5 *440:4 0.00018236
6 *440:5 0.000233458

*RES
1 *440:5 *586:Y 3.20000005
2 *440:2 *440:5 0.919287
3 *440:3 *440:2 0.312012
4 *440:4 *440:3 0.367725
5 *561:A *440:4 3.20000005
*END

*D_NET *441 0.00148304

*CONN
*I *649:Y O *C 141.57 93.24 *L 0 *D AOI2BB2X1
*I *585:B1 I *C 139.59 88.2 *L 0.00335 *D OAI2BB2XL
*I *585:A1N I *C 138.27 88.2 *L 0.00224 *D OAI2BB2XL

*CAP
1 *649:Y 6.3301e-05
2 *585:B1 6.3301e-05
3 *585:A1N 6.3301e-05
4 *441:3 8.90276e-05
5 *441:4 0.00014435
6 *441:5 9.12907e-05
7 *441:6 0.000281421309
8 *441:7 0.000255991
9 *441:8 0.00026339
10 *441:9 0.000167672

*RES
1 *441:9 *649:Y 6.4000001
2 *441:8 *441:9 0.467969
3 *441:5 *585:B1 6.4000001
4 *441:7 *441:8 0.551562
5 *441:5 *441:6 0.312012
6 *441:6 *441:7 0.624023
7 *441:4 *441:6 0.367676
8 *441:3 *441:4 0.312012
9 *585:A1N *441:3 6.4000001
*END

*D_NET *442 0.00189181

*CONN
*I *616:Y O *C 136.29 82.6 *L 0 *D NAND2X1
*I *603:B0 I *C 138.93 82.6 *L 0.00302 *D OAI21XL
*I *585:B0 I *C 140.25 87.64 *L 0.00348 *D OAI2BB2XL
*I *585:A0N I *C 137.61 87.64 *L 0.0019 *D OAI2BB2XL

*CAP
1 *616:Y 6.32977e-05
2 *603:B0 0.000118763
3 *585:B0 0.000139841
4 *585:A0N 0.000139841
5 *442:4 0.00045306
6 *442:5 0.000316959
7 *442:6 6.58487e-05
8 *442:7 0.000118763
9 *442:8 6.58487e-05
10 *442:9 0.000113702
11 *442:10 5.83824e-05
12 *442:11 0.00011158
13 *442:12 0.000125939

*RES
1 *442:10 *585:A0N 3.2
2 *442:12 *585:B0 3.2
3 *442:9 *442:10 0.155957
4 *442:11 *442:12 0.155957
5 *442:9 *442:4 0.367676
6 *442:4 *442:11 0.367676
7 *442:5 *442:4 1.24805
8 *603:B0 *442:5 6.4000001
9 *442:7 *603:B0 0.447656
10 *442:8 *442:7 6.4000001
11 *442:6 *442:8 0.183887
12 *616:Y *442:6 6.4000001
*END

*D_NET *443 0.000726542

*CONN
*I *585:Y O *C 141.57 87.64 *L 0 *D OAI2BB2XL
*I *549:D I *C 143.55 87.08 *L 0.00184 *D DFFRHQX1

*CAP
1 *585:Y 0.000139839
2 *549:D 6.32992e-05
3 *443:2 0.000106259
4 *443:3 0.00017594
5 *443:4 0.000120601
6 *443:5 0.000120601

*RES
1 *443:5 *549:D 6.4000001
2 *443:2 *443:5 3.2
3 *443:3 *443:2 0.551562
4 *443:4 *443:3 3.2
5 *585:Y *443:4 3.2
*END

*D_NET *444 0.00227797

*CONN
*I *584:Y O *C 100.65 26.6 *L 0 *D INVXL
*I *555:D I *C 94.05 36.68 *L 0.00184 *D DFFRHQX1

*CAP
1 *584:Y 0.000139837
2 *555:D 6.32932e-05
3 *444:2 0.000546497891
4 *444:3 0.000465459
5 *444:4 0.000546497891
6 *444:5 0.000120599
7 *444:6 0.000395778

*RES
1 *444:5 *584:Y 3.2
2 *444:6 *444:5 3.2
3 *444:4 *555:D 6.4000001
4 *444:3 *444:6 1.83857
5 *444:2 *444:4 2.34004
6 *444:2 *444:3 3.2
*END

*D_NET *445 0.000783862

*CONN
*I *583:Y O *C 113.85 124.6 *L 0 *D INVXL
*I *556:D I *C 113.85 127.4 *L 0.00184 *D DFFRHQX1

*CAP
1 *583:Y 0.000139841
2 *556:D 6.33032e-05
3 *445:2 0.0003252
4 *445:3 0.00025552

*RES
1 *445:3 *556:D 6.4000001
2 *445:2 *445:3 0.77998
3 *583:Y *445:2 3.2
*END

*D_NET *446 0.0016715

*CONN
*I *647:Y O *C 138.27 63 *L 0 *D AOI2BB2X1
*I *582:B1 I *C 142.89 63 *L 0.00335 *D OAI2BB2XL
*I *582:A1N I *C 141.57 63 *L 0.00224 *D OAI2BB2XL

*CAP
1 *647:Y 3.98426e-05
2 *582:B1 0.000139838
3 *582:A1N 3.98426e-05
4 *446:3 0.0001962
5 *446:4 0.000222237
6 *446:5 7.51689e-05
7 *446:6 0.00033748
8 *446:7 7.51689e-05
9 *446:8 0.000127283
10 *446:9 0.000222237
11 *446:10 0.0001962

*RES
1 *446:10 *582:B1 3.2
2 *446:7 *582:A1N 0.223828
3 *446:9 *446:10 0.467969
4 *446:8 *446:7 6.4000001
5 *446:6 *446:9 0.551562
6 *446:6 *446:8 0.467969
7 *446:4 *446:6 0.551562
8 *446:4 *446:3 0.467969
9 *446:5 *446:3 3.2
10 *647:Y *446:5 0.223828
*END

*D_NET *447 0.00240183

*CONN
*I *615:Y O *C 146.19 62.44 *L 0 *D NAND2X1
*I *599:B0 I *C 148.83 62.44 *L 0.00302 *D OAI21XL
*I *582:B0 I *C 143.55 63.56 *L 0.00348 *D OAI2BB2XL
*I *582:A0N I *C 140.91 63.56 *L 0.0019 *D OAI2BB2XL

*CAP
1 *615:Y 6.32992e-05
2 *599:B0 0.000139842
3 *582:B0 0.000139842
4 *582:A0N 6.32992e-05
5 *447:4 0.00024155
6 *447:5 0.000373621094
7 *447:6 0.000284832
8 *447:7 7.60868e-05
9 *447:8 0.000205502
10 *447:9 0.000138633
11 *447:10 0.00012336
12 *447:11 0.000203922
13 *447:12 5.09222e-05
14 *447:13 0.000183398
15 *447:14 0.00011372

*RES
1 *447:13 *599:B0 3.2
2 *447:13 *447:14 0.467969
3 *447:4 *447:14 3.2
4 *447:12 *615:Y 6.4000001
5 *447:5 *447:4 0.551562
6 *447:5 *447:12 6.4000001
7 *447:9 *582:B0 3.2
8 *447:6 *447:5 0.919238
9 *447:9 *447:10 0.155957
10 *447:10 *447:6 3.2
11 *447:10 *447:11 0.155957
12 *447:8 *447:11 0.735449
13 *447:7 *447:8 0.312012
14 *582:A0N *447:7 6.4000001
*END

*D_NET *448 0.00207856

*CONN
*I *582:Y O *C 144.87 63.56 *L 0 *D OAI2BB2XL
*I *550:D I *C 136.95 56.84 *L 0.00184 *D DFFRHQX1

*CAP
1 *582:Y 0.000139835
2 *550:D 6.32997e-05
3 *448:2 0.00051725
4 *448:3 0.000447573
5 *448:4 6.5849e-05
6 *448:5 9.74515e-05
7 *448:6 0.000152203
8 *448:7 0.000297548
9 *448:8 0.000297548

*RES
1 *448:8 *582:Y 3.2
2 *448:7 *448:8 1.24805
3 *448:2 *448:7 3.2
4 *448:3 *448:2 2.02246
5 *448:6 *448:3 3.2
6 *448:5 *448:6 0.312012
7 *448:4 *448:5 0.183887
8 *550:D *448:4 6.4000001
*END

*D_NET *449 0.00235223

*CONN
*I *648:Y O *C 123.09 113.4 *L 0 *D AOI2BB2X1
*I *581:B1 I *C 121.77 123.48 *L 0.00335 *D OAI2BB2XL
*I *581:A1N I *C 120.45 123.48 *L 0.00224 *D OAI2BB2XL

*CAP
1 *648:Y 0.000139836
2 *581:B1 0.000139836
3 *581:A1N 0.000139836
4 *449:3 0.000178631
5 *449:4 0.000193249
6 *449:5 0.000503273
7 *449:6 0.00058486
8 *449:7 0.00017673
9 *449:8 0.000155293
10 *449:9 0.000140675

*RES
1 *449:8 *648:Y 3.20000005
2 *449:8 *449:9 0.312012
3 *449:5 *449:9 0.367725
4 *449:7 *581:B1 3.20000005
5 *449:4 *581:A1N 3.20000005
6 *449:5 *449:6 2.02798
7 *449:6 *449:7 0.468018
8 *449:3 *449:4 0.468018
9 *449:3 *449:6 0.367725
*END

*D_NET *450 0.00166415

*CONN
*I *617:Y O *C 118.47 122.92 *L 0 *D NAND2X1
*I *602:B0 I *C 116.49 122.92 *L 0.00302 *D OAI21XL
*I *581:B0 I *C 122.43 124.04 *L 0.00348 *D OAI2BB2XL
*I *581:A0N I *C 119.79 124.04 *L 0.0019 *D OAI2BB2XL

*CAP
1 *617:Y 7.97173e-05
2 *602:B0 6.33028e-05
3 *581:B0 0.000139841
4 *581:A0N 3.98645e-05
5 *450:4 9.96761e-05
6 *450:5 9.96761e-05
7 *450:6 0.000105976
8 *450:7 0.000151734
9 *450:8 0.000112682
10 *450:9 0.00038584
11 *450:10 0.00038584

*RES
1 *450:4 *581:B0 3.2
2 *450:5 *450:4 0.312012
3 *617:Y *581:A0N 0.223828
4 *450:10 *450:5 3.2
5 *450:9 *450:10 1.28701
6 *450:7 *617:Y 0.223828
7 *450:8 *450:9 3.2
8 *450:8 *450:7 3.2
9 *450:6 *450:8 0.367676
10 *602:B0 *450:6 6.4000001
*END

*D_NET *451 0.00198236

*CONN
*I *581:Y O *C 123.75 124.04 *L 0 *D OAI2BB2XL
*I *558:D I *C 116.49 117.32 *L 0.00184 *D DFFRHQX1

*CAP
1 *581:Y 0.00013984
2 *558:D 6.33019e-05
3 *451:2 0.00033281
4 *451:3 0.000402487
5 *451:4 0.00046166125
6 *451:5 0.00046166125
7 *451:6 0.000120602

*RES
1 *451:2 *581:Y 3.2
2 *451:3 *451:2 1.55996
3 *451:4 *451:3 3.2
4 *451:5 *451:4 2.02246
5 *451:6 *451:5 3.2
6 *558:D *451:6 6.4000001
*END

*D_NET *452 0.00078905

*CONN
*I *646:Y O *C 93.39 22.68 *L 0 *D AOI2BB2X1
*I *580:B1 I *C 97.35 22.68 *L 0.00335 *D OAI2BB2XL
*I *580:A1N I *C 96.03 22.68 *L 0.00224 *D OAI2BB2XL

*CAP
1 *646:Y 0.00015942
2 *580:B1 0.000139839
3 *580:A1N 0.00019475
4 *452:3 0.000112681
5 *452:4 0.000182361

*RES
1 *452:4 *580:B1 3.2
2 *452:3 *452:4 0.367676
3 *580:A1N *452:3 6.4000001
4 *646:Y *580:A1N 0.895312
*END

*D_NET *453 0.0019749

*CONN
*I *618:Y O *C 95.37 28.28 *L 0 *D NAND2X1
*I *600:B0 I *C 98.67 28.28 *L 0.00302 *D OAI21XL
*I *580:B0 I *C 98.01 23.24 *L 0.00348 *D OAI2BB2XL
*I *580:A0N I *C 95.37 23.24 *L 0.0019 *D OAI2BB2XL

*CAP
1 *618:Y 0.000139838
2 *600:B0 6.33019e-05
3 *580:B0 0.000139838
4 *580:A0N 0.000139838
5 *453:4 0.000166282
6 *453:5 0.00015148
7 *453:6 0.00022036
8 *453:7 8.47796e-05
9 *453:8 0.000217083
10 *453:9 0.00028298
11 *453:10 0.000191961
12 *453:11 0.000177163

*RES
1 *453:11 *600:B0 6.4000001
2 *453:8 *580:B0 3.2
3 *453:10 *453:11 0.77998
4 *453:8 *453:9 0.624023
5 *453:9 *453:10 0.183887
6 *453:7 *618:Y 3.2
7 *453:6 *453:9 0.551562
8 *453:6 *453:7 0.312012
9 *453:4 *453:6 0.183887
10 *453:5 *453:4 0.624023
11 *580:A0N *453:5 3.2
*END

*D_NET *454 0.00306688

*CONN
*I *580:Y O *C 99.33 23.24 *L 0 *D OAI2BB2XL
*I *557:D I *C 93.39 33.88 *L 0.00184 *D DFFRHQX1

*CAP
1 *580:Y 0.000164786
2 *557:D 6.3305e-05
3 *454:2 0.00063954
4 *454:3 0.00063954
5 *454:4 0.000120599
6 *454:5 0.00017757
7 *454:6 0.000324479
8 *454:7 0.000116588
9 *454:8 0.000324479
10 *454:9 0.000152276
11 *454:10 0.000200123
12 *454:11 0.000143581

*RES
1 *580:Y *454:10 0.895312
2 *454:3 *454:10 3.2
3 *454:3 *454:2 2.80801
4 *454:11 *454:2 3.2
5 *454:9 *454:11 0.551562
6 *454:8 *454:9 0.155957
7 *454:6 *454:8 1.4709
8 *454:6 *454:7 0.155957
9 *454:5 *454:7 0.367676
10 *454:4 *454:5 3.2
11 *557:D *454:4 6.4000001
*END

*D_NET *455 0.000893659

*CONN
*I *579:Y O *C 140.91 84.28 *L 0 *D INVXL
*I *553:D I *C 142.89 84.28 *L 0.00184 *D DFFRHQX1

*CAP
1 *579:Y 0.000139842
2 *553:D 6.32977e-05
3 *455:2 0.000142229
4 *455:3 7.25508e-05
5 *455:4 0.00017757
6 *455:5 0.000120599
7 *455:6 0.00017757

*RES
1 *455:5 *553:D 6.4000001
2 *455:6 *455:5 3.2
3 *455:4 *455:6 0.367676
4 *455:3 *455:4 3.2
5 *455:2 *455:3 0.183887
6 *579:Y *455:2 3.2
*END

*D_NET *456 0.00358918

*CONN
*I *612:Y O *C 86.13 112.84 *L 0 *D NAND2X1
*I *589:B0 I *C 84.15 112.84 *L 0.00302 *D OAI21XL
*I *574:B0 I *C 70.95 107.8 *L 0.00348 *D OAI2BB2XL
*I *574:A1N I *C 68.97 108.36 *L 0.00224 *D OAI2BB2XL

*CAP
1 *612:Y 0.000139843
2 *589:B0 6.33025e-05
3 *574:B0 0.000139843
4 *574:A1N 6.33025e-05
5 *456:4 0.000335799
6 *456:5 0.000111084
7 *456:6 0.00046744
8 *456:7 0.00046744
9 *456:8 0.000142732
10 *456:9 0.00013403
11 *456:10 0.0002554
12 *456:11 0.000343388
13 *456:12 0.000179765
14 *456:13 9.57277e-05
15 *456:14 0.000184351
16 *456:15 0.000224537
17 *456:16 0.000120599
18 *456:17 0.000120599

*RES
1 *456:17 *612:Y 3.2
2 *456:16 *589:B0 6.4000001
3 *456:10 *456:17 3.2
4 *456:11 *456:16 3.2
5 *456:11 *456:10 0.735449
6 *456:12 *456:11 0.919238
7 *456:6 *456:12 0.155957
8 *456:7 *456:6 2.02246
9 *456:8 *456:7 0.155957
10 *456:9 *456:8 0.735449
11 *456:5 *574:B0 3.2
12 *456:15 *456:9 3.2
13 *456:5 *456:4 0.467969
14 *456:4 *456:15 0.624023
15 *456:14 *456:4 0.551562
16 *456:13 *456:14 0.312012
17 *574:A1N *456:13 6.4000001
*END

*D_NET *457 0.000678201

*CONN
*I *574:Y O *C 72.27 107.8 *L 0 *D OAI2BB2XL
*I *531:D I *C 70.95 104.44 *L 0.00184 *D DFFRHQX1

*CAP
1 *574:Y 0.00013984
2 *531:D 6.33023e-05
3 *457:2 0.000105982
4 *457:3 0.00021207
5 *457:4 0.00015701

*RES
1 *457:4 *574:Y 3.2
2 *457:3 *457:4 0.77998
3 *457:2 *457:3 0.367676
4 *531:D *457:2 6.4000001
*END

*D_NET *458 0.00095084

*CONN
*I *573:Y O *C 82.17 49 *L 0 *D OAI21XL
*I *551:A I *C 78.87 47.32 *L 0.0026 *D INVXL

*CAP
1 *573:Y 6.3298e-05
2 *551:A 0.000139839
3 *458:2 0.000120599
4 *458:3 0.00025325
5 *458:4 0.000120599
6 *458:5 0.00025325

*RES
1 *458:4 *573:Y 6.4000001
2 *458:5 *458:4 3.2
3 *458:3 *458:5 1.10312
4 *458:2 *458:3 3.2
5 *551:A *458:2 3.2
*END

*D_NET *459 7.972e-05

*CONN
*I *572:Y O *C 77.55 79.24 *L 0 *D OAI21XL
*I *548:A I *C 78.87 77.56 *L 0.0026 *D INVXL

*CAP
1 *572:Y 3.986e-05
2 *548:A 3.986e-05

*RES
1 *572:Y *548:A 0.223826
*END

*D_NET *460 0.0010367

*CONN
*I *571:Y O *C 105.93 122.36 *L 0 *D OAI21XL
*I *552:A I *C 102.63 124.04 *L 0.0026 *D INVXL

*CAP
1 *571:Y 0.000139838
2 *552:A 0.000139838
3 *460:2 0.00023099
4 *460:3 0.000150472
5 *460:4 0.00018236
6 *460:5 0.000193198

*RES
1 *460:5 *571:Y 3.20000005
2 *460:2 *460:5 0.735449
3 *460:3 *460:2 0.312012
4 *460:4 *460:3 0.367725
5 *552:A *460:4 3.20000005
*END

*D_NET *461 0.00197185

*CONN
*I *610:Y O *C 128.37 149.24 *L 0 *D NAND2X1
*I *590:B0 I *C 125.73 149.24 *L 0.00302 *D OAI21XL
*I *570:B0 I *C 121.77 148.12 *L 0.00348 *D OAI2BB2XL
*I *570:A1N I *C 119.79 148.68 *L 0.00224 *D OAI2BB2XL

*CAP
1 *610:Y 8.2118e-05
2 *590:B0 0.00015769
3 *570:B0 0.00013984
4 *570:A1N 6.32984e-05
5 *461:4 0.00026713
6 *461:5 9.12893e-05
7 *461:6 9.14768e-05
8 *461:7 0.0001801
9 *461:8 7.3179e-05
10 *461:9 0.000113439
11 *461:10 0.00015769
12 *461:11 0.000142098
13 *461:12 0.000112677
14 *461:13 0.00011745
15 *461:14 0.000182358

*RES
1 *461:13 *610:Y 0.447656
2 *461:14 *461:13 3.2
3 *461:12 *461:14 0.367676
4 *590:B0 *461:12 6.4000001
5 *461:10 *590:B0 0.671484
6 *461:11 *461:10 3.2
7 *461:8 *461:11 0.183887
8 *461:5 *570:B0 3.2
9 *461:8 *461:9 0.155957
10 *461:5 *461:4 0.467969
11 *461:4 *461:9 0.367676
12 *461:7 *461:4 0.551562
13 *461:6 *461:7 0.312012
14 *570:A1N *461:6 6.4000001
*END

*D_NET *462 0.00272063

*CONN
*I *570:Y O *C 123.09 148.12 *L 0 *D OAI2BB2XL
*I *533:D I *C 113.85 137.48 *L 0.00184 *D DFFRHQX1

*CAP
1 *570:Y 0.000139834
2 *533:D 6.33e-05
3 *462:2 0.000207161
4 *462:3 0.000221956
5 *462:4 0.000535565
6 *462:5 0.000605247188
7 *462:6 0.000120597
8 *462:7 0.00044092
9 *462:8 0.000386043

*RES
1 *462:2 *570:Y 3.2
2 *462:3 *462:2 0.936035
3 *462:8 *462:3 0.183887
4 *462:7 *462:8 1.87197
5 *462:4 *462:7 3.2
6 *462:5 *462:4 2.39014
7 *462:6 *462:5 3.2
8 *533:D *462:6 6.4000001
*END

*D_NET *463 0.00196152

*CONN
*I *631:Y O *C 142.89 123.48 *L 0 *D AOI2BB2X1
*I *569:B1 I *C 136.95 123.48 *L 0.00335 *D OAI2BB2XL
*I *569:A0N I *C 134.97 124.04 *L 0.0019 *D OAI2BB2XL

*CAP
1 *631:Y 0.000139844
2 *569:B1 0.000139844
3 *569:A0N 0.000139844
4 *463:3 0.000112295
5 *463:4 7.20429e-05
6 *463:5 0.00049114
7 *463:6 0.00049114
8 *463:7 0.000182359
9 *463:8 7.24176e-05
10 *463:9 0.000120599

*RES
1 *463:9 *631:Y 3.20000005
2 *463:5 *463:9 3.20000005
3 *463:6 *463:5 1.65474
4 *463:8 *569:B1 3.20000005
5 *463:8 *463:6 3.20000005
6 *463:4 *463:8 0.183838
7 *463:4 *463:3 0.156006
8 *463:7 *463:3 0.367725
9 *569:A0N *463:7 3.20000005
*END

*D_NET *464 0.00221907

*CONN
*I *609:Y O *C 134.31 119 *L 0 *D NAND2X1
*I *586:B0 I *C 133.65 122.92 *L 0.00302 *D OAI21XL
*I *569:B0 I *C 137.61 124.04 *L 0.00348 *D OAI2BB2XL
*I *569:A1N I *C 135.63 123.48 *L 0.00224 *D OAI2BB2XL

*CAP
1 *609:Y 3.98592e-05
2 *586:B0 6.32999e-05
3 *569:B0 0.000139841
4 *569:A1N 6.32999e-05
5 *464:4 0.000140941
6 *464:5 0.00036786
7 *464:6 0.000226739
8 *464:7 7.71588e-05
9 *464:8 0.000156529
10 *464:9 0.000182361
11 *464:10 0.000241681
12 *464:11 9.14781e-05
13 *464:12 0.00026167
14 *464:13 0.000166347

*RES
1 *464:13 *569:B0 3.2
2 *464:12 *464:13 0.467969
3 *464:11 *569:A1N 6.4000001
4 *464:10 *464:12 0.551562
5 *464:10 *464:11 0.312012
6 *464:9 *464:10 0.312012
7 *464:4 *586:B0 6.4000001
8 *464:5 *464:9 0.551562
9 *464:5 *464:4 0.467969
10 *464:6 *464:5 0.467969
11 *464:8 *464:6 3.2
12 *464:7 *464:8 0.189941
13 *464:7 *609:Y 0.223828
*END

*D_NET *465 0.00305992

*CONN
*I *569:Y O *C 138.93 124.04 *L 0 *D OAI2BB2XL
*I *536:D I *C 128.37 134.68 *L 0.00184 *D DFFRHQX1

*CAP
1 *569:Y 6.32964e-05
2 *536:D 6.32964e-05
3 *465:2 0.000551245
4 *465:3 0.000606124
5 *465:4 0.000138117
6 *465:5 0.000144821
7 *465:6 0.000748489531
8 *465:7 0.000678809
9 *465:8 6.57177e-05

*RES
1 *465:5 *569:Y 6.4000001
2 *465:5 *465:4 0.312012
3 *465:6 *465:4 3.2
4 *465:7 *465:6 2.75781
5 *465:3 *465:7 3.2
6 *465:3 *465:2 2.496
7 *465:8 *465:2 0.183887
8 *536:D *465:8 6.4000001
*END

*D_NET *466 0.00140216

*CONN
*I *608:Y O *C 63.69 38.36 *L 0 *D NAND2X1
*I *587:B0 I *C 61.71 38.36 *L 0.00302 *D OAI21XL
*I *568:B0 I *C 68.31 37.24 *L 0.00348 *D OAI2BB2XL
*I *568:A1N I *C 66.33 37.8 *L 0.00224 *D OAI2BB2XL

*CAP
1 *608:Y 0.00016218
2 *587:B0 6.32994e-05
3 *568:B0 0.000139841
4 *568:A1N 0.00015765
5 *466:4 0.00011268
6 *466:5 0.000151729
7 *466:6 0.00018236
8 *466:7 6.57203e-05
9 *466:8 0.000112299
10 *466:9 7.20396e-05
11 *466:10 0.00018236

*RES
1 *466:10 *568:B0 3.2
2 *466:8 *466:10 0.367676
3 *466:8 *466:9 0.155957
4 *466:7 *466:9 0.183887
5 *568:A1N *466:7 6.4000001
6 *608:Y *568:A1N 0.671484
7 *466:5 *608:Y 0.223828
8 *466:6 *466:5 3.2
9 *466:4 *466:6 0.367676
10 *587:B0 *466:4 6.4000001
*END

*D_NET *467 0.000828522

*CONN
*I *568:Y O *C 69.63 37.24 *L 0 *D OAI2BB2XL
*I *534:D I *C 66.99 33.88 *L 0.00184 *D DFFRHQX1

*CAP
1 *568:Y 0.000139839
2 *534:D 6.33015e-05
3 *467:2 0.000186499
4 *467:3 0.00028723
5 *467:4 0.000151651

*RES
1 *467:4 *568:Y 3.2
2 *467:3 *467:4 0.77998
3 *467:2 *467:3 0.735449
4 *534:D *467:2 6.4000001
*END

*D_NET *468 0.00137445

*CONN
*I *567:Y O *C 57.75 36.68 *L 0 *D INVXL
*I *538:D I *C 52.47 33.88 *L 0.00184 *D DFFRHQX1

*CAP
1 *567:Y 0.000330482
2 *538:D 6.32988e-05
3 *468:2 0.000272592
4 *468:3 0.00036581
5 *468:4 0.000342271

*RES
1 *468:3 *567:Y 1.79062
2 *468:4 *468:3 3.2
3 *468:2 *468:4 1.24805
4 *538:D *468:2 6.4000001
*END

*D_NET *469 0.00212065

*CONN
*I *566:Y O *C 82.17 114.52 *L 0 *D INVXL
*I *542:D I *C 68.97 114.52 *L 0.00184 *D DFFRHQX1

*CAP
1 *566:Y 0.000139839
2 *542:D 6.33031e-05
3 *469:2 0.00063952
4 *469:3 0.000578539
5 *469:4 0.000120605
6 *469:5 0.000224766
7 *469:6 0.000233471
8 *469:7 0.000120605

*RES
1 *469:7 *566:Y 3.2
2 *469:2 *469:7 3.2
3 *469:3 *469:2 2.57402
4 *469:3 *469:6 0.155957
5 *469:5 *469:6 1.10312
6 *469:4 *469:5 3.2
7 *542:D *469:4 6.4000001
*END

*D_NET *470 0.00179213

*CONN
*I *607:Y O *C 63.03 78.68 *L 0 *D NAND2X1
*I *588:B0 I *C 65.67 78.68 *L 0.00302 *D OAI21XL
*I *565:B0 I *C 59.73 77.56 *L 0.00348 *D OAI2BB2XL
*I *565:A1N I *C 57.75 78.12 *L 0.00224 *D OAI2BB2XL

*CAP
1 *607:Y 0.000219568
2 *588:B0 7.97306e-05
3 *565:B0 0.000139841
4 *565:A1N 6.32995e-05
5 *470:4 8.64692e-05
6 *470:5 0.000126729
7 *470:6 7.31783e-05
8 *470:7 0.000113438
9 *470:8 6.57207e-05
10 *470:9 0.00024412
11 *470:10 0.000115059
12 *470:11 0.000142099
13 *470:12 0.000142099
14 *470:13 0.000115059
15 *470:14 6.57207e-05

*RES
1 *470:13 *588:B0 0.447656
2 *470:14 *470:13 6.4000001
3 *470:12 *470:14 0.183887
4 *607:Y *470:12 3.2
5 *470:10 *607:Y 0.447656
6 *470:11 *470:10 3.2
7 *470:4 *470:11 0.183887
8 *470:5 *470:4 0.312012
9 *470:9 *565:B0 3.2
10 *470:9 *470:5 0.367676
11 *470:7 *470:9 0.367676
12 *470:7 *470:6 0.155957
13 *470:8 *470:6 0.183887
14 *565:A1N *470:8 6.4000001
*END

*D_NET *471 0.00221382

*CONN
*I *565:Y O *C 61.05 77.56 *L 0 *D OAI2BB2XL
*I *532:D I *C 43.89 77 *L 0.00184 *D DFFRHQX1

*CAP
1 *565:Y 6.33013e-05
2 *532:D 6.33013e-05
3 *471:2 0.00095785
4 *471:3 0.00095785
5 *471:4 0.00012061
6 *471:5 5.09216e-05

*RES
1 *471:5 *565:Y 6.4000001
2 *471:2 *471:5 6.4000001
3 *471:3 *471:2 4.78027
4 *471:4 *471:3 3.2
5 *532:D *471:4 6.4000001
*END

*D_NET *472 0.00212165

*CONN
*I *564:Y O *C 125.73 144.76 *L 0 *D INVXL
*I *540:D I *C 112.53 144.76 *L 0.00184 *D DFFRHQX1

*CAP
1 *564:Y 0.000139838
2 *540:D 6.33e-05
3 *472:2 0.000558557
4 *472:3 0.00063557
5 *472:4 0.000120607
6 *472:5 0.00020308
7 *472:6 0.000280103
8 *472:7 0.000120607

*RES
1 *472:7 *564:Y 3.2
2 *472:2 *472:7 3.2
3 *472:3 *472:2 2.57402
4 *472:3 *472:6 0.467969
5 *472:5 *472:6 1.10312
6 *472:4 *472:5 3.2
7 *540:D *472:4 6.4000001
*END

*D_NET *473 0.0020841

*CONN
*I *563:Y O *C 66.33 74.2 *L 0 *D INVXL
*I *537:D I *C 53.13 74.2 *L 0.00184 *D DFFRHQX1

*CAP
1 *563:Y 0.000139838
2 *537:D 6.33068e-05
3 *473:2 0.000120601
4 *473:3 0.000785036
5 *473:4 0.000120601
6 *473:5 0.00085472

*RES
1 *473:4 *563:Y 3.2
2 *473:5 *473:4 3.2
3 *473:3 *473:5 3.67715
4 *473:2 *473:3 3.2
5 *537:D *473:2 6.4000001
*END

*D_NET *474 0.00201782

*CONN
*I *562:Y O *C 99.99 144.76 *L 0 *D INVXL
*I *541:D I *C 86.79 144.76 *L 0.00184 *D DFFRHQX1

*CAP
1 *562:Y 0.000139839
2 *541:D 6.32981e-05
3 *474:2 0.000120595
4 *474:3 0.00054059
5 *474:4 0.000211309
6 *474:5 0.00054929
7 *474:6 0.000120595
8 *474:7 0.000272294

*RES
1 *474:6 *562:Y 3.2
2 *474:7 *474:6 3.2
3 *474:4 *474:7 0.919238
4 *474:4 *474:5 0.155957
5 *474:3 *474:5 2.75781
6 *474:2 *474:3 3.2
7 *541:D *474:2 6.4000001
*END

*D_NET *475 0.00104737

*CONN
*I *561:Y O *C 130.35 124.6 *L 0 *D INVXL
*I *539:D I *C 127.71 127.4 *L 0.00184 *D DFFRHQX1

*CAP
1 *561:Y 0.000162232
2 *539:D 6.33014e-05
3 *475:2 0.000199531
4 *475:3 0.000156532
5 *475:4 0.000232889316
6 *475:5 0.000232889316

*RES
1 *475:5 *539:D 6.4000001
2 *475:4 *475:5 1.09199
3 *475:3 *475:4 3.2
4 *475:2 *475:3 0.189941
5 *475:2 *561:Y 0.895312
*END

*D_NET *476 0.00123526

*CONN
*I *560:Y O *C 135.63 109.48 *L 0 *D OAI21XL
*I *543:A I *C 132.99 107.8 *L 0.0026 *D INVXL

*CAP
1 *560:Y 0.000139842
2 *543:A 0.000139842
3 *476:2 6.02422e-05
4 *476:3 0.00012992
5 *476:4 0.000287572
6 *476:5 0.000120599
7 *476:6 0.00035725

*RES
1 *476:5 *560:Y 3.20000005
2 *476:6 *476:5 3.20000005
3 *476:2 *543:A 3.20000005
4 *476:4 *476:6 0.919287
5 *476:3 *476:2 0.156006
6 *476:3 *476:4 3.20000005
*END

*D_NET *477 0.00273645

*CONN
*I *636:Y O *C 109.23 138.6 *L 0 *D AOI2BB2X1
*I *559:B1 I *C 103.29 138.6 *L 0.00335 *D OAI2BB2XL
*I *559:A0N I *C 101.31 138.04 *L 0.0019 *D OAI2BB2XL

*CAP
1 *636:Y 7.96998e-05
2 *559:B1 0.000139838
3 *559:A0N 0.000139838
4 *477:3 7.20442e-05
5 *477:4 0.000112299
6 *477:5 5.80782e-05
7 *477:6 0.000127753
8 *477:7 0.000710583
9 *477:8 0.00078027
10 *477:9 0.000182367
11 *477:10 0.0001421
12 *477:11 0.00019157

*RES
1 *636:Y *477:11 0.447656
2 *477:5 *477:11 3.20000005
3 *477:10 *559:B1 3.20000005
4 *477:6 *477:5 0.156006
5 *477:3 *477:10 0.183838
6 *477:7 *477:6 3.20000005
7 *477:4 *477:3 0.156006
8 *477:8 *477:7 2.57402
9 *477:9 *477:4 0.367725
10 *477:9 *477:8 3.20000005
11 *559:A0N *477:9 3.20000005
*END

*D_NET *478 0.00209428

*CONN
*I *611:Y O *C 105.93 143.08 *L 0 *D NAND2X1
*I *591:B0 I *C 103.29 143.08 *L 0.00302 *D OAI21XL
*I *559:B0 I *C 103.95 138.04 *L 0.00348 *D OAI2BB2XL
*I *559:A1N I *C 101.97 138.6 *L 0.00224 *D OAI2BB2XL

*CAP
1 *611:Y 6.33006e-05
2 *591:B0 7.97306e-05
3 *559:B0 0.000139841
4 *559:A1N 6.33006e-05
5 *478:4 0.000179492
6 *478:5 0.000268106
7 *478:6 0.000278677
8 *478:7 0.00036364
9 *478:8 9.14774e-05
10 *478:9 0.00011506
11 *478:10 0.000117779
12 *478:11 0.000333876

*RES
1 *478:4 *611:Y 6.4000001
2 *478:9 *591:B0 0.447656
3 *478:10 *559:B0 3.2
4 *478:5 *478:4 0.936035
5 *478:6 *478:9 3.2
6 *478:10 *478:11 0.467969
7 *478:11 *478:5 0.551562
8 *478:7 *478:6 0.936035
9 *478:7 *478:11 0.551562
10 *478:8 *478:7 0.312012
11 *559:A1N *478:8 6.4000001
*END

*D_NET *479 0.00283734

*CONN
*I *559:Y O *C 105.27 138.04 *L 0 *D OAI2BB2XL
*I *535:D I *C 87.45 137.48 *L 0.00184 *D DFFRHQX1

*CAP
1 *559:Y 0.000139841
2 *535:D 6.33051e-05
3 *479:2 0.000430456
4 *479:3 0.000430456
5 *479:4 0.00061376
6 *479:5 0.000622460547
7 *479:6 0.000152274
8 *479:7 0.000143583
9 *479:8 0.000120598
10 *479:9 0.000120598

*RES
1 *479:9 *559:Y 3.2
2 *479:4 *479:9 3.2
3 *479:5 *479:4 2.39014
4 *479:5 *479:2 0.155957
5 *479:3 *479:2 2.02246
6 *479:6 *479:3 0.155957
7 *479:7 *479:6 0.551562
8 *479:8 *479:7 3.2
9 *535:D *479:8 6.4000001
*END

*D_NET *480 0.000961696

*CONN
*I *552:Y O *C 103.29 124.6 *L 0 *D INVXL
*I *527:D I *C 99.99 127.4 *L 0.00184 *D DFFRHQX1

*CAP
1 *552:Y 6.32982e-05
2 *527:D 6.32982e-05
3 *480:2 0.000226761
4 *480:3 0.000219601
5 *480:4 0.00038874

*RES
1 *480:3 *552:Y 6.4000001
2 *480:3 *480:4 0.77998
3 *480:2 *480:4 0.919238
4 *527:D *480:2 6.4000001
*END

*D_NET *481 0.000939171

*CONN
*I *551:Y O *C 79.53 46.76 *L 0 *D INVXL
*I *529:D I *C 77.55 43.96 *L 0.00184 *D DFFRHQX1

*CAP
1 *551:Y 0.000130169
2 *529:D 6.33022e-05
3 *481:2 0.000255257
4 *481:3 0.000165502
5 *481:4 0.00032494

*RES
1 *481:3 *551:Y 0.671484
2 *481:4 *481:3 3.2
3 *481:2 *481:4 1.24805
4 *529:D *481:2 6.4000001
*END

*D_NET *482 0.00130978

*CONN
*I *548:Y O *C 79.53 77 *L 0 *D INVXL
*I *528:D I *C 74.25 74.2 *L 0.00184 *D DFFRHQX1

*CAP
1 *548:Y 0.000139842
2 *528:D 6.3298e-05
3 *482:2 0.0001206
4 *482:3 0.00028956
5 *482:4 0.000203463
6 *482:5 0.00028956
7 *482:6 0.000203463

*RES
1 *482:6 *548:Y 3.2
2 *482:4 *482:6 0.77998
3 *482:5 *482:4 3.2
4 *482:3 *482:5 1.4709
5 *482:2 *482:3 3.2
6 *528:D *482:2 6.4000001
*END

*D_NET *483 0.0019203

*CONN
*I *614:Y O *C 72.93 78.12 *L 0 *D AOI2BB2X1
*I *547:B1 I *C 70.29 73.08 *L 0.00335 *D OAI2BB2XL
*I *547:A0N I *C 68.31 73.64 *L 0.0019 *D OAI2BB2XL

*CAP
1 *614:Y 0.000139839
2 *547:B1 6.33014e-05
3 *547:A0N 0.000139839
4 *483:3 0.000229538945
5 *483:4 0.00020659
6 *483:5 0.000181088
7 *483:6 0.00016471
8 *483:7 7.60892e-05
9 *483:8 0.000149299
10 *483:9 0.000189561
11 *483:10 0.000223171
12 *483:11 0.000157271

*RES
1 *483:11 *614:Y 3.2
2 *483:10 *483:11 0.467969
3 *483:9 *483:10 0.735449
4 *483:8 *483:9 0.155957
5 *483:7 *547:B1 6.4000001
6 *483:3 *483:8 0.551562
7 *483:6 *483:7 0.312012
8 *483:4 *547:A0N 3.2
9 *483:4 *483:3 0.624023
10 *483:5 *483:6 0.551562
11 *483:5 *483:4 0.467969
*END

*D_NET *484 0.00209297

*CONN
*I *596:Y O *C 74.91 78.68 *L 0 *D NAND2X1
*I *572:B0 I *C 77.55 78.68 *L 0.00302 *D OAI21XL
*I *547:B0 I *C 70.95 73.64 *L 0.00348 *D OAI2BB2XL
*I *547:A1N I *C 68.97 73.08 *L 0.00224 *D OAI2BB2XL

*CAP
1 *596:Y 0.000104511
2 *572:B0 7.9729e-05
3 *547:B0 0.00013984
4 *547:A1N 6.33004e-05
5 *484:4 0.000108321
6 *484:5 0.00026936
7 *484:6 0.00029028
8 *484:7 0.00024588
9 *484:8 0.000112298
10 *484:9 7.20396e-05
11 *484:10 6.57188e-05
12 *484:11 0.00015308
13 *484:12 0.000142099
14 *484:13 6.57188e-05
15 *484:14 0.000115062
16 *484:15 6.57188e-05

*RES
1 *484:14 *572:B0 0.447656
2 *484:15 *484:14 6.4000001
3 *484:13 *484:15 0.183887
4 *596:Y *484:13 6.4000001
5 *484:11 *596:Y 0.223828
6 *484:12 *484:11 3.2
7 *484:4 *484:12 0.183887
8 *484:5 *484:4 0.467969
9 *484:6 *484:5 0.919238
10 *484:7 *547:B0 3.2
11 *484:7 *484:6 0.467969
12 *484:8 *484:7 0.367676
13 *484:9 *484:8 0.155957
14 *484:10 *484:9 0.183887
15 *547:A1N *484:10 6.4000001
*END

*D_NET *485 0.00227314

*CONN
*I *547:Y O *C 72.27 73.64 *L 0 *D OAI2BB2XL
*I *523:D I *C 63.69 66.92 *L 0.00184 *D DFFRHQX1

*CAP
1 *547:Y 0.000139838
2 *523:D 6.33042e-05
3 *485:2 0.00032675
4 *485:3 0.00039643
5 *485:4 0.000160659
6 *485:5 0.00015196
7 *485:6 0.000300678
8 *485:7 0.000300678
9 *485:8 0.000151773
10 *485:9 0.000160465
11 *485:10 0.000120602

*RES
1 *485:2 *547:Y 3.2
2 *485:3 *485:2 1.55996
3 *485:8 *485:3 3.2
4 *485:9 *485:8 0.551562
5 *485:6 *485:9 0.155957
6 *485:7 *485:6 1.28701
7 *485:7 *485:4 0.155957
8 *485:5 *485:4 0.551562
9 *485:10 *485:5 3.2
10 *523:D *485:10 6.4000001
*END

*D_NET *486 0.000926992

*CONN
*I *613:Y O *C 134.31 103.32 *L 0 *D AOI2BB2X1
*I *546:B1 I *C 137.61 103.32 *L 0.00335 *D OAI2BB2XL
*I *546:A0N I *C 135.63 103.88 *L 0.0019 *D OAI2BB2XL

*CAP
1 *613:Y 7.97002e-05
2 *546:B1 0.000139841
3 *546:A0N 7.99896e-05
4 *486:3 0.000116999
5 *486:4 0.00018236
6 *486:5 7.28716e-05
7 *486:6 0.000113131
8 *486:7 0.000142101

*RES
1 *486:7 *546:B1 3.20000005
2 *486:5 *486:7 0.183838
3 *486:5 *486:6 0.156006
4 *486:4 *486:6 0.367725
5 *546:A0N *486:4 3.20000005
6 *486:3 *546:A0N 0.189893
7 *613:Y *486:3 0.447656
*END

*D_NET *487 0.00199265

*CONN
*I *604:Y O *C 137.61 108.92 *L 0 *D NAND2X1
*I *560:B0 I *C 135.63 108.92 *L 0.00302 *D OAI21XL
*I *546:B0 I *C 138.27 103.88 *L 0.00348 *D OAI2BB2XL
*I *546:A1N I *C 136.29 103.32 *L 0.00224 *D OAI2BB2XL

*CAP
1 *604:Y 0.0001797
2 *560:B0 0.000139838
3 *546:B0 0.000139838
4 *546:A1N 6.33003e-05
5 *487:4 0.00028435
6 *487:5 0.000211882
7 *487:6 0.00018236
8 *487:7 0.00018236
9 *487:8 9.37377e-05
10 *487:9 0.000151731
11 *487:10 0.00018236
12 *487:11 0.000181188

*RES
1 *487:8 *546:A1N 6.4000001
2 *487:7 *487:8 0.312012
3 *487:7 *487:5 0.551562
4 *487:4 *546:B0 3.2
5 *487:5 *487:4 0.467969
6 *487:4 *487:11 0.936035
7 *604:Y *487:11 3.2
8 *487:9 *604:Y 0.223828
9 *487:10 *487:9 3.2
10 *487:6 *487:10 0.367676
11 *560:B0 *487:6 3.2
*END

*D_NET *488 0.00076893

*CONN
*I *546:Y O *C 139.59 103.88 *L 0 *D OAI2BB2XL
*I *525:D I *C 142.89 104.44 *L 0.00184 *D DFFRHQX1

*CAP
1 *546:Y 8.24006e-05
2 *525:D 6.33e-05
3 *488:2 0.00011773
4 *488:3 0.000120599
5 *488:4 9.73095e-05
6 *488:5 0.000120599
7 *488:6 0.00016699

*RES
1 *488:5 *525:D 6.4000001
2 *488:6 *488:5 3.2
3 *488:4 *488:6 0.551562
4 *488:3 *488:4 3.2
5 *488:2 *488:3 3.2
6 *546:Y *488:2 0.447656
*END

*D_NET *489 0.00234968

*CONN
*I *619:Y O *C 85.47 52.92 *L 0 *D AOI2BB2X1
*I *545:B1 I *C 78.21 52.92 *L 0.00335 *D OAI2BB2XL
*I *545:A0N I *C 76.23 53.48 *L 0.0019 *D OAI2BB2XL

*CAP
1 *619:Y 0.000139834
2 *545:B1 0.000139834
3 *545:A0N 0.000139834
4 *489:3 0.000112303
5 *489:4 7.20378e-05
6 *489:5 6.89448e-05
7 *489:6 0.00013863
8 *489:7 0.000182359
9 *489:8 0.00060689
10 *489:9 0.000142103
11 *489:10 0.00060689

*RES
1 *489:6 *619:Y 3.20000005
2 *489:9 *545:B1 3.20000005
3 *489:6 *489:5 0.156006
4 *489:4 *489:9 0.183838
5 *489:10 *489:5 3.20000005
6 *489:4 *489:3 0.156006
7 *489:8 *489:10 2.57402
8 *489:7 *489:3 0.367725
9 *489:7 *489:8 3.20000005
10 *545:A0N *489:7 3.20000005
*END

*D_NET *490 0.00209157

*CONN
*I *598:Y O *C 84.15 48.44 *L 0 *D NAND2X1
*I *573:B0 I *C 82.17 48.44 *L 0.00302 *D OAI21XL
*I *545:B0 I *C 78.87 53.48 *L 0.00348 *D OAI2BB2XL
*I *545:A1N I *C 76.89 52.92 *L 0.00224 *D OAI2BB2XL

*CAP
1 *598:Y 3.98604e-05
2 *573:B0 0.00015769
3 *545:B0 0.000139841
4 *545:A1N 6.32993e-05
5 *490:4 0.000181242
6 *490:5 9.26188e-05
7 *490:6 0.000218528
8 *490:7 0.0003225
9 *490:8 8.91692e-05
10 *490:9 0.00015769
11 *490:10 0.000182364
12 *490:11 0.000112682
13 *490:12 0.00015173
14 *490:13 0.000182364

*RES
1 *490:12 *598:Y 0.223828
2 *490:13 *490:12 3.2
3 *490:11 *490:13 0.367676
4 *573:B0 *490:11 6.4000001
5 *490:9 *573:B0 0.671484
6 *490:10 *490:9 3.2
7 *490:6 *490:10 0.367676
8 *490:8 *545:B0 3.2
9 *490:5 *545:A1N 6.4000001
10 *490:6 *490:7 0.936035
11 *490:7 *490:8 0.467969
12 *490:4 *490:5 0.312012
13 *490:4 *490:7 0.551562
*END

*D_NET *491 0.0028964

*CONN
*I *545:Y O *C 80.19 53.48 *L 0 *D OAI2BB2XL
*I *526:D I *C 69.63 64.12 *L 0.00184 *D DFFRHQX1

*CAP
1 *545:Y 0.000139844
2 *526:D 6.3303e-05
3 *491:2 0.00038218
4 *491:3 0.000327298
5 *491:4 6.57173e-05
6 *491:5 0.000303779
7 *491:6 0.000146416
8 *491:7 0.000248897
9 *491:8 0.000155117
10 *491:9 0.000288803
11 *491:10 0.00017642
12 *491:11 0.000288803
13 *491:12 0.000167719
14 *491:13 0.000142101

*RES
1 *491:13 *545:Y 3.2
2 *491:3 *491:13 0.183887
3 *491:3 *491:2 1.71602
4 *491:12 *491:2 3.2
5 *491:10 *491:12 0.735449
6 *491:10 *491:11 0.155957
7 *491:9 *491:11 1.28701
8 *491:8 *491:9 0.155957
9 *491:6 *491:8 0.551562
10 *491:5 *491:6 3.2
11 *491:5 *491:7 1.09199
12 *491:4 *491:7 0.183887
13 *526:D *491:4 6.4000001
*END

*D_NET *492 0.00184388

*CONN
*I *620:Y O *C 102.63 118.44 *L 0 *D AOI2BB2X1
*I *544:B1 I *C 99.99 123.48 *L 0.00335 *D OAI2BB2XL
*I *544:A0N I *C 98.01 124.04 *L 0.0019 *D OAI2BB2XL

*CAP
1 *620:Y 0.000139838
2 *544:B1 0.000139838
3 *544:A0N 0.000139838
4 *492:3 0.000182363
5 *492:4 7.31811e-05
6 *492:5 0.00011344
7 *492:6 0.00031673
8 *492:7 0.000272329
9 *492:8 0.000200207
10 *492:9 0.000266109

*RES
1 *492:8 *620:Y 3.20000005
2 *492:8 *492:9 0.624023
3 *492:6 *492:9 0.735449
4 *492:7 *544:B1 3.20000005
5 *492:6 *492:7 0.77998
6 *492:4 *492:7 0.183838
7 *492:4 *492:5 0.156006
8 *492:3 *492:5 0.367725
9 *544:A0N *492:3 3.20000005
*END

*D_NET *493 0.00253284

*CONN
*I *597:Y O *C 107.91 122.92 *L 0 *D NAND2X1
*I *571:B0 I *C 105.93 122.92 *L 0.00302 *D OAI21XL
*I *544:B0 I *C 100.65 124.04 *L 0.00348 *D OAI2BB2XL
*I *544:A1N I *C 98.67 123.48 *L 0.00224 *D OAI2BB2XL

*CAP
1 *597:Y 3.98626e-05
2 *571:B0 0.000132912
3 *544:B0 0.000139838
4 *544:A1N 6.32969e-05
5 *493:4 5.72428e-05
6 *493:5 0.000126918
7 *493:6 0.00028017
8 *493:7 0.000258579
9 *493:8 5.09196e-05
10 *493:9 0.000156989
11 *493:10 0.000326549824
12 *493:11 7.01882e-05
13 *493:12 0.00019166
14 *493:13 0.000244782
15 *493:14 0.000120599
16 *493:15 0.000151732
17 *493:16 0.000120599

*RES
1 *493:15 *597:Y 0.223828
2 *493:13 *571:B0 0.671484
3 *493:16 *493:15 3.2
4 *493:14 *493:13 3.2
5 *493:6 *493:16 3.2
6 *493:7 *493:14 3.2
7 *493:7 *493:6 0.919238
8 *493:4 *544:B0 3.2
9 *493:11 *493:7 0.183887
10 *493:5 *493:4 0.155957
11 *493:11 *493:12 0.155957
12 *493:10 *493:5 3.2
13 *493:10 *493:12 0.735449
14 *493:9 *493:10 0.551562
15 *493:8 *493:9 6.4000001
16 *544:A1N *493:8 6.4000001
*END

*D_NET *494 0.00290253

*CONN
*I *544:Y O *C 101.97 124.04 *L 0 *D OAI2BB2XL
*I *524:D I *C 86.13 127.4 *L 0.00184 *D DFFRHQX1

*CAP
1 *544:Y 0.000139842
2 *524:D 6.32987e-05
3 *494:2 0.000159636
4 *494:3 8.99631e-05
5 *494:4 0.000469267
6 *494:5 0.000477967578
7 *494:6 0.00020174
8 *494:7 0.000146421
9 *494:8 0.00013206
10 *494:9 0.00043361
11 *494:10 0.000155122
12 *494:11 0.00043361

*RES
1 *494:3 *544:Y 3.2
2 *494:3 *494:2 0.312012
3 *494:4 *494:2 3.2
4 *494:5 *494:4 1.83857
5 *494:11 *494:5 0.155957
6 *494:9 *494:11 2.02246
7 *494:9 *494:10 0.155957
8 *494:8 *524:D 6.4000001
9 *494:7 *494:10 0.551562
10 *494:6 *494:8 0.467969
11 *494:6 *494:7 3.2
*END

*D_NET *495 0.00185403

*CONN
*I *543:Y O *C 133.65 107.24 *L 0 *D INVXL
*I *530:D I *C 127.05 114.52 *L 0.00184 *D DFFRHQX1

*CAP
1 *543:Y 0.000139845
2 *530:D 6.32999e-05
3 *495:2 0.000389590234
4 *495:3 0.000389590234
5 *495:4 5.87105e-05
6 *495:5 0.000377142
7 *495:6 0.000315251
8 *495:7 0.000120601

*RES
1 *495:7 *543:Y 3.2
2 *495:2 *495:7 3.2
3 *495:3 *495:2 1.65469
4 *495:5 *495:3 3.2
5 *495:5 *495:6 1.55166
6 *495:4 *495:6 0.151855
7 *530:D *495:4 6.4000001
*END

*D_NET *496 0.00240124

*CONN
*I *972:Y O *C 76.89 36.68 *L 0 *D XNOR2X1
*I *568:B1 I *C 67.65 37.8 *L 0.00335 *D OAI2BB2XL
*I *568:A0N I *C 65.67 37.24 *L 0.0019 *D OAI2BB2XL

*CAP
1 *972:Y 0.000139841
2 *568:B1 6.3297e-05
3 *568:A0N 0.000139841
4 *496:3 0.000184619
5 *496:4 0.000158981
6 *496:5 7.609e-05
7 *496:6 0.000241093
8 *496:7 0.000144518
9 *496:8 0.00028068
10 *496:9 0.000153221
11 *496:10 0.00028068
12 *496:11 0.000181462
13 *496:12 5.7241e-05
14 *496:13 0.00012692
15 *496:14 0.000172759

*RES
1 *496:12 *972:Y 3.2
2 *496:12 *496:13 0.155957
3 *496:14 *496:13 3.2
4 *496:11 *496:14 0.735449
5 *496:10 *496:11 0.155957
6 *496:8 *496:10 1.28701
7 *496:8 *496:9 0.155957
8 *496:5 *568:B1 6.4000001
9 *496:7 *496:9 0.551562
10 *496:5 *496:6 0.312012
11 *496:6 *496:7 3.2
12 *496:3 *496:6 0.551562
13 *496:4 *496:3 0.467969
14 *568:A0N *496:4 3.2
*END

*D_NET *497 0.00184457

*CONN
*I *973:Y O *C 59.07 84.28 *L 0 *D XNOR2X1
*I *565:B1 I *C 59.07 78.12 *L 0.00335 *D OAI2BB2XL
*I *565:A0N I *C 57.09 77.56 *L 0.0019 *D OAI2BB2XL

*CAP
1 *973:Y 0.000139841
2 *565:B1 6.32963e-05
3 *565:A0N 0.000139841
4 *497:3 0.000313781
5 *497:4 0.000409097
6 *497:5 0.000306862
7 *497:6 0.00047186

*RES
1 *497:5 *565:B1 6.4000001
2 *497:5 *497:6 1.24805
3 *497:6 *973:Y 3.2
4 *497:4 *497:6 0.551562
5 *497:3 *497:4 1.404
6 *565:A0N *497:3 3.2
*END

*D_NET *498 0.00238317

*CONN
*I *974:Y O *C 77.55 107.24 *L 0 *D XNOR2X1
*I *574:B1 I *C 70.29 108.36 *L 0.00335 *D OAI2BB2XL
*I *574:A0N I *C 68.31 107.8 *L 0.0019 *D OAI2BB2XL

*CAP
1 *974:Y 0.000139842
2 *574:B1 0.000139842
3 *574:A0N 0.000139842
4 *498:3 0.000282466
5 *498:4 0.000291169668
6 *498:5 0.000182357
7 *498:6 0.000289619
8 *498:7 0.0001123
9 *498:8 7.20382e-05
10 *498:9 0.000142099
11 *498:10 0.000228639
12 *498:11 0.0001206
13 *498:10 *110:9 6.579e-05
14 *498:6 *110:10 6.579e-05
15 *498:3 *110:9 5.539e-05
16 *498:4 *110:10 5.53899973e-05

*RES
1 *498:11 *974:Y 3.20000005
2 *498:3 *498:11 3.20000005
3 *498:9 *574:B1 3.20000005
4 *498:4 *498:3 1.47085
5 *498:8 *498:9 0.183838
6 *498:4 *498:10 0.156006
7 *498:7 *498:8 0.156006
8 *498:6 *498:10 1.10312
9 *498:5 *498:7 0.367725
10 *498:5 *498:6 3.20000005
11 *574:A0N *498:5 3.20000005
*END

*D_NET *499 0.000763692

*CONN
*I *975:Y O *C 118.47 147.56 *L 0 *D XNOR2X1
*I *570:B1 I *C 121.11 148.68 *L 0.00335 *D OAI2BB2XL
*I *570:A0N I *C 119.13 148.12 *L 0.0019 *D OAI2BB2XL

*CAP
1 *975:Y 3.98612e-05
2 *570:B1 0.000139841
3 *570:A0N 7.51896e-05
4 *499:3 0.00018236
5 *499:4 0.000112299
6 *499:5 7.20396e-05
7 *499:6 0.000142101

*RES
1 *499:6 *570:B1 3.20000005
2 *499:5 *499:6 0.183838
3 *499:4 *499:5 0.156006
4 *499:3 *499:4 0.367725
5 *570:A0N *499:3 3.20000005
6 *975:Y *570:A0N 0.223828
*END

*D_NET *500 0.00215836

*CONN
*I *976:Y O *C 85.47 84.28 *L 0 *D XNOR2X1
*I *594:B1 I *C 82.17 88.2 *L 0.00335 *D OAI2BB2XL
*I *594:A0N I *C 80.19 87.64 *L 0.0019 *D OAI2BB2XL

*CAP
1 *976:Y 0.000139842
2 *594:B1 6.33e-05
3 *594:A0N 0.000139842
4 *500:3 0.000208581
5 *500:4 0.000201877
6 *500:5 0.000102219
7 *500:6 6.39369e-05
8 *500:7 0.000113958
9 *500:8 9.91586e-05
10 *500:9 0.00030028
11 *500:10 0.00029294
12 *500:11 7.20425e-05
13 *500:12 0.0001123
14 *500:13 0.000113441
15 *500:14 0.000134641

*RES
1 *500:4 *976:Y 3.2
2 *500:4 *500:3 0.77998
3 *500:14 *500:3 6.4000001
4 *500:14 *500:9 0.467969
5 *500:6 *594:B1 6.4000001
6 *500:10 *500:9 0.919238
7 *500:6 *500:5 0.155957
8 *500:5 *500:10 3.2
9 *500:5 *500:13 0.155957
10 *500:12 *500:13 0.367676
11 *500:11 *500:12 0.155957
12 *500:7 *500:11 0.183887
13 *500:8 *500:7 0.312012
14 *594:A0N *500:8 3.2
*END

*D_NET *501 0.00142582

*CONN
*I *977:Y O *C 51.81 56.84 *L 0 *D XNOR2X1
*I *601:B1 I *C 49.83 52.92 *L 0.00335 *D OAI2BB2XL
*I *601:A0N I *C 47.85 53.48 *L 0.0019 *D OAI2BB2XL

*CAP
1 *977:Y 0.00013984
2 *601:B1 0.00013984
3 *601:A0N 6.33003e-05
4 *501:3 0.000105977
5 *501:4 6.99201e-05
6 *501:5 0.00023187
7 *501:6 0.00020221
8 *501:7 0.000142098
9 *501:8 0.000109037
10 *501:9 0.000109037
11 *501:10 0.000112682

*RES
1 *501:10 *977:Y 3.2
2 *501:9 *501:10 0.367676
3 *501:7 *601:B1 3.2
4 *501:8 *501:9 0.155957
5 *501:4 *501:7 0.183887
6 *501:6 *501:8 0.367676
7 *501:4 *501:5 0.155957
8 *501:5 *501:6 0.77998
9 *501:3 *501:5 0.367676
10 *601:A0N *501:3 6.4000001
*END

*D_NET *502 0.00276249

*CONN
*I *978:Y O *C 124.41 89.32 *L 0 *D NAND3BX1
*I *732:A0 I *C 116.49 83.16 *L 0.00314 *D AOI21XL
*I *723:A0 I *C 116.49 88.76 *L 0.00361 *D OAI221XL

*CAP
1 *978:Y 6.32972e-05
2 *732:A0 0.000139838
3 *723:A0 0.000139838
4 *502:3 0.00049852
5 *502:4 0.000476894
6 *502:5 0.000127477
7 *502:6 5.77974e-05
8 *502:7 0.000429601
9 *502:8 0.000429601
10 *502:9 9.9704e-05
11 *502:10 9.9704e-05
12 *502:11 7.27298e-05
13 *502:12 0.000127477

*RES
1 *502:6 *978:Y 6.4000001
2 *502:6 *502:5 0.155957
3 *502:7 *502:5 3.2
4 *502:8 *502:7 2.20625
5 *502:12 *502:8 3.2
6 *502:11 *502:12 0.155957
7 *502:10 *502:11 0.183887
8 *502:9 *502:10 0.312012
9 *502:3 *723:A0 3.2
10 *502:3 *502:9 0.183887
11 *502:4 *502:3 1.55996
12 *732:A0 *502:4 3.2
*END

*D_NET *503 0.00255042

*CONN
*I *979:Y O *C 123.75 94.36 *L 0 *D NOR2BX1
*I *801:B0 I *C 121.11 93.8 *L 0.00441 *D AOI21X1
*I *782:B0 I *C 121.77 88.2 *L 0.00438 *D AOI31X1

*CAP
1 *979:Y 0.000139839
2 *801:B0 6.3298e-05
3 *782:B0 6.3298e-05
4 *503:3 0.000277267
5 *503:4 0.000207588
6 *503:5 0.000124803
7 *503:6 5.51199e-05
8 *503:7 0.000151558
9 *503:8 0.000151558
10 *503:9 0.000275262
11 *503:10 0.00026091
12 *503:11 0.00029529
13 *503:12 0.00029529
14 *503:13 6.8732e-05
15 *503:14 0.000120599

*RES
1 *503:6 *801:B0 6.4000001
2 *503:14 *979:Y 3.2
3 *503:6 *503:5 0.155957
4 *503:9 *503:14 3.2
5 *503:10 *503:5 3.2
6 *503:10 *503:9 0.735449
7 *503:4 *782:B0 6.4000001
8 *503:13 *503:10 0.183887
9 *503:4 *503:3 0.77998
10 *503:11 *503:13 3.2
11 *503:7 *503:3 3.2
12 *503:12 *503:11 0.936035
13 *503:8 *503:7 0.367676
14 *503:8 *503:12 3.2
*END

*D_NET *504 0.0102336

*CONN
*I *980:Y O *C 126.39 43.96 *L 0 *D NAND2BX1
*I *773:A I *C 127.05 47.32 *L 0.00346 *D INVX1
*I *767:B1 I *C 144.87 42.84 *L 0.00444 *D OAI2BB2X1
*I *767:A1N I *C 146.19 42.84 *L 0.00219 *D OAI2BB2X1
*I *764:A1 I *C 127.71 52.92 *L 0.00347 *D OAI22XL
*I *759:B0 I *C 127.05 37.8 *L 0.00433 *D AOI22X1
*I *730:A1N I *C 129.03 52.36 *L 0.00148 *D OAI2BB1X1
*I *712:A1N I *C 138.93 42.28 *L 0.00155 *D OAI2BB1XL
*I *704:B I *C 131.67 57.96 *L 0.00385 *D NOR2X1
*I *696:A0 I *C 146.85 47.88 *L 0.00314 *D AOI21XL
*I *695:B I *C 123.75 57.96 *L 0.00385 *D NOR2X1

*CAP
1 *980:Y 0.000179701
2 *773:A 0.000139836
3 *767:B1 0.000139836
4 *767:A1N 3.98383e-05
5 *764:A1 0.000139836
6 *759:B0 6.33005e-05
7 *730:A1N 0.000139836
8 *712:A1N 0.000139836
9 *704:B 3.98383e-05
10 *696:A0 0.000139836
11 *695:B 0.000139836
12 *504:11 0.000166347
13 *504:12 9.66728e-05
14 *504:13 0.000284542
15 *504:14 0.000358848
16 *504:15 0.000194903
17 *504:16 0.000281467
18 *504:17 0.000273365
19 *504:18 0.000239425
20 *504:19 5.80617e-05
21 *504:20 9.5472e-05
22 *504:21 0.000368085
23 *504:22 0.00086479
24 *504:23 0.000592177
25 *504:24 0.000195998
26 *504:25 0.000168036
27 *504:26 0.000337827
28 *504:27 0.000267651
29 *504:28 6.99248e-05
30 *504:29 0.000204311
31 *504:30 0.000332074
32 *504:31 0.000519349
33 *504:32 0.000270357
34 *504:33 0.000212796
35 *504:34 0.000212796
36 *504:35 0.000227457
37 *504:36 0.00015777
38 *504:37 0.000156529
39 *504:38 0.000142106
40 *504:39 7.71561e-05
41 *504:40 0.000182617
42 *504:41 0.000117272
43 *504:42 0.000114434
44 *504:43 0.000100315
45 *504:44 0.000169989
46 *504:45 7.51768e-05
47 *504:31 *270:9 1.183e-05
48 *504:32 *270:10 1.183e-05
49 *504:21 *270:11 3.637e-05
50 *504:22 *270:12 3.637e-05
51 *504:21 *270:13 3.753e-05
52 *504:22 *270:14 3.753e-05
53 *504:22 *270:11 5.185e-05
54 *504:23 *270:12 5.185e-05
55 *504:22 *270:15 0.00013257
56 *504:23 *270:7 0.00013257
57 *504:44 *270:16 4.178e-05
58 *504:43 *270:17 4.178e-05
59 *504:29 *270:5 2.622e-05
60 *504:18 *270:6 2.622e-05
61 *504:36 *270:18 8.86e-06
62 *504:35 *270:19 8.86e-06
63 *504:36 *270:19 2.598e-05
64 *504:35 *270:20 2.59800073e-05

*RES
1 *504:17 *759:B0 6.4000001
2 *767:A1N *504:45 0.223828
3 *504:17 *504:16 1.09199
4 *504:15 *504:45 3.2
5 *504:13 *696:A0 3.2
6 *504:16 *504:38 0.183887
7 *504:43 *767:B1 3.2
8 *504:15 *504:14 0.467969
9 *504:14 *504:13 0.936035
10 *504:37 *504:38 3.2
11 *504:34 *712:A1N 3.2
12 *504:43 *504:44 0.467969
13 *504:20 *504:14 3.2
14 *504:37 *504:39 0.189941
15 *504:34 *504:33 0.624023
16 *504:21 *504:44 3.2
17 *504:21 *504:20 0.551562
18 *980:Y *504:39 0.223828
19 *504:22 *504:33 3.2
20 *504:22 *504:21 1.65469
21 *504:23 *504:22 3.30947
22 *504:19 *980:Y 3.2
23 *504:18 *504:23 3.2
24 *504:19 *504:18 0.155957
25 *504:29 *773:A 3.2
26 *504:18 *504:29 0.77998
27 *504:42 *704:B 0.223828
28 *504:29 *504:28 0.155957
29 *504:41 *504:42 0.379785
30 *504:28 *504:27 0.183887
31 *504:40 *730:A1N 3.2
32 *504:11 *504:41 3.2
33 *504:27 *504:26 1.24805
34 *504:26 *504:40 0.367676
35 *504:12 *504:11 0.467969
36 *504:25 *764:A1 3.2
37 *504:26 *504:25 0.155957
38 *504:30 *504:12 3.2
39 *504:25 *504:24 0.624023
40 *504:31 *504:30 0.919238
41 *504:31 *504:24 3.2
42 *504:36 *695:B 3.2
43 *504:32 *504:31 1.10312
44 *504:35 *504:36 0.77998
45 *504:35 *504:32 3.2
*END

