*SPEF "IEEE 1481-1998"
*DESIGN "aer_traditional_latch_paa"
*DATE "Wed Aug 19 23:32:52 2026"
*VENDOR "Cadence Design Systems, Inc."
*PROGRAM "Innovus"
*VERSION "23.14-s088_1"
*DESIGN_FLOW "COUPLING C" "PIN_CAP NONE" "NAME_SCOPE LOCAL"
*DIVIDER /
*DELIMITER :
*BUS_DELIMITER []
*T_UNIT 1 NS
*C_UNIT 1 PF
*R_UNIT 1 OHM
*L_UNIT 1 HENRY

// MMMC spef file for corner 'rc_180nm'

*NAME_MAP

*1 rst_n
*2 src_req[15]
*3 src_req[14]
*4 src_req[13]
*5 src_req[12]
*6 src_req[11]
*7 src_req[10]
*8 src_req[9]
*9 src_req[8]
*10 src_req[7]
*11 src_req[6]
*12 src_req[5]
*13 src_req[4]
*14 src_req[3]
*15 src_req[2]
*16 src_req[1]
*17 src_req[0]
*18 src_ack[15]
*19 src_ack[14]
*20 src_ack[13]
*21 src_ack[12]
*22 src_ack[11]
*23 src_ack[10]
*24 src_ack[9]
*25 src_ack[8]
*26 src_ack[7]
*27 src_ack[6]
*28 src_ack[5]
*29 src_ack[4]
*30 src_ack[3]
*31 src_ack[2]
*32 src_ack[1]
*33 src_ack[0]
*34 aer_addr[3]
*35 aer_addr[2]
*36 aer_addr[1]
*37 aer_addr[0]
*38 aer_req
*39 aer_ack
*40 UNCONNECTED
*41 UNCONNECTED0
*42 UNCONNECTED1
*43 busy_gate
*44 busy_launch_delay
*45 busy_q
*46 capture_delay_1
*47 capture_delay_2
*48 capture_delay_3
*49 capture_delay_4
*50 capture_delay_5
*51 capture_raw
*52 n_0
*53 n_1
*54 n_2
*55 n_3
*56 n_4
*57 n_5
*58 n_6
*59 n_7
*60 n_8
*61 n_9
*62 n_10
*63 n_11
*64 n_12
*65 n_13
*66 n_14
*67 n_15
*68 n_16
*69 n_17
*70 n_18
*71 n_19
*72 n_20
*73 n_21
*74 n_22
*75 n_23
*76 n_24
*77 n_25
*78 n_26
*79 n_27
*80 n_28
*81 n_29
*82 n_30
*83 n_31
*84 n_32
*85 n_33
*86 n_34
*87 n_35
*88 n_36
*89 n_37
*90 n_38
*91 n_39
*92 n_40
*93 n_41
*94 n_42
*95 n_43
*96 n_44
*97 n_45
*98 n_46
*99 n_47
*100 n_48
*101 n_49
*102 n_50
*103 n_51
*104 n_52
*105 n_53
*106 n_54
*107 n_55
*108 n_56
*109 n_57
*110 n_58
*111 n_59
*112 n_60
*113 n_61
*114 n_62
*115 n_63
*116 n_64
*117 n_65
*118 n_66
*119 n_67
*120 n_68
*121 n_69
*122 n_70
*123 n_467_BAR
*124 capture_delay_cell_1
*125 capture_delay_cell_2
*126 capture_delay_cell_3
*127 capture_delay_cell_4
*128 capture_delay_cell_5
*129 request_launch_delay_cell
*130 g1411__2398
*131 g2540__5107
*132 g2541__6260
*133 g2542__4319
*134 g2543__8428
*135 g2544__5526
*136 g2545__6783
*137 g2546__3680
*138 g2547__1617
*139 g2548__2802
*140 g2549__1705
*141 g2550__5122
*142 g2551__8246
*143 g2552__7098
*144 g2553__6131
*145 g2554__1881
*146 g2555__5115
*147 g2556__7482
*148 g2557__4733
*149 g2558__6161
*150 g2559__9315
*151 g2560__9945
*152 g2561__2883
*153 g2562__2346
*154 g2563__1666
*155 g2564__7410
*156 g2565__6417
*157 g2566__5477
*158 g2567__2398
*159 g2568__5107
*160 g2569__6260
*161 g2570__4319
*162 g2571__8428
*163 g2572__5526
*164 g2573__6783
*165 g2574__3680
*166 g2575__1617
*167 g2576__2802
*168 g2577__1705
*169 g2578__5122
*170 g2579__8246
*171 g2580__7098
*172 g2581__6131
*173 g2582__1881
*174 g2583__5115
*175 g2584__7482
*176 g2585__4733
*177 g2586__6161
*178 g2587__9315
*179 g2588__9945
*180 g2589__2883
*181 g2590__2346
*182 g_grant_latch\[0\]\.grant_latch
*183 g2593__1666
*184 g2594__7410
*185 g2595__6417
*186 g2596__5477
*187 g2597__2398
*188 g_grant_latch\[1\]\.grant_latch
*189 g2599__5107
*190 g2600__6260
*191 g2601__4319
*192 g2602__8428
*193 g_grant_latch\[2\]\.grant_latch
*194 g2604__5526
*195 g_grant_latch\[3\]\.grant_latch
*196 g2607__6783
*197 g2608__3680
*198 g2609__1617
*199 g2610__2802
*200 g2611__1705
*201 g2612__5122
*202 g2613__8246
*203 g2614__7098
*204 g2615__6131
*205 g2616__1881
*206 g2617
*207 g2618__5115
*208 g2619__7482
*209 g2620__4733
*210 g2621
*211 g2622__6161
*212 g2623
*213 g2624__9315
*214 g2625__9945
*215 g2626__2883
*216 g2627__2346
*217 g2628__1666
*218 g2629__7410
*219 g2630__6417
*220 g2631__5477
*221 g2632__2398
*222 g2633
*223 busy_latch


*PORTS

*1 I *C 0 0.28
*2 I *C 0 84.84
*3 I *C 0 80.36
*4 I *C 0 75.32
*5 I *C 0 70.28
*6 I *C 0 65.24
*7 I *C 0 60.2
*8 I *C 0 55.16
*9 I *C 0 50.12
*10 I *C 0 45.08
*11 I *C 0 40.04
*12 I *C 0 35
*13 I *C 0 29.96
*14 I *C 0 24.92
*15 I *C 0 19.88
*16 I *C 0 14.84
*17 I *C 0 9.8
*18 O *C 92.4 17.64
*19 O *C 92.4 22.12
*20 O *C 92.4 26.04
*21 O *C 92.4 30.52
*22 O *C 92.4 34.44
*23 O *C 92.4 38.92
*24 O *C 92.4 42.84
*25 O *C 92.4 47.32
*26 O *C 92.4 51.8
*27 O *C 92.4 55.72
*28 O *C 92.4 60.2
*29 O *C 92.4 64.12
*30 O *C 92.4 68.6
*31 O *C 92.4 73.08
*32 O *C 92.4 77
*33 O *C 92.4 81.48
*34 O *C 92.4 0.84
*35 O *C 92.4 4.76
*36 O *C 92.4 9.24
*37 O *C 92.4 13.16
*38 O *C 92.4 85.4
*39 I *C 0 4.76


*D_NET *1 0.0134585

*CONN
*P *1 I *C 0 0.28 *L 0
*I *223:RN I *C 52.47 22.68 *L 0.0039 *D TLATRX1
*I *195:RN I *C 43.89 32.76 *L 0.00399 *D TLATNRX1
*I *193:RN I *C 52.47 32.76 *L 0.00399 *D TLATNRX1
*I *188:RN I *C 35.97 22.68 *L 0.00399 *D TLATNRX1
*I *182:RN I *C 41.25 37.8 *L 0.00399 *D TLATNRX1

*CAP
1 *1 0.00184488
2 *223:RN 6.33007e-05
3 *195:RN 0.000139844
4 *193:RN 0.000139844
5 *188:RN 0.000139844
6 *182:RN 0.000139844
7 *1:6 0.000200547
8 *1:7 0.000160278
9 *1:8 0.000360826
10 *1:9 0.000415679
11 *1:10 0.000630553
12 *1:11 0.000633692
13 *1:12 0.000180713
14 *1:13 0.00187034
15 *1:14 0.000125831
16 *1:15 0.000818829
17 *1:16 0.000914094
18 *1:17 0.000277319
19 *1:18 0.000160992
20 *1:19 0.000328947
21 *1:20 0.000328947
22 *1:21 0.000345757
23 *1:22 0.000142098
24 *1:23 0.000485601
25 *1:24 9.05275e-05
26 *1:25 0.000242301
27 *1:26 0.000242301
28 *1:27 0.000272924
29 *1:28 0.00033651
30 *1:29 0.000103827
31 *1:30 0.000112674
32 *1:31 0.000485601
33 *1:32 0.000145409
34 *1:33 0.000155855
35 *1:34 0.000136704
36 *1:10 *50:5 0.00014266
37 *1:11 *50:4 0.000142659993

*RES
1 *1:22 *182:RN 3.2
2 *1:22 *1:26 0.183828
3 *1:25 *1:26 1.092
4 *1:10 *193:RN 3.2
5 *1:30 *195:RN 3.2
6 *1:25 *1:29 0.183828
7 *1:11 *223:RN 6.4
8 *1:11 *1:10 2.80798
9 *1:28 *1:30 0.367655
10 *1:28 *1:29 0.312065
11 *1:33 *1:11 0.312065
12 *1:27 *1:28 0.936043
13 *1:34 *1:33 3.2
14 *1:6 *1:27 0.367655
15 *1:32 *1:34 0.551635
16 *1:7 *1:6 0.623978
17 *1:31 *1:32 0.155956
18 *1:8 *1:7 0.183828
19 *1:23 *1:31 2.39022
20 *1:9 *1:8 1.56002
21 *1:23 *1:24 0.155956
22 *1:21 *1:9 3.2
23 *1:21 *1:24 0.367655
24 *1:17 *1:21 1.28695
25 *1:18 *188:RN 3.2
26 *1:16 *1:17 3.2
27 *1:16 *1:18 0.312065
28 *1:15 *1:16 3.89998
29 *1:15 *1:20 0.183828
30 *1:19 *1:20 1.56002
31 *1:14 *1:19 0.183828
32 *1:12 *1:14 0.468022
33 *1:13 *1:12 3.2
34 *1 *1:13 9.98121452
*END

*D_NET *2 0.00769857

*CONN
*P *2 I *C 0 84.84 *L 0
*I *218:A I *C 33.33 63.56 *L 0.00317 *D NOR2XL
*I *213:AN I *C 24.09 63.56 *L 0.0022 *D NOR2BXL
*I *165:B I *C 39.93 63.56 *L 0.00375 *D NAND2X1

*CAP
1 *2 0.00123317
2 *218:A 6.33017e-05
3 *213:AN 0.000139836
4 *165:B 0.000322654
5 *2:4 0.000422101
6 *2:5 0.000422101
7 *2:6 0.000423695
8 *2:7 0.000423695
9 *2:8 0.000141065
10 *2:9 0.000133133
11 *2:10 0.000385937
12 *2:11 0.000469001
13 *2:12 0.000148786
14 *2:13 0.000211435
15 *2:14 0.000266324
16 *2:15 0.00125864
17 *2:16 0.000434527
18 *2:17 0.000182357
19 *2:4 *3:17 0.00012158
20 *2:5 *3:9 0.00012158
21 *2:8 *3:16 1.736e-05
22 *2:9 *3:15 1.736e-05
23 *2:10 *3:14 4.059e-05
24 *2:11 *3:13 4.059e-05
25 *2:10 *3:6 2.659e-05
26 *2:11 *3:7 2.659e-05
27 *2:10 *3:7 1.773e-05
28 *2:11 *3:8 1.773e-05
29 *2:11 *3:7 1.736e-05
30 *2:12 *3:8 1.736e-05
31 *2:6 *3:11 6.72e-05
32 *2:7 *3:10 6.71999971e-05

*RES
1 *2:16 *165:B 1.79062
2 *2:17 *2:16 3.19999
3 *2:9 *218:A 6.39997
4 *2:9 *2:17 0.367714
5 *2:9 *2:8 0.312027
6 *2:4 *2:8 3.19999
7 *2:12 *213:AN 3.19999
8 *2:5 *2:4 2.574
9 *2:12 *2:11 0.312027
10 *2:11 *2:5 3.19999
11 *2:11 *2:10 2.02802
12 *2:7 *2:10 0.183857
13 *2:7 *2:6 2.65198
14 *2:6 *2:13 0.183857
15 *2:13 *2:14 0.93598
16 *2:15 *2:14 3.19999
17 *2 *2:15 6.67178583
*END

*D_NET *3 0.00900296

*CONN
*P *3 I *C 0 80.36 *L 0
*I *218:B I *C 32.67 63 *L 0.00274 *D NOR2XL
*I *213:B I *C 25.41 63 *L 0.00302 *D NOR2BXL
*I *167:B I *C 48.51 63.56 *L 0.00375 *D NAND2X1

*CAP
1 *3 0.00130361
2 *218:B 0.000139832
3 *213:B 0.000139832
4 *167:B 0.000159463
5 *3:4 0.000525905
6 *3:5 0.000534605
7 *3:6 8.16276e-05
8 *3:7 0.000237298
9 *3:8 0.000221398
10 *3:9 0.000310692
11 *3:10 0.000358634
12 *3:11 0.000413512
13 *3:12 0.00132906
14 *3:13 0.000296131
15 *3:14 0.000296131
16 *3:15 0.000151432
17 *3:16 0.00020631
18 *3:17 0.000560645
19 *3:18 0.000142103
20 *3:19 0.000272038
21 *3:20 0.000194791
22 *3:21 0.00025553
23 *3:22 0.00025553
24 *3:17 *2:4 0.00012158
25 *3:9 *2:5 0.00012158
26 *3:16 *2:8 1.736e-05
27 *3:15 *2:9 1.736e-05
28 *3:14 *2:10 4.059e-05
29 *3:13 *2:11 4.059e-05
30 *3:6 *2:10 2.659e-05
31 *3:7 *2:11 2.659e-05
32 *3:7 *2:10 1.773e-05
33 *3:8 *2:11 1.773e-05
34 *3:7 *2:11 1.736e-05
35 *3:8 *2:12 1.736e-05
36 *3:11 *2:6 6.72e-05
37 *3:10 *2:7 6.71999971e-05

*RES
1 *3:20 *167:B 0.895298
2 *3:21 *3:20 3.19998
3 *3:21 *3:22 0.780042
4 *3:18 *218:B 3.19998
5 *3:4 *3:22 3.19998
6 *3:15 *3:18 0.183893
7 *3:5 *3:4 2.57397
8 *3:15 *3:16 0.780042
9 *3:19 *3:5 0.155965
10 *3:17 *3:16 3.19998
11 *3:17 *3:19 1.28704
12 *3:8 *213:B 3.19998
13 *3:9 *3:17 1.83861
14 *3:8 *3:7 0.780042
15 *3:7 *3:9 3.19998
16 *3:7 *3:6 0.468004
17 *3:6 *3:13 0.183893
18 *3:13 *3:14 1.55998
19 *3:10 *3:14 0.183893
20 *3:10 *3:11 2.02798
21 *3:12 *3:11 3.19998
22 *3 *3:12 7.03950024
*END

*D_NET *4 0.00720546

*CONN
*P *4 I *C 0 75.32 *L 0
*I *214:A I *C 30.03 63 *L 0.0024 *D OR2X1
*I *205:A1N I *C 21.45 63 *L 0.00223 *D AOI2BB1XL
*I *153:B I *C 38.61 57.4 *L 0.00375 *D NAND2X1

*CAP
1 *4 0.00109724
2 *214:A 0.000139843
3 *205:A1N 0.000139843
4 *153:B 0.000209584
5 *4:4 0.000317734
6 *4:5 0.000387424
7 *4:6 0.000419066
8 *4:7 0.000410363
9 *4:8 0.000460489
10 *4:9 0.000197592
11 *4:10 0.000354687
12 *4:11 0.000336921
13 *4:12 0.000336921
14 *4:13 5.72357e-05
15 *4:14 0.000196804
16 *4:15 0.000135611
17 *4:16 0.000232489
18 *4:17 0.000287378
19 *4:18 0.0011227
20 *4:19 0.000120604
21 *4:20 0.000244909

*RES
1 *4:20 *153:B 1.11914
2 *4:5 *4:20 3.19998
3 *4:5 *4:4 1.56
4 *4:19 *214:A 3.19998
5 *4:10 *4:4 3.19998
6 *4:8 *4:19 3.19998
7 *4:8 *4:10 1.47086
8 *4:9 *4:8 0.735432
9 *4:9 *4:6 0.155982
10 *4:13 *205:A1N 3.19998
11 *4:7 *4:6 1.65474
12 *4:13 *4:14 0.155982
13 *4:14 *4:7 3.19998
14 *4:14 *4:15 0.468035
15 *4:11 *4:15 0.183881
16 *4:11 *4:12 1.71598
17 *4:12 *4:16 0.183881
18 *4:16 *4:17 1.09196
19 *4:18 *4:17 3.19998
20 *4 *4:18 5.93635702
*END

*D_NET *5 0.0104141

*CONN
*P *5 I *C 0 70.28 *L 0
*I *214:B I *C 30.69 62.44 *L 0.00259 *D OR2X1
*I *205:B0 I *C 22.11 62.44 *L 0.00314 *D AOI2BB1XL
*I *163:B I *C 50.49 47.32 *L 0.00375 *D NAND2X1

*CAP
1 *5 0.00116766
2 *214:B 6.33083e-05
3 *205:B0 6.33083e-05
4 *163:B 0.00013984
5 *5:4 0.000234815
6 *5:5 0.000249604
7 *5:6 0.000497767
8 *5:7 0.000434782
9 *5:8 0.000534131
10 *5:9 0.000479249
11 *5:10 6.57193e-05
12 *5:11 0.00162894
13 *5:12 0.0014468
14 *5:13 0.000120601
15 *5:14 0.0010324
16 *5:15 0.00101097
17 *5:16 0.00110209
18 *5:17 0.000142102

*RES
1 *5:17 *163:B 3.2
2 *5:5 *5:17 0.183887
3 *5:5 *5:4 1.09199
4 *5:13 *5:4 3.2
5 *5:14 *5:13 3.2
6 *5:10 *205:B0 6.4000001
7 *5:7 *214:B 6.4000001
8 *5:14 *5:16 5.304
9 *5:10 *5:9 0.183887
10 *5:7 *5:6 2.02803
11 *5:15 *5:16 3.2
12 *5:9 *5:8 2.18398
13 *5:12 *5:6 3.2
14 *5:12 *5:15 5.33184
15 *5:11 *5:8 3.2
16 *5:11 *5:12 2.20625
17 *5 *5:11 6.3041
*END

*D_NET *6 0.00917881

*CONN
*P *6 I *C 0 65.24 *L 0
*I *219:A I *C 28.71 63.56 *L 0.00317 *D NOR2XL
*I *200:A1N I *C 22.11 57.96 *L 0.00223 *D AOI2BB1XL
*I *166:B I *C 41.91 63.56 *L 0.00375 *D NAND2X1

*CAP
1 *6 0.000621486
2 *219:A 6.33061e-05
3 *200:A1N 0.000538862
4 *166:B 0.000139839
5 *6:4 0.000574195
6 *6:5 0.000468434
7 *6:6 0.00050004
8 *6:7 0.000646935
9 *6:8 0.000167416
10 *6:9 0.000152194
11 *6:10 0.000206686
12 *6:11 0.00086595
13 *6:12 0.000184408
14 *6:13 0.00086595
15 *6:14 0.000204691
16 *6:15 0.000281911
17 *6:16 0.000274366
18 *6:17 0.000239324
19 *6:18 0.00061743
20 *6:19 0.000239324
21 *6:20 0.00061743
22 *6:21 0.000254282
23 *6:22 0.000200066
24 *6:23 0.000254282

*RES
1 *6:21 *166:B 3.2
2 *6:21 *6:23 0.77998
3 *6:22 *6:23 3.2
4 *6:19 *6:22 0.671484
5 *6:19 *6:20 0.379785
6 *6:14 *219:A 6.4000001
7 *6:18 *6:20 3.13359
8 *6:14 *6:16 0.77998
9 *6:17 *6:18 0.379785
10 *6:15 *6:16 3.2
11 *6:15 *6:17 0.671484
12 *6:12 *6:15 0.447656
13 *6:12 *6:13 0.379785
14 *6:11 *6:13 4.47656
15 *6:10 *6:11 0.379785
16 *6:4 *200:A1N 3.35742
17 *6:8 *6:10 0.671484
18 *6:5 *6:4 3.2
19 *6:9 *6:8 3.2
20 *6:5 *6:6 2.02803
21 *6:6 *6:9 0.312012
22 *6:7 *6:6 3.2
23 *6 *6:7 3.3624
*END

*D_NET *7 0.007641

*CONN
*P *7 I *C 0 60.2 *L 0
*I *219:B I *C 28.05 63 *L 0.00274 *D NOR2XL
*I *200:B0 I *C 22.77 58.52 *L 0.00314 *D AOI2BB1XL
*I *168:B I *C 50.49 63.56 *L 0.00375 *D NAND2X1

*CAP
1 *7 0.000793842
2 *219:B 0.000139845
3 *200:B0 6.33053e-05
4 *168:B 0.000139845
5 *7:4 0.000130176
6 *7:5 6.05031e-05
7 *7:6 0.000351508
8 *7:7 0.000250222
9 *7:8 0.000391896
10 *7:9 0.000710527
11 *7:10 0.000145463
12 *7:11 0.000154159
13 *7:12 0.000649077
14 *7:13 0.000649077
15 *7:14 0.000444584
16 *7:15 0.00086216
17 *7:16 0.000143582
18 *7:17 8.25258e-05
19 *7:18 0.000335997
20 *7:19 0.000152277
21 *7:20 0.000335997
22 *7:21 0.000102115
23 *7:22 0.00013628
24 *7:23 0.00013628
25 *7:24 0.000102115
26 *7:25 0.000123664
27 *7:26 5.39779e-05

*RES
1 *7:26 *168:B 3.2
2 *7:25 *7:26 0.155957
3 *7:10 *7:25 3.2
4 *7:11 *7:10 0.551562
5 *7:12 *7:11 0.155957
6 *7:13 *7:12 2.9417
7 *7:13 *7:24 0.155957
8 *7:23 *7:24 0.367676
9 *7:22 *7:23 0.312012
10 *7:21 *7:22 0.367676
11 *7:20 *7:21 0.155957
12 *7:18 *7:20 1.4709
13 *7:18 *7:19 0.155957
14 *7:16 *7:19 0.551562
15 *7:17 *219:B 3.2
16 *7:6 *7:16 3.2
17 *7:6 *7:17 0.312012
18 *7:5 *200:B0 6.4000001
19 *7:7 *7:6 0.77998
20 *7:5 *7:4 0.155957
21 *7:8 *7:7 3.2
22 *7:9 *7:4 3.2
23 *7:9 *7:8 1.4709
24 *7:14 *7:9 2.02246
25 *7:14 *7:15 0.312012
26 *7 *7:15 4.28164
*END

*D_NET *8 0.0065929

*CONN
*P *8 I *C 0 55.16 *L 0
*I *216:A I *C 25.41 53.48 *L 0.00317 *D NOR2XL
*I *196:A1N I *C 22.11 52.92 *L 0.00223 *D AOI2BB1XL
*I *151:B I *C 42.57 57.4 *L 0.00375 *D NAND2X1

*CAP
1 *8 0.000519539
2 *216:A 6.32981e-05
3 *196:A1N 0.000783257
4 *151:B 0.000139835
5 *8:4 0.000192211
6 *8:5 7.14223e-05
7 *8:6 0.000925946016
8 *8:7 0.000925946016
9 *8:8 0.000207923
10 *8:9 0.000280532
11 *8:10 0.000706706
12 *8:11 0.000209265
13 *8:12 0.000209265
14 *8:13 0.000544999
15 *8:14 0.00014211
16 *8:15 0.000190841
17 *8:16 0.000190841
18 *8:6 *56:5 6.242e-05
19 *8:7 *56:6 6.242e-05
20 *8:6 *56:6 8.207e-05
21 *8:7 *56:7 8.20700063e-05

*RES
1 *8:16 *151:B 3.2
2 *8:15 *8:16 0.312012
3 *8:6 *8:15 3.2
4 *8:7 *8:6 4.78027
5 *8:8 *8:7 3.2
6 *8:9 *216:A 6.4000001
7 *8:9 *8:8 0.77998
8 *8:4 *8:9 0.735449
9 *8:5 *8:4 0.155957
10 *8:14 *8:5 0.183887
11 *196:A1N *8:14 3.2
12 *8:10 *196:A1N 4.02891
13 *8:11 *8:10 3.2
14 *8:11 *8:12 0.624023
15 *8:13 *8:12 3.2
16 *8 *8:13 2.81074
*END

*D_NET *9 0.0071976

*CONN
*P *9 I *C 0 50.12 *L 0
*I *216:B I *C 24.75 52.92 *L 0.00274 *D NOR2XL
*I *196:B0 I *C 22.77 52.36 *L 0.00314 *D AOI2BB1XL
*I *154:B I *C 51.81 53.48 *L 0.00375 *D NAND2X1

*CAP
1 *9 0.000791401
2 *216:B 6.3292e-05
3 *196:B0 6.3292e-05
4 *154:B 0.000119592
5 *9:4 9.30139e-05
6 *9:5 0.000141179
7 *9:6 0.000139067
8 *9:7 0.000139067
9 *9:8 0.000433439
10 *9:9 0.000433439
11 *9:10 0.000991007
12 *9:11 0.00102517141
13 *9:12 0.000859714
14 *9:13 0.000442153
15 *9:14 0.000583691
16 *9:15 6.87828e-05
17 *9:16 0.000109048
18 *9:17 0.000105982
19 *9:18 0.000240685
20 *9:19 0.000104167
21 *9:20 9.54699e-05
22 *9:21 0.000154914

*RES
1 *9:21 *154:B 0.671484
2 *9:6 *9:21 3.2
3 *9:7 *9:6 0.312012
4 *9:20 *9:7 3.2
5 *9:19 *9:20 0.551562
6 *9:17 *216:B 6.4000001
7 *9:8 *9:19 0.155957
8 *9:16 *9:17 0.367676
9 *9:9 *9:8 1.83857
10 *9:15 *9:16 0.155957
11 *9:9 *9:10 0.155957
12 *9:4 *196:B0 6.4000001
13 *9:4 *9:15 0.183887
14 *9:11 *9:10 4.22871
15 *9:5 *9:4 0.312012
16 *9:18 *9:11 0.312012
17 *9:14 *9:5 3.2
18 *9:14 *9:18 0.919238
19 *9:13 *9:14 2.02246
20 *9:12 *9:13 0.312012
21 *9 *9:12 4.28164
*END

*D_NET *10 0.00658538

*CONN
*P *10 I *C 0 45.08 *L 0
*I *220:A I *C 26.73 43.4 *L 0.00317 *D NOR2XL
*I *189:A1N I *C 23.43 47.88 *L 0.00223 *D AOI2BB1XL
*I *169:B I *C 35.31 43.4 *L 0.00375 *D NAND2X1

*CAP
1 *10 0.000621489
2 *220:A 6.32908e-05
3 *189:A1N 0.000681833
4 *169:B 0.000412841
5 *10:4 0.000111821
6 *10:5 0.000760499375
7 *10:6 0.000739101
8 *10:7 0.000237787
9 *10:8 0.000692973
10 *10:9 0.000717157
11 *10:10 0.000237787
12 *10:11 0.000136457
13 *10:12 0.000120605
14 *10:13 0.000448165
15 *10:14 0.000120605
16 *10:4 *11:14 3.79e-05
17 *10:5 *11:12 3.79e-05
18 *10:5 *11:14 1.263e-05
19 *10:6 *11:12 1.263e-05
20 *10:5 *11:12 8.247e-05
21 *10:6 *11:13 8.247e-05
22 *10:5 *11:13 0.00010848
23 *10:6 *11:16 0.000108480002

*RES
1 *10:13 *169:B 2.23828
2 *10:14 *10:13 3.2
3 *10:12 *220:A 6.4000001
4 *10:4 *10:14 3.2
5 *10:9 *189:A1N 3.80508
6 *10:5 *10:12 3.2
7 *10:5 *10:4 0.551562
8 *10:10 *10:9 3.2
9 *10:6 *10:5 3.86104
10 *10:7 *10:10 0.77998
11 *10:6 *10:11 0.467969
12 *10:8 *10:7 3.2
13 *10:8 *10:11 0.183887
14 *10 *10:8 3.3624
*END

*D_NET *11 0.00695966

*CONN
*P *11 I *C 0 40.04 *L 0
*I *220:B I *C 26.07 42.84 *L 0.00274 *D NOR2XL
*I *189:B0 I *C 24.09 48.44 *L 0.00314 *D AOI2BB1XL
*I *170:B I *C 35.97 47.32 *L 0.00375 *D NAND2X1

*CAP
1 *11 0.000799394
2 *220:B 0.000139831
3 *189:B0 6.33025e-05
4 *170:B 7.9728e-05
5 *11:4 0.000130276
6 *11:5 0.000259152
7 *11:6 0.000489337
8 *11:7 0.00042345
9 *11:8 6.0046e-05
10 *11:9 0.000129733
11 *11:10 0.000357933
12 *11:11 0.000357933
13 *11:12 0.000728521
14 *11:13 0.00051509
15 *11:14 0.00049705
16 *11:15 0.00093604
17 *11:16 0.000394812
18 *11:17 0.000115064
19 *11:14 *10:4 3.79e-05
20 *11:12 *10:5 3.79e-05
21 *11:14 *10:5 1.263e-05
22 *11:12 *10:6 1.263e-05
23 *11:12 *10:5 8.247e-05
24 *11:13 *10:6 8.247e-05
25 *11:13 *10:5 0.00010848
26 *11:16 *10:6 0.000108480002

*RES
1 *11:17 *170:B 0.447656
2 *11:4 *189:B0 6.4000001
3 *11:10 *11:17 3.2
4 *11:5 *11:4 0.467969
5 *11:8 *220:B 3.2
6 *11:11 *11:10 1.404
7 *11:6 *11:5 0.735449
8 *11:9 *11:8 0.155957
9 *11:14 *11:11 3.2
10 *11:7 *11:6 1.24805
11 *11:12 *11:9 3.2
12 *11:12 *11:14 2.39014
13 *11:13 *11:7 3.2
14 *11:13 *11:12 1.28701
15 *11:16 *11:13 1.65469
16 *11:15 *11:16 0.624023
17 *11 *11:15 4.28164
*END

*D_NET *12 0.00977242

*CONN
*P *12 I *C 0 35 *L 0
*I *221:A I *C 24.09 37.24 *L 0.00317 *D NOR2XL
*I *185:A1N I *C 23.43 42.84 *L 0.00223 *D AOI2BB1XL
*I *162:B I *C 52.47 47.32 *L 0.00375 *D NAND2X1

*CAP
1 *12 0.00065792
2 *221:A 6.33005e-05
3 *185:A1N 0.000258088
4 *162:B 0.000139841
5 *12:4 0.000201383
6 *12:5 0.000131693
7 *12:6 0.000364551
8 *12:7 0.000701604
9 *12:8 0.000351238
10 *12:9 0.000670748
11 *12:10 0.000589321
12 *12:11 0.000546462
13 *12:12 0.000440109
14 *12:13 0.000353869
15 *12:14 0.000353869
16 *12:15 0.000716953
17 *12:16 0.000751119
18 *12:17 0.000365872
19 *12:18 0.000374577
20 *12:19 0.00079456
21 *12:20 0.000531319
22 *12:21 0.000293418
23 *12:22 0.0001206

*RES
1 *12:5 *162:B 3.2
2 *12:5 *12:4 0.467969
3 *12:17 *12:4 3.2
4 *12:18 *12:17 1.65469
5 *12:18 *12:13 0.155957
6 *12:14 *12:13 1.4709
7 *12:15 *12:14 0.155957
8 *12:16 *12:15 3.30947
9 *12:10 *12:16 0.312012
10 *12:11 *12:10 2.75781
11 *12:21 *185:A1N 1.34297
12 *12:8 *12:11 3.2
13 *12:9 *12:21 3.2
14 *12:9 *12:8 1.404
15 *12:22 *221:A 6.4000001
16 *12:12 *12:9 1.55996
17 *12:6 *12:22 3.2
18 *12:7 *12:12 3.2
19 *12:7 *12:6 1.28701
20 *12:20 *12:7 1.83857
21 *12:19 *12:20 0.624023
22 *12 *12:19 3.54619
*END

*D_NET *13 0.00862191

*CONN
*P *13 I *C 0 29.96 *L 0
*I *221:B I *C 23.43 37.8 *L 0.00274 *D NOR2XL
*I *185:B0 I *C 24.09 42.28 *L 0.00314 *D AOI2BB1XL
*I *161:B I *C 51.15 43.4 *L 0.00375 *D NAND2X1

*CAP
1 *13 7.77504e-05
2 *221:B 0.00133282
3 *185:B0 6.33107e-05
4 *161:B 6.33107e-05
5 *13:4 9.46509e-05
6 *13:5 0.00022477
7 *13:6 0.000158307
8 *13:7 0.000112934
9 *13:8 0.000167805
10 *13:9 0.000165385
11 *13:10 0.00022837
12 *13:11 0.000355805
13 *13:12 0.00036453
14 *13:13 0.000185905
15 *13:14 0.000185905
16 *13:15 0.000602255
17 *13:16 0.000602255
18 *13:17 0.00051757
19 *13:18 0.000103193
20 *13:19 0.00133282
21 *13:20 0.00051757
22 *13:21 0.000176855
23 *13:22 0.000115883
24 *13:23 0.000435976
25 *13:24 0.000435976

*RES
1 *13:9 *161:B 6.39998
2 *13:10 *13:9 0.62405
3 *13:11 *13:10 3.20004
4 *13:12 *13:11 1.65474
5 *13:12 *13:24 0.155984
6 *13:23 *13:24 1.83856
7 *13:13 *13:23 0.155984
8 *13:14 *13:13 0.919338
9 *13:15 *13:14 0.155984
10 *13:16 *13:15 2.7579
11 *13:16 *13:22 0.155984
12 *13:21 *13:22 0.367758
13 *13:4 *185:B0 6.39998
14 *13:5 *13:21 3.20004
15 *13:5 *13:4 0.311969
16 *13:6 *13:5 0.467953
17 *13:7 *13:6 0.183822
18 *13:8 *13:7 0.467953
19 *221:B *13:8 3.20004
20 *13:19 *221:B 7.38626099
21 *13:20 *13:19 3.20004
22 *13:17 *13:20 2.18401
23 *13:18 *13:17 3.20004
24 *13 *13:18 0.420617
*END

*D_NET *14 0.00910523

*CONN
*P *14 I *C 0 24.92 *L 0
*I *215:A I *C 23.43 23.24 *L 0.00317 *D NOR2XL
*I *184:A1N I *C 27.39 37.8 *L 0.00223 *D AOI2BB1XL
*I *171:B I *C 37.29 43.4 *L 0.00375 *D NAND2X1

*CAP
1 *14 0.000655462
2 *215:A 6.32896e-05
3 *184:A1N 0.000121453
4 *171:B 6.32896e-05
5 *14:4 0.0001406
6 *14:5 7.09075e-05
7 *14:6 0.00134928
8 *14:7 0.000955418
9 *14:8 0.000196046
10 *14:9 0.000182663
11 *14:10 0.000638723
12 *14:11 0.000478152
13 *14:12 0.000444798
14 *14:13 0.000386697
15 *14:14 0.000347434
16 *14:15 0.000979157
17 *14:16 0.00104883
18 *14:17 0.000178195
19 *14:18 0.000115214
20 *14:19 0.000689618

*RES
1 *14:18 *171:B 6.4000001
2 *14:18 *14:17 0.467969
3 *14:8 *184:A1N 0.671484
4 *14:15 *14:17 3.2
5 *14:8 *14:13 0.379785
6 *14:16 *14:15 4.59639
7 *14:14 *14:13 1.5668
8 *14:12 *14:16 3.2
9 *14:5 *215:A 6.4000001
10 *14:6 *14:14 3.2
11 *14:6 *14:12 1.71602
12 *14:5 *14:4 0.312012
13 *14:7 *14:6 4.05596
14 *14:9 *14:4 3.2
15 *14:10 *14:7 3.2
16 *14:10 *14:9 0.735449
17 *14:11 *14:10 2.20625
18 *14:11 *14:19 0.155957
19 *14 *14:19 3.54619
*END

*D_NET *15 0.0105848

*CONN
*P *15 I *C 0 19.88 *L 0
*I *215:B I *C 22.77 22.68 *L 0.00274 *D NOR2XL
*I *184:B0 I *C 28.05 38.36 *L 0.00314 *D AOI2BB1XL
*I *164:B I *C 35.97 53.48 *L 0.00375 *D NAND2X1

*CAP
1 *15 7.77409e-05
2 *215:B 0.0005759
3 *184:B0 6.32953e-05
4 *164:B 0.000159462
5 *15:4 0.00021603
6 *15:5 0.000405748
7 *15:6 0.000211825
8 *15:7 0.000305825
9 *15:8 0.000305825
10 *15:9 0.000490908
11 *15:10 0.000482218
12 *15:11 0.000140775
13 *15:12 0.000140775
14 *15:13 0.000158715
15 *15:14 0.000158715
16 *15:15 0.000237783
17 *15:16 0.000103194
18 *15:17 0.000676776
19 *15:18 0.000237783
20 *15:19 0.0012247
21 *15:20 0.000990599
22 *15:21 0.000990599
23 *15:22 0.000120592
24 *15:23 0.000957148
25 *15:24 0.000957148
26 *15:25 0.000194782

*RES
1 *15:25 *164:B 0.895312
2 *15:14 *15:25 3.2
3 *15:14 *15:13 0.312012
4 *15:11 *15:13 3.2
5 *15:12 *15:11 0.551562
6 *15:24 *15:12 3.2
7 *15:23 *15:24 4.52402
8 *15:22 *184:B0 6.4000001
9 *15:4 *15:23 3.2
10 *15:5 *15:22 3.2
11 *15:5 *15:4 0.919238
12 *15:6 *15:5 0.919238
13 *15:6 *15:7 0.155957
14 *15:8 *15:7 1.28701
15 *15:9 *15:8 0.155957
16 *15:10 *15:9 2.02246
17 *15:21 *15:10 3.2
18 *15:20 *15:21 4.36797
19 *15:19 *15:20 3.2
20 *15:19 *215:B 3.35742
21 *15:17 *15:19 3.80508
22 *15:18 *15:17 3.2
23 *15:15 *15:18 0.77998
24 *15:16 *15:15 3.2
25 *15 *15:16 0.420605
*END

*D_NET *16 0.0119913

*CONN
*P *16 I *C 0 14.84 *L 0
*I *208:B I *C 24.75 27.16 *L 0.00325 *D NOR3XL
*I *191:C0 I *C 27.39 22.68 *L 0.00317 *D AOI211XL
*I *183:A1N I *C 33.99 37.8 *L 0.00223 *D AOI2BB1XL
*I *152:B I *C 54.45 47.32 *L 0.00375 *D NAND2X1

*CAP
1 *16 0.00140554
2 *208:B 0.000139836
3 *191:C0 6.33016e-05
4 *183:A1N 8.05954e-05
5 *152:B 6.33016e-05
6 *16:5 0.000117891
7 *16:6 0.000429922
8 *16:7 0.000782001
9 *16:8 0.000648039
10 *16:9 0.000658607
11 *16:10 7.25162e-05
12 *16:11 0.000554298
13 *16:12 0.000547595
14 *16:13 0.000717847
15 *16:14 0.00065686
16 *16:15 0.000265762
17 *16:16 0.000265762
18 *16:17 0.000318691
19 *16:18 0.000318691
20 *16:19 0.000155688
21 *16:20 0.000216675
22 *16:21 0.000120598
23 *16:22 0.000249232
24 *16:23 0.00050484
25 *16:24 0.001431
26 *16:25 0.000463484
27 *16:26 0.000297314
28 *16:27 7.9984e-05
29 *16:10 *71:3 4.071e-05
30 *16:8 *71:4 4.071e-05
31 *16:8 *71:3 0.00010053
32 *16:9 *71:4 0.00010053
33 *16:8 *71:4 4.151e-05
34 *16:9 *71:5 4.15099966e-05

*RES
1 *16:11 *152:B 6.39999
2 *16:12 *16:11 2.34001
3 *16:13 *16:12 3.20005
4 *16:14 *16:13 2.94175
5 *16:17 *16:14 0.156024
6 *16:18 *16:17 1.47082
7 *16:18 *16:15 0.156024
8 *16:16 *16:15 1.10317
9 *16:19 *16:16 0.156024
10 *16:5 *183:A1N 0.447685
11 *16:20 *16:19 0.551585
12 *16:27 *16:5 0.189962
13 *16:10 *16:20 3.20005
14 *16:8 *16:27 3.20005
15 *16:8 *16:10 0.312048
16 *16:21 *208:B 3.20005
17 *16:9 *16:8 2.80796
18 *16:22 *16:21 3.20005
19 *16:26 *16:9 3.20005
20 *16:22 *16:25 0.735408
21 *16:25 *16:26 1.47082
22 *16:6 *16:25 3.20005
23 *16:7 *191:C0 6.39999
24 *16:7 *16:6 1.24796
25 *16:23 *16:7 2.18399
26 *16:24 *16:23 3.20005
27 *16 *16:24 7.59107161
*END

*D_NET *17 0.012069

*CONN
*P *17 I *C 0 9.8 *L 0
*I *208:C I *C 24.09 27.72 *L 0.00312 *D NOR3XL
*I *191:B0 I *C 28.05 23.24 *L 0.00352 *D AOI211XL
*I *183:B0 I *C 34.65 38.36 *L 0.00314 *D AOI2BB1XL
*I *155:B I *C 53.13 37.24 *L 0.00375 *D NAND2X1

*CAP
1 *17 0.000995296
2 *208:C 0.000294932
3 *191:B0 6.33079e-05
4 *183:B0 6.33079e-05
5 *155:B 0.000139842
6 *17:5 0.000330271
7 *17:6 0.000120807
8 *17:7 0.000190492
9 *17:8 0.000381457
10 *17:9 0.000338605
11 *17:10 0.000513692
12 *17:11 0.00103098
13 *17:12 0.000582256
14 *17:13 0.000404943
15 *17:14 0.000404943
16 *17:15 0.000830042
17 *17:16 0.00102076
18 *17:17 0.00103437633
19 *17:18 0.000516581
20 *17:19 0.000770175
21 *17:20 0.000565841
22 *17:21 0.000120602
23 *17:22 0.000586249
24 *17:23 0.000143299
25 *17:24 0.000124801
26 *17:25 0.000134587
27 *17:26 0.000124801
28 *17:10 *77:8 0.00010628
29 *17:11 *77:6 0.00010628
30 *17:11 *77:8 1.463e-05
31 *17:12 *77:6 1.46299997e-05

*RES
1 *17:26 *155:B 3.2
2 *17:24 *17:26 0.155957
3 *17:25 *17:24 3.2
4 *17:23 *17:25 0.551562
5 *17:23 *17:13 0.155957
6 *17:6 *183:B0 6.4000001
7 *17:14 *17:13 1.65469
8 *17:7 *17:6 0.467969
9 *17:10 *17:14 0.155957
10 *17:11 *17:7 3.2
11 *17:11 *17:10 2.9417
12 *17:12 *17:11 2.57402
13 *17:8 *17:12 0.312012
14 *17:21 *191:B0 6.4000001
15 *17:9 *17:8 1.65469
16 *17:22 *17:21 3.2
17 *17:5 *208:C 1.5668
18 *17:20 *17:9 3.2
19 *17:18 *17:22 2.39014
20 *17:19 *17:5 3.2
21 *17:19 *17:20 2.18398
22 *17:17 *17:18 3.2
23 *17:17 *17:19 1.24805
24 *17:15 *17:17 3.74404
25 *17:16 *17:15 3.2
26 *17 *17:16 5.38477
*END

*D_NET *18 0.00292863

*CONN
*P *18 O *C 92.4 17.64 *L 0
*I *148:Y O *C 70.95 22.68 *L 0 *D NOR2XL

*CAP
1 *18 0.00102928
2 *148:Y 6.97688e-05
3 *18:2 0.000334874
4 *18:3 0.00105474
5 *18:4 0.000105096
6 *18:5 0.000334874

*RES
1 *18:3 *18 5.56864309
2 *18:2 *18:3 3.2
3 *18:2 *18:5 1.24797
4 *18:4 *18:5 3.2
5 *148:Y *18:4 0.447626
*END

*D_NET *19 0.00280092

*CONN
*P *19 O *C 92.4 22.12 *L 0
*I *150:Y O *C 68.97 22.68 *L 0 *D NOR2XL

*CAP
1 *19 0.00122268
2 *150:Y 0.000139834
3 *19:2 0.000120611
4 *19:3 0.00131781

*RES
1 *19:3 *19 6.48792839
2 *19:2 *19:3 3.20001
3 *150:Y *19:2 3.20001
*END

*D_NET *20 0.00372745

*CONN
*P *20 O *C 92.4 26.04 *L 0
*I *141:Y O *C 68.97 32.76 *L 0 *D NOR2XL

*CAP
1 *20 7.77277e-05
2 *141:Y 0.00131654
3 *20:2 0.000439034
4 *20:3 0.000103204
5 *20:4 0.00135188
6 *20:5 0.000439034

*RES
1 *20:3 *20 0.420617
2 *20:2 *20:3 3.20004
3 *20:2 *20:5 1.71605
4 *20:4 *20:5 3.20004
5 *141:Y *20:4 7.38626099
*END

*D_NET *21 0.00377409

*CONN
*P *21 O *C 92.4 30.52 *L 0
*I *145:Y O *C 68.97 37.8 *L 0 *D NOR2XL

*CAP
1 *21 0.000145722
2 *145:Y 8.24025e-05
3 *21:2 0.000435569
4 *21:3 0.000435569
5 *21:4 0.000119702
6 *21:5 0.000588503
7 *21:6 0.00060446
8 *21:7 0.000588503
9 *21:8 0.000171178
10 *21:9 0.000602486

*RES
1 *21:8 *21 0.788374
2 *21:3 *21:8 3.20001
3 *21:3 *21:2 1.71599
4 *21:9 *21:2 3.20001
5 *21:6 *21:9 3.35739136
6 *21:6 *21:7 0.189909
7 *21:5 *21:7 3.13357
8 *21:4 *21:5 0.189909
9 *145:Y *21:4 0.447645
*END

*D_NET *22 0.00407175

*CONN
*P *22 O *C 92.4 34.44 *L 0
*I *156:Y O *C 67.65 42.84 *L 0 *D NOR2XL

*CAP
1 *22 0.000247663
2 *156:Y 4.17139e-05
3 *22:2 0.000496412
4 *22:3 0.000496412
5 *22:4 0.000167527
6 *22:5 7.90178e-05
7 *22:6 0.000167527
8 *22:7 0.000354068
9 *22:8 0.00069809
10 *22:9 0.000354068
11 *22:10 0.000273122
12 *22:11 0.000696119

*RES
1 *22:10 *22 1.33992
2 *22:3 *22:10 3.2
3 *22:3 *22:2 2.02799
4 *22:11 *22:2 3.2
5 *22:8 *22:11 3.80504346
6 *22:8 *22:9 0.189915
7 *22:7 *22:9 1.79058
8 *22:6 *22:7 0.189915
9 *22:4 *22:6 0.895291
10 *22:4 *22:5 0.189915
11 *156:Y *22:5 0.223823
*END

*D_NET *23 0.00526717

*CONN
*P *23 O *C 92.4 38.92 *L 0
*I *149:Y O *C 68.31 57.96 *L 0 *D NOR2XL

*CAP
1 *23 0.000315647
2 *149:Y 8.24012e-05
3 *23:2 0.000135616
4 *23:3 0.000190483
5 *23:4 0.00073652
6 *23:5 0.00073652
7 *23:6 0.000119702
8 *23:7 0.00062836
9 *23:8 0.000425964
10 *23:9 0.00062836
11 *23:10 0.000341102
12 *23:11 0.000109025
13 *23:12 0.000423986
14 *23:13 0.000163892
15 *23:13 *29:3 2.659e-05
16 *23:11 *29:4 2.659e-05
17 *23:4 *29:3 8.821e-05
18 *23:5 *29:4 8.8210001e-05

*RES
1 *23:10 *23 1.70766
2 *23:3 *23:10 3.2
3 *23:3 *23:2 0.46801
4 *23:5 *23:2 0.183874
5 *23:5 *23:4 4.05600023
6 *23:4 *23:11 0.183874
7 *23:11 *23:13 0.46801
8 *23:12 *23:13 3.2
9 *23:8 *23:12 2.23824
10 *23:8 *23:9 0.189939
11 *23:7 *23:9 3.35739
12 *23:6 *23:7 0.189939
13 *149:Y *23:6 0.447648
*END

*D_NET *24 0.0045807

*CONN
*P *24 O *C 92.4 42.84 *L 0
*I *140:Y O *C 65.67 52.92 *L 0 *D NOR2XL

*CAP
1 *24 0.000179703
2 *140:Y 0.000139833
3 *24:2 0.000184563
4 *24:3 0.000184563
5 *24:4 0.000589636
6 *24:5 0.000589636
7 *24:6 0.00125379
8 *24:7 0.00125379
9 *24:8 0.000205167

*RES
1 *24:8 *24 0.972182
2 *24:5 *24:8 3.20002
3 *24:5 *24:4 2.33997
4 *24:6 *24:4 3.20002
5 *24:7 *24:6 6.43499994
6 *24:2 *140:Y 3.20002
7 *24:3 *24:7 3.20002
8 *24:3 *24:2 0.312049
*END

*D_NET *25 0.00311989

*CONN
*P *25 O *C 92.4 47.32 *L 0
*I *146:Y O *C 65.01 47.88 *L 0 *D NOR2XL

*CAP
1 *25 0.000825374
2 *146:Y 8.24062e-05
3 *25:2 0.000117727
4 *25:3 0.000120599
5 *25:4 0.000552776
6 *25:5 0.000561472
7 *25:6 0.00085954

*RES
1 *25:6 *25 4.46549988
2 *25:5 *25:6 0.155968
3 *25:4 *25:5 2.75789
4 *25:3 *25:4 3.19997
5 *25:2 *25:3 3.19997
6 *146:Y *25:2 0.447667
*END

*D_NET *26 0.00338443

*CONN
*P *26 O *C 92.4 51.8 *L 0
*I *160:Y O *C 68.31 47.88 *L 0 *D NOR2XL

*CAP
1 *26 7.77436e-05
2 *160:Y 0.0013111
3 *26:2 0.000272966
4 *26:3 0.000272966
5 *26:4 0.00134644
6 *26:5 0.000103199

*RES
1 *26:5 *26 0.420589
2 *26:2 *26:5 3.20005
3 *26:3 *26:2 0.936049
4 *26:4 *26:3 3.20005
5 *160:Y *26:4 7.61008692
*END

*D_NET *27 0.00311549

*CONN
*P *27 O *C 92.4 55.72 *L 0
*I *157:Y O *C 69.63 52.92 *L 0 *D NOR2XL

*CAP
1 *27 7.77302e-05
2 *157:Y 0.0012655
3 *27:2 0.00130083
4 *27:3 0.000184123
5 *27:4 0.000184123
6 *27:5 0.000103197

*RES
1 *27:5 *27 0.420658
2 *27:4 *27:5 3.20001
3 *27:3 *27:4 0.46798
4 *27:2 *27:3 3.20001
5 *157:Y *27:2 7.16243458
*END

*D_NET *28 0.00403257

*CONN
*P *28 O *C 92.4 60.2 *L 0
*I *144:Y O *C 67.65 52.92 *L 0 *D NOR2XL

*CAP
1 *28 0.000655464
2 *144:Y 4.06152e-05
3 *28:2 0.000354076
4 *28:3 0.000354076
5 *28:4 0.000229145
6 *28:5 0.000231109
7 *28:6 0.000167531
8 *28:7 0.000167531
9 *28:8 7.79159e-05
10 *28:9 0.000537099
11 *28:10 0.000537099
12 *28:11 0.00068092

*RES
1 *28:11 *28 3.54621434
2 *28:10 *28:11 3.20001
3 *28:9 *28:10 2.33997
4 *28:4 *28:9 3.20001
5 *28:5 *28:4 1.11912
6 *28:5 *28:2 0.189929
7 *28:3 *28:2 1.79059
8 *28:6 *28:3 0.189929
9 *28:7 *28:6 0.89532
10 *28:7 *28:8 0.189929
11 *144:Y *28:8 0.223803
*END

*D_NET *29 0.00528039

*CONN
*P *29 O *C 92.4 64.12 *L 0
*I *147:Y O *C 69.63 42.84 *L 0 *D NOR2XL

*CAP
1 *29 0.000247666
2 *147:Y 0.00112178
3 *29:2 0.00115711
4 *29:3 0.00112556
5 *29:4 0.00112556
6 *29:5 0.000273109
7 *29:3 *23:13 2.659e-05
8 *29:4 *23:11 2.659e-05
9 *29:3 *23:4 8.821e-05
10 *29:4 *23:5 8.8210001e-05

*RES
1 *29:5 *29 1.33995
2 *29:3 *29:5 3.19999
3 *29:4 *29:3 5.61599
4 *29:2 *29:4 3.19999
5 *147:Y *29:2 6.04330444
*END

*D_NET *30 0.00336949

*CONN
*P *30 O *C 92.4 68.6 *L 0
*I *159:Y O *C 70.29 63 *L 0 *D NOR2XL

*CAP
1 *30 7.77439e-05
2 *159:Y 8.23974e-05
3 *30:2 0.000491923
4 *30:3 0.000119698
5 *30:4 0.000491923
6 *30:5 0.0006777
7 *30:6 0.000675735
8 *30:7 0.000324585
9 *30:8 0.000324585
10 *30:9 0.000103204

*RES
1 *30:9 *30 0.420647
2 *30:8 *30:9 3.2
3 *30:7 *30:8 1.24801
4 *30:6 *30:7 3.2
5 *30:5 *30:6 3.80504346
6 *30:4 *30:5 0.189915
7 *30:2 *30:4 2.68593
8 *30:2 *30:3 0.189915
9 *159:Y *30:3 0.447645
*END

*D_NET *31 0.00404189

*CONN
*P *31 O *C 92.4 73.08 *L 0
*I *158:Y O *C 65.01 63 *L 0 *D NOR2XL

*CAP
1 *31 0.00133513
2 *158:Y 8.45808e-05
3 *31:2 0.000570848
4 *31:3 0.000570848
5 *31:4 0.000119895
6 *31:5 0.00136058

*RES
1 *31:5 *31 7.2233572
2 *31:2 *31:5 3.20001
3 *31:3 *31:2 2.49603
4 *31:4 *31:3 3.20001
5 *158:Y *31:4 0.447602
*END

*D_NET *32 0.00525378

*CONN
*P *32 O *C 92.4 77 *L 0
*I *143:Y O *C 63.03 63 *L 0 *D NOR2XL

*CAP
1 *32 0.001607
2 *143:Y 0.000126716
3 *32:2 0.000824512
4 *32:3 0.000824512
5 *32:4 0.000238586
6 *32:5 0.00163246

*RES
1 *32:5 *32 8.69421387
2 *32:2 *32:5 3.19997
3 *32:3 *32:2 4.05604
4 *32:4 *32:3 3.19997
5 *32:4 *143:Y 0.671541
*END

*D_NET *33 0.0045127

*CONN
*P *33 O *C 92.4 81.48 *L 0
*I *142:Y O *C 68.31 63 *L 0 *D NOR2XL

*CAP
1 *33 0.00119921
2 *142:Y 4.12051e-05
3 *33:2 0.00101703
4 *33:3 0.000954052
5 *33:4 7.65424e-05
6 *33:5 0.00122466

*RES
1 *33:5 *33 6.48792839
2 *33:2 *33:5 3.20001
3 *33:3 *33:2 4.83605
4 *33:4 *33:3 6.40002
5 *142:Y *33:4 0.223834
*END

*D_NET *34 0.013205

*CONN
*P *34 O *C 92.4 0.84 *L 0
*I *195:Q O *C 45.87 34.44 *L 0 *D TLATNRX1
*I *187:B I *C 47.19 52.92 *L 0.00277 *D NAND2XL
*I *174:B I *C 51.15 37.8 *L 0.00274 *D NOR2XL
*I *173:B I *C 48.51 47.88 *L 0.00274 *D NOR2XL

*CAP
1 *34 0.00208277
2 *195:Q 6.33093e-05
3 *187:B 4.22706e-05
4 *174:B 7.46008e-05
5 *173:B 0.000130125
6 *34:5 0.000746201
7 *34:6 0.000495666
8 *34:7 6.31807e-05
9 *34:8 9.78914e-05
10 *34:9 6.29233e-05
11 *34:10 0.000246578
12 *34:11 0.000154123
13 *34:12 0.000741826
14 *34:13 0.000635216
15 *34:14 0.000227727
16 *34:15 0.000227727
17 *34:16 0.000359975
18 *34:17 0.000429654
19 *34:18 0.000165447
20 *34:19 0.000931625
21 *34:20 0.000911519
22 *34:21 0.00011729
23 *34:22 8.92057e-05
24 *34:23 0.000209262
25 *34:24 0.00210822
26 *34:25 0.000154381
27 *34:12 *50:5 6.187e-05
28 *34:13 *50:4 6.187e-05
29 *34:14 *50:5 4.824e-05
30 *34:15 *50:4 4.82400016e-05
31 *34:20 *37:19 2.068e-05
32 *34:19 *37:20 2.068e-05
33 *34:10 *37:13 6.724e-05
34 *34:5 *37:14 6.724e-05
35 *34:10 *37:21 6.267e-05
36 *34:5 *37:9 6.267e-05
37 *34:5 *37:9 6.184e-05
38 *34:6 *37:10 6.184e-05
39 *34:5 *37:11 0.00012571
40 *34:6 *37:12 0.00012571
41 *34:5 *37:22 8.301e-05
42 *34:6 *37:23 8.301e-05
43 *34:5 *37:23 4.067e-05
44 *34:6 *37:24 4.067e-05
45 *34:8 *37:7 4.071e-05
46 *34:9 *37:8 4.0710013e-05
47 *34:5 *122:12 0.00018081
48 *34:6 *122:10 0.00018081
49 *34:7 *122:12 8.86e-06
50 *34:8 *122:10 8.86e-06
51 *34:8 *122:12 1.581e-05
52 *34:9 *122:10 1.58099888e-05

*RES
1 *34:24 *34 11.2682142
2 *34:23 *34:24 3.19996
3 *34:23 *34:25 0.623968
4 *34:19 *34:25 0.183803
5 *34:19 *34:20 4.83596
6 *34:15 *34:20 0.0919875
7 *34:15 *34:14 1.24794
8 *34:21 *174:B 0.379814
9 *34:11 *187:B 0.223865
10 *34:14 *34:13 0.0919875
11 *34:22 *34:21 6.39992
12 *34:18 *173:B 0.671423
13 *34:10 *34:11 3.19996
14 *34:13 *34:12 2.96406
15 *34:12 *34:22 0.31207
16 *34:5 *34:18 3.19996
17 *34:5 *34:10 1.40406
18 *34:16 *34:12 3.19996
19 *34:6 *34:5 3.27596
20 *34:17 *34:16 1.47094
21 *34:7 *34:6 0.183803
22 *34:8 *34:17 3.19996
23 *34:8 *34:7 0.155949
24 *34:9 *34:8 0.31207
25 *195:Q *34:9 6.39992
*END

*D_NET *35 0.00995957

*CONN
*P *35 O *C 92.4 4.76 *L 0
*I *193:Q O *C 54.45 34.44 *L 0 *D TLATNRX1
*I *192:AN I *C 64.35 31.08 *L 0.0021 *D NAND2BX1
*I *190:B I *C 65.01 27.16 *L 0.00375 *D NAND2X1
*I *134:B0 I *C 62.37 38.36 *L 0.00302 *D OAI21XL
*I *133:A1 I *C 58.41 37.24 *L 0.00324 *D OAI21XL

*CAP
1 *35 0.00130113
2 *193:Q 6.32987e-05
3 *192:AN 0.000139836
4 *190:B 4.22666e-05
5 *134:B0 6.32987e-05
6 *133:A1 0.000277121
7 *35:6 0.000137488
8 *35:7 7.45131e-05
9 *35:8 0.000362383
10 *35:9 0.000474649
11 *35:10 0.000258498
12 *35:11 7.76102e-05
13 *35:12 0.000321392
14 *35:13 0.000262041
15 *35:14 0.00020939
16 *35:15 6.57278e-05
17 *35:16 0.000524729
18 *35:17 0.000249166
19 *35:18 0.000326432
20 *35:19 5.09102e-05
21 *35:20 0.000256737
22 *35:21 0.000524729
23 *35:22 0.00106274
24 *35:23 0.00114326
25 *35:24 0.000209268
26 *35:25 0.0013266
27 *35:26 0.00015437

*RES
1 *35:25 *35 7.03950024
2 *35:24 *35:25 3.19998
3 *35:24 *35:26 0.623969
4 *35:19 *134:B0 6.39996
5 *35:22 *35:26 0.183893
6 *35:20 *35:19 6.39996
7 *35:22 *35:23 4.99197
8 *35:18 *35:20 1.10314
9 *35:11 *190:B 0.223851
10 *35:10 *35:23 0.551572
11 *35:6 *35:18 3.19998
12 *35:9 *35:11 3.19998
13 *35:10 *35:9 0.623969
14 *35:7 *35:6 0.155965
15 *35:8 *192:AN 3.19998
16 *35:9 *35:8 1.09197
17 *133:A1 *35:7 6.39996
18 *35:21 *35:8 3.19998
19 *35:16 *35:21 2.57397
20 *35:17 *133:A1 1.11915
21 *35:13 *35:16 3.19998
22 *35:14 *35:17 3.19998
23 *35:13 *35:12 0.936008
24 *35:12 *35:14 0.780042
25 *35:15 *35:12 0.183893
26 *193:Q *35:15 6.39996
*END

*D_NET *36 0.0152321

*CONN
*P *36 O *C 92.4 9.24 *L 0
*I *188:Q O *C 37.95 24.36 *L 0 *D TLATNRX1
*I *187:A I *C 47.85 53.48 *L 0.0031 *D NAND2XL
*I *186:A I *C 42.57 43.4 *L 0.0031 *D NAND2XL
*I *181:B I *C 49.17 38.36 *L 0.00259 *D OR2X1
*I *180:B I *C 40.59 52.36 *L 0.00259 *D OR2X1

*CAP
1 *36 0.00262652
2 *188:Q 6.3294e-05
3 *187:A 0.000139823
4 *186:A 6.3294e-05
5 *181:B 6.3294e-05
6 *180:B 6.3294e-05
7 *36:6 0.000488366
8 *36:7 0.00124363
9 *36:8 0.00029004
10 *36:9 0.000381712
11 *36:10 0.000134627
12 *36:11 0.000388493
13 *36:12 0.000612315
14 *36:13 0.000400672
15 *36:14 0.000144451
16 *36:15 0.000315901
17 *36:16 0.000306848
18 *36:17 0.000908039
19 *36:18 0.000455562
20 *36:19 0.000455562
21 *36:20 0.000195363
22 *36:21 0.000617918
23 *36:22 6.57299e-05
24 *36:23 0.00266066
25 *36:24 0.000204092
26 *36:25 0.00043575
27 *36:26 0.00012062
28 *36:27 0.000617918
29 *36:28 0.00043575
30 *36:11 *88:4 0.00015739
31 *36:12 *88:3 0.00015739
32 *36:12 *88:6 8.86e-06
33 *36:13 *88:5 8.86001293e-06

*RES
1 *36:26 *187:A 3.19992
2 *36:18 *36:26 3.19992
3 *36:19 *36:18 1.83847
4 *36:22 *180:B 6.40006
5 *36:14 *36:19 3.19992
6 *36:22 *36:15 0.183869
7 *36:15 *36:14 0.312013
8 *36:16 *36:15 1.09194
9 *36:10 *186:A 6.40006
10 *36:16 *36:8 0.367737
11 *36:10 *36:9 0.467911
12 *36:9 *36:8 0.936039
13 *36:25 *36:9 3.19992
14 *36:25 *36:28 1.83847
15 *36:11 *36:28 3.19992
16 *36:12 *181:B 6.40006
17 *36:12 *36:11 2.02798
18 *36:13 *36:12 1.71596
19 *36:27 *36:13 3.19992
20 *36:23 *36 14.2099285
21 *36:21 *36:27 3.12555
22 *36:23 *36:24 0.155898
23 *36:6 *36:21 3.19992
24 *36:20 *36:24 0.919344
25 *36:7 *36:6 2.02798
26 *36:7 *188:Q 6.40006
27 *36:17 *36:20 3.19992
28 *36:17 *36:7 4.05595
*END

*D_NET *37 0.0132927

*CONN
*P *37 O *C 92.4 13.16 *L 0
*I *182:Q O *C 43.23 36.12 *L 0 *D TLATNRX1
*I *181:A I *C 48.51 37.8 *L 0.0024 *D OR2X1
*I *179:B I *C 39.27 47.88 *L 0.00274 *D NOR2XL
*I *176:B I *C 47.85 57.96 *L 0.00274 *D NOR2XL

*CAP
1 *37 0.00228665
2 *182:Q 6.32936e-05
3 *181:A 0.000170512
4 *179:B 0.000139853
5 *176:B 0.000124082
6 *37:5 0.000465282
7 *37:6 0.000425026
8 *37:7 0.000558317
9 *37:8 0.000518062
10 *37:9 0.000204487
11 *37:10 9.05303e-05
12 *37:11 0.000309235
13 *37:12 0.000309235
14 *37:13 0.000349984
15 *37:14 0.000349984
16 *37:15 0.000287326
17 *37:16 0.000327581
18 *37:17 8.34388e-05
19 *37:18 0.000123694
20 *37:19 0.00013823
21 *37:20 0.000193091
22 *37:21 8.45325e-05
23 *37:22 0.00011692
24 *37:23 0.000181307
25 *37:24 8.72844e-05
26 *37:25 0.000120589
27 *37:26 0.000572782
28 *37:27 0.000105983
29 *37:28 0.000282387
30 *37:29 0.000503103
31 *37:30 8.41092e-05
32 *37:31 0.000159433
33 *37:32 0.000159151
34 *37:33 0.00231212
35 *37:19 *34:20 2.068e-05
36 *37:20 *34:19 2.068e-05
37 *37:13 *34:10 6.724e-05
38 *37:14 *34:5 6.724e-05
39 *37:21 *34:10 6.267e-05
40 *37:9 *34:5 6.267e-05
41 *37:9 *34:5 6.184e-05
42 *37:10 *34:6 6.184e-05
43 *37:11 *34:5 0.00012571
44 *37:12 *34:6 0.00012571
45 *37:22 *34:5 8.301e-05
46 *37:23 *34:6 8.301e-05
47 *37:23 *34:5 4.067e-05
48 *37:24 *34:6 4.067e-05
49 *37:7 *34:8 4.071e-05
50 *37:8 *34:9 4.0710013e-05

*RES
1 *37:33 *37 12.371357
2 *37:20 *37:33 3.20006
3 *37:20 *37:19 0.62408
4 *37:6 *37:19 0.183864
5 *37:6 *37:5 2.02798
6 *37:16 *37:5 0.367728
7 *37:27 *182:Q 6.39993
8 *37:16 *37:15 1.40409
9 *37:27 *37:18 0.367728
10 *37:8 *37:15 0.183864
11 *37:18 *37:17 0.155926
12 *37:8 *37:7 2.49594
13 *37:17 *37:7 0.183864
14 *37:28 *181:A 0.895345
15 *37:7 *37:24 0.183864
16 *37:31 *176:B 0.671462
17 *37:23 *37:28 3.20006
18 *37:24 *37:23 0.31204
19 *37:32 *37:31 3.20006
20 *37:23 *37:22 0.62408
21 *37:30 *37:32 0.467966
22 *37:12 *37:22 0.0919319
23 *37:13 *37:30 0.0919319
24 *37:12 *37:11 1.71594
25 *37:14 *37:13 1.87205
26 *37:11 *37:10 0.0919319
27 *37:14 *37:21 0.0919319
28 *37:10 *37:9 0.467966
29 *37:9 *37:21 0.467966
30 *37:29 *37:9 3.20006
31 *37:26 *37:29 1.83864
32 *37:25 *37:26 3.20006
33 *179:B *37:25 3.20006
*END

*D_NET *38 0.00885861

*CONN
*P *38 O *C 92.4 85.4 *L 0
*I *132:Y O *C 63.03 33.88 *L 0 *D NOR2BXL

*CAP
1 *38 0.00150504
2 *132:Y 0.000139865
3 *38:2 0.000120605
4 *38:3 0.000120605
5 *38:4 0.00268619
6 *38:5 0.00153052
7 *38:6 0.00275587

*RES
1 *38:5 *38 8.14264
2 *38:6 *38:5 3.19994
3 *38:4 *38:6 14.3520002
4 *38:3 *38:4 3.19994
5 *38:2 *38:3 3.19994
6 *132:Y *38:2 3.19994
*END

*D_NET *39 0.0110437

*CONN
*P *39 I *C 0 4.76 *L 0
*I *209:AN I *C 61.71 27.72 *L 0.00218 *D NOR2BX1
*I *194:C0 I *C 34.65 32.76 *L 0.00317 *D AOI211XL
*I *131:C I *C 57.75 27.72 *L 0.00312 *D NOR3XL

*CAP
1 *39 0.00177691
2 *209:AN 0.00013985
3 *194:C0 6.33109e-05
4 *131:C 0.00013985
5 *39:4 0.000355691
6 *39:5 0.000808575
7 *39:6 0.00048113
8 *39:7 0.000129235
9 *39:8 0.00018413
10 *39:9 0.000754258
11 *39:10 0.000754258
12 *39:11 0.000366004
13 *39:12 0.000366004
14 *39:13 0.00180238
15 *39:14 0.000388034
16 *39:15 0.000542708
17 *39:16 0.000327033
18 *39:17 0.000542708
19 *39:18 0.000184625
20 *39:19 0.000120599
21 *39:20 0.000394332
22 *39:21 0.000120599
23 *39:22 0.000301483

*RES
1 *39:21 *209:AN 3.20005
2 *39:19 *131:C 3.20005
3 *39:22 *39:21 3.20005
4 *39:20 *39:19 3.20005
5 *39:20 *39:22 1.10311
6 *39:18 *39:20 0.735359
7 *39:18 *39:11 0.155932
8 *39:12 *39:11 1.65467
9 *39:17 *39:12 0.155932
10 *39:15 *39:17 2.57398
11 *39:15 *39:16 0.155932
12 *39:14 *39:16 1.47086
13 *39:4 *194:C0 6.39995
14 *39:5 *39:14 3.20005
15 *39:5 *39:4 1.24804
16 *39:6 *39:5 2.18407
17 *39:9 *39:6 0.183803
18 *39:10 *39:9 3.90006
19 *39:10 *39:7 0.183803
20 *39:8 *39:7 0.467942
21 *39:13 *39:8 3.20005
22 *39 *39:13 9.61349964
*END

*D_NET *43 0.00160062

*CONN
*I *223:G I *C 49.17 23.24 *L 0.00203 *D TLATRX1
*I *130:Y O *C 54.45 26.6 *L 0 *D OR2X1

*CAP
1 *223:G 0.000139843
2 *130:Y 0.000139843
3 *43:2 0.0002622
4 *43:3 0.000207321
5 *43:4 0.000142098
6 *43:5 0.00029436
7 *43:6 0.000120601
8 *43:7 0.00029436

*RES
1 *43:6 *130:Y 3.20000005
2 *43:7 *43:6 3.20000005
3 *43:5 *43:7 1.28701
4 *43:2 *43:5 3.20000005
5 *43:3 *43:2 0.935986
6 *43:4 *43:3 0.183838
7 *223:G *43:4 3.20000005
*END

*D_NET *44 7.968e-05

*CONN
*I *217:B I *C 64.35 22.68 *L 0.00277 *D NAND2XL
*I *129:Y O *C 63.69 23.8 *L 0 *D DLY4X1

*CAP
1 *217:B 3.984e-05
2 *129:Y 3.984e-05

*RES
1 *129:Y *217:B 0.223826
*END

*D_NET *45 0.0103989

*CONN
*I *223:Q O *C 55.77 21.56 *L 0 *D TLATRX1
*I *222:A I *C 60.39 27.16 *L 0.0026 *D INVXL
*I *217:A I *C 65.01 23.24 *L 0.0031 *D NAND2XL
*I *195:GN I *C 39.27 33.32 *L 0.00197 *D TLATNRX1
*I *194:B0 I *C 35.31 33.32 *L 0.00352 *D AOI211XL
*I *193:GN I *C 47.85 33.32 *L 0.00197 *D TLATNRX1
*I *188:GN I *C 31.35 23.24 *L 0.00197 *D TLATNRX1
*I *182:GN I *C 36.63 37.24 *L 0.00197 *D TLATNRX1
*I *129:A I *C 60.39 21.56 *L 0.00189 *D DLY4X1

*CAP
1 *223:Q 0.000139837
2 *222:A 6.32984e-05
3 *217:A 0.000139837
4 *195:GN 0.000139837
5 *194:B0 6.32984e-05
6 *193:GN 0.000139837
7 *188:GN 0.000139837
8 *182:GN 0.000139837
9 *129:A 0.000139837
10 *45:9 0.000385729
11 *45:10 0.000319825
12 *45:11 0.000762172
13 *45:12 0.000762172
14 *45:13 0.000348343
15 *45:14 0.000411318
16 *45:15 0.000471607
17 *45:16 0.00088449
18 *45:17 0.000630419
19 *45:18 0.000217522
20 *45:19 0.000121738
21 *45:20 0.00019142
22 *45:21 0.000120604
23 *45:22 0.000233043
24 *45:23 0.000233043
25 *45:24 0.000636628
26 *45:25 0.000120604
27 *45:26 0.000636628
28 *45:27 0.000262884
29 *45:28 0.000120604
30 *45:29 0.000242666
31 *45:30 0.000506927
32 *45:31 0.000277663
33 *45:15 *77:11 3.678e-05
34 *45:16 *77:7 3.678e-05
35 *45:16 *77:8 5.853e-05
36 *45:17 *77:6 5.853e-05
37 *45:16 *77:11 6.204e-05
38 *45:17 *77:7 6.204e-05
39 *45:17 *77:8 4.038e-05
40 *45:18 *77:6 4.03799971e-05

*RES
1 *45:19 *217:A 3.2
2 *45:13 *222:A 6.4000001
3 *45:20 *45:19 0.467969
4 *45:14 *129:A 3.2
5 *45:14 *45:13 1.55996
6 *45:31 *45:20 3.2
7 *45:30 *45:14 3.2
8 *45:30 *45:31 1.28701
9 *45:29 *45:30 1.10312
10 *45:12 *45:29 3.2
11 *45:12 *223:Q 3.2
12 *45:27 *182:GN 3.2
13 *45:12 *45:11 3.27598
14 *45:27 *45:9 0.735449
15 *45:28 *193:GN 3.2
16 *45:15 *45:11 3.2
17 *45:10 *195:GN 3.2
18 *45:10 *45:9 1.09199
19 *45:16 *45:28 3.2
20 *45:16 *45:15 2.39014
21 *45:25 *194:B0 6.4000001
22 *45:17 *45:10 3.2
23 *45:17 *45:16 2.39014
24 *45:18 *45:25 3.2
25 *45:18 *45:17 1.10312
26 *45:26 *45:18 3.2
27 *45:24 *45:26 2.80801
28 *45:23 *45:24 3.2
29 *45:22 *45:23 1.10312
30 *45:21 *45:22 3.2
31 *188:GN *45:21 3.2
*END

*D_NET *46 0.000639403

*CONN
*I *125:A I *C 39.93 28.84 *L 0.00189 *D DLY4X1
*I *124:Y O *C 38.61 26.6 *L 0 *D DLY4X1

*CAP
1 *125:A 0.000139841
2 *124:Y 0.000139841
3 *46:2 0.0001421
4 *46:3 7.26014e-05
5 *46:4 7.26014e-05
6 *46:5 7.24193e-05

*RES
1 *46:5 *125:A 3.20000005
2 *46:4 *46:5 0.183838
3 *46:3 *46:4 0.156006
4 *46:2 *46:3 0.183838
5 *124:Y *46:2 3.20000005
*END

*D_NET *47 0.00138669

*CONN
*I *126:A I *C 40.59 21.56 *L 0.00189 *D DLY4X1
*I *125:Y O *C 43.23 26.6 *L 0 *D DLY4X1

*CAP
1 *126:A 4.12113e-05
2 *125:Y 0.000139843
3 *47:2 0.00015308
4 *47:3 0.0001421
5 *47:4 0.000343918
6 *47:5 0.00038418
7 *47:6 0.000182356

*RES
1 *47:6 *125:Y 3.20000005
2 *47:5 *47:6 0.367725
3 *47:4 *47:5 1.404
4 *47:3 *47:4 0.183838
5 *47:2 *47:3 3.20000005
6 *126:A *47:2 0.223828
*END

*D_NET *48 0.000635701

*CONN
*I *127:A I *C 45.21 21.56 *L 0.00189 *D DLY4X1
*I *126:Y O *C 43.89 23.8 *L 0 *D DLY4X1

*CAP
1 *127:A 0.000139841
2 *126:Y 0.000139841
3 *48:2 7.07497e-05
4 *48:3 7.07497e-05
5 *48:4 0.0001421
6 *48:5 7.24193e-05

*RES
1 *48:5 *127:A 3.20000005
2 *48:3 *48:5 0.183838
3 *48:3 *48:2 0.156006
4 *48:4 *48:2 0.183838
5 *126:Y *48:4 3.20000005
*END

*D_NET *49 0.000925898

*CONN
*I *128:A I *C 48.51 28.84 *L 0.00189 *D DLY4X1
*I *127:Y O *C 48.51 23.8 *L 0 *D DLY4X1

*CAP
1 *128:A 0.000139839
2 *127:Y 0.000139839
3 *49:2 0.00032311
4 *49:3 0.00032311

*RES
1 *49:3 *128:A 3.20000005
2 *49:2 *49:3 1.404
3 *127:Y *49:2 3.20000005
*END

*D_NET *50 0.00112697

*CONN
*I *223:D I *C 51.15 22.68 *L 0.00298 *D TLATRX1
*I *130:A I *C 52.47 27.72 *L 0.0024 *D OR2X1
*I *128:Y O *C 51.81 26.6 *L 0 *D DLY4X1

*CAP
1 *223:D 4.16991e-05
2 *130:A 3.98402e-05
3 *128:Y 0.00017968
4 *50:3 7.70292e-05
5 *50:4 0.000141589
6 *50:5 0.000141589
7 *50:5 *1:10 0.00014266
8 *50:4 *1:11 0.000142659993
9 *50:5 *34:12 6.187e-05
10 *50:4 *34:13 6.187e-05
11 *50:5 *34:14 4.824e-05
12 *50:4 *34:15 4.82400016e-05

*RES
1 *128:Y *130:A 0.223828
2 *50:5 *128:Y 3.2
3 *50:4 *50:5 1.09199
4 *50:3 *50:4 6.4000001
5 *223:D *50:3 0.223828
*END

*D_NET *51 0.00099151

*CONN
*I *194:Y O *C 35.97 32.2 *L 0 *D AOI211XL
*I *124:A I *C 35.31 28.84 *L 0.00189 *D DLY4X1

*CAP
1 *194:Y 4.2251e-05
2 *124:A 0.000139841
3 *51:2 0.00036592
4 *51:3 7.75783e-05
5 *51:4 0.00036592

*RES
1 *51:3 *194:Y 0.223828
2 *51:4 *51:3 3.20000005
3 *51:2 *51:4 0.935986
4 *124:A *51:2 3.20000005
*END

*D_NET *52 0.000866422

*CONN
*I *222:Y O *C 61.05 26.6 *L 0 *D INVXL
*I *131:B I *C 58.41 27.16 *L 0.00325 *D NOR3XL

*CAP
1 *222:Y 0.000139841
2 *131:B 0.000139841
3 *52:2 0.00018236
4 *52:3 0.00011101
5 *52:4 0.00011101
6 *52:5 0.00018236

*RES
1 *52:5 *222:Y 3.20000005
2 *52:4 *52:5 0.367725
3 *52:3 *52:4 0.156006
4 *52:2 *52:3 0.367725
5 *131:B *52:2 3.20000005
*END

*D_NET *53 0.00226105

*CONN
*I *221:Y O *C 24.75 37.8 *L 0 *D NOR2XL
*I *201:C I *C 31.35 33.32 *L 0.0023 *D AND3X1
*I *199:B0 I *C 24.75 32.76 *L 0.00258 *D OAI2BB1XL
*I *197:A2 I *C 26.73 33.32 *L 0.00329 *D AOI31XL

*CAP
1 *221:Y 6.81276e-05
2 *201:C 6.33005e-05
3 *199:B0 0.000139842
4 *197:A2 0.000139842
5 *53:4 0.000302254
6 *53:5 0.000279152
7 *53:6 0.0003387
8 *53:7 0.0003387
9 *53:8 0.000182361
10 *53:9 0.0001123
11 *53:10 0.000103458
12 *53:11 7.24224e-05
13 *53:12 0.000120601

*RES
1 *53:12 *201:C 6.4000001
2 *53:6 *53:12 3.2
3 *53:7 *53:6 1.28701
4 *221:Y *53:10 0.447656
5 *53:11 *197:A2 3.2
6 *53:11 *53:7 3.2
7 *53:4 *53:10 3.2
8 *53:5 *53:11 0.183887
9 *53:5 *53:4 0.936035
10 *53:9 *53:5 0.155957
11 *53:8 *53:9 0.367676
12 *199:B0 *53:8 3.2
*END

*D_NET *54 0.00334183

*CONN
*I *220:Y O *C 27.39 42.84 *L 0 *D NOR2XL
*I *201:B I *C 30.69 32.2 *L 0.00231 *D AND3X1
*I *199:A0N I *C 24.09 33.32 *L 0.00189 *D OAI2BB1XL
*I *197:A1 I *C 27.39 32.76 *L 0.00338 *D AOI31XL

*CAP
1 *220:Y 7.97308e-05
2 *201:B 6.32981e-05
3 *199:A0N 6.32981e-05
4 *197:A1 0.00013984
5 *54:4 0.000182111
6 *54:5 0.000112434
7 *54:6 0.000336653
8 *54:7 0.00044281
9 *54:8 0.000396188
10 *54:9 0.000300869
11 *54:10 0.000176036
12 *54:11 0.000176036
13 *54:12 0.00017057
14 *54:13 0.000228929
15 *54:14 9.46634e-05
16 *54:15 0.000115062
17 *54:8 *70:8 1.736e-05
18 *54:9 *70:9 1.736e-05
19 *54:6 *70:6 3.207e-05
20 *54:7 *70:7 3.207e-05
21 *54:12 *70:10 4.071e-05
22 *54:13 *70:11 4.071e-05
23 *54:13 *70:10 4.151e-05
24 *54:14 *70:11 4.15099999e-05

*RES
1 *54:9 *201:B 6.4000001
2 *220:Y *54:15 0.447656
3 *54:9 *54:8 1.24805
4 *54:6 *54:15 3.2
5 *54:7 *54:8 0.551562
6 *54:7 *54:6 1.55996
7 *54:14 *197:A1 3.2
8 *54:12 *54:7 0.367676
9 *54:14 *54:13 0.467969
10 *54:13 *54:12 0.624023
11 *54:10 *54:13 3.2
12 *54:11 *54:10 0.919238
13 *54:4 *54:11 3.2
14 *54:5 *54:4 0.312012
15 *199:A0N *54:5 6.4000001
*END

*D_NET *55 0.00319126

*CONN
*I *219:Y O *C 29.37 63 *L 0 *D NOR2XL
*I *207:B0 I *C 28.71 58.52 *L 0.00302 *D OAI21XL
*I *204:B I *C 30.03 52.36 *L 0.00231 *D AND3X1
*I *203:C I *C 26.73 52.92 *L 0.00316 *D NAND3XL

*CAP
1 *219:Y 3.7299e-05
2 *207:B0 7.97322e-05
3 *204:B 6.33005e-05
4 *203:C 0.000139841
5 *55:4 0.00040151
6 *55:5 0.000137629
7 *55:6 0.000242768
8 *55:7 0.00017309
9 *55:8 0.000148381
10 *55:9 0.000253049
11 *55:10 0.00013013
12 *55:11 0.00019011
13 *55:12 0.000259788
14 *55:13 7.2417e-05
15 *55:14 0.000191599
16 *55:15 0.000242628
17 *55:16 0.000259917
18 *55:17 0.00016806

*RES
1 *55:17 *219:Y 0.189941
2 *55:7 *204:B 6.4000001
3 *55:15 *55:17 0.671484
4 *55:7 *55:6 0.624023
5 *55:14 *207:B0 0.447656
6 *55:16 *55:15 3.2
7 *55:11 *55:6 3.2
8 *55:4 *55:14 3.2
9 *55:4 *55:16 0.936035
10 *55:12 *55:11 0.735449
11 *55:5 *55:4 0.624023
12 *55:13 *55:12 3.2
13 *55:8 *55:5 0.183887
14 *55:9 *55:13 0.183887
15 *55:9 *55:8 0.467969
16 *55:10 *55:9 0.467969
17 *203:C *55:10 3.2
*END

*D_NET *56 0.00251634

*CONN
*I *218:Y O *C 33.99 63 *L 0 *D NOR2XL
*I *211:B I *C 30.69 57.4 *L 0.0029 *D NAND2BXL
*I *207:A1 I *C 27.39 57.4 *L 0.00324 *D OAI21XL

*CAP
1 *218:Y 0.000139843
2 *211:B 0.000139843
3 *207:A1 7.973e-05
4 *56:3 0.000337419
5 *56:4 0.000407098086
6 *56:5 0.000159317
7 *56:6 0.000376877
8 *56:7 0.000230965
9 *56:8 0.000115063
10 *56:9 0.000120604
11 *56:10 0.000120604
12 *56:5 *8:6 6.242e-05
13 *56:6 *8:7 6.242e-05
14 *56:6 *8:6 8.207e-05
15 *56:7 *8:7 8.20700063e-05

*RES
1 *56:3 *218:Y 3.20000005
2 *56:4 *56:3 1.404
3 *56:10 *211:B 3.20000005
4 *56:5 *56:4 3.20000005
5 *56:6 *56:10 3.20000005
6 *56:6 *56:5 0.919287
7 *56:7 *56:6 1.28701
8 *56:9 *56:7 3.20000005
9 *56:8 *207:A1 0.447656
10 *56:8 *56:9 3.20000005
*END

*D_NET *57 0.00158759

*CONN
*I *217:Y O *C 65.67 23.8 *L 0 *D NAND2XL
*I *209:B I *C 63.03 27.72 *L 0.0041 *D NOR2BX1
*I *132:B I *C 63.03 32.76 *L 0.00302 *D NOR2BXL

*CAP
1 *217:Y 8.23963e-05
2 *209:B 0.000139841
3 *132:B 0.000139841
4 *57:3 0.00046667
5 *57:4 0.000265611
6 *57:5 0.00026952
7 *57:6 0.00011773
8 *57:7 0.000105981

*RES
1 *57:5 *132:B 3.2
2 *57:6 *217:Y 0.447656
3 *57:3 *209:B 3.2
4 *57:3 *57:5 1.404
5 *57:7 *57:6 6.4000001
6 *57:4 *57:3 1.09199
7 *57:4 *57:7 0.367676
*END

*D_NET *58 0.00130011

*CONN
*I *213:Y O *C 25.41 64.12 *L 0 *D NOR2BXL
*I *205:A0N I *C 20.79 62.44 *L 0.00247 *D AOI2BB1XL

*CAP
1 *213:Y 0.00013984
2 *205:A0N 0.00013984
3 *58:2 0.000120602
4 *58:3 0.00038961
5 *58:4 0.000120602
6 *58:5 0.00038961

*RES
1 *58:4 *213:Y 3.20000005
2 *58:5 *58:4 3.20000005
3 *58:3 *58:5 1.47085
4 *58:2 *58:3 3.20000005
5 *205:A0N *58:2 3.20000005
*END

*D_NET *59 0.00277938

*CONN
*I *216:Y O *C 26.07 52.92 *L 0 *D NOR2XL
*I *204:C I *C 30.69 53.48 *L 0.0023 *D AND3X1
*I *203:A I *C 28.05 54.04 *L 0.00342 *D NAND3XL
*I *202:A I *C 27.39 47.32 *L 0.0031 *D NAND2XL

*CAP
1 *216:Y 0.000265841
2 *204:C 6.33035e-05
3 *203:A 0.000125999
4 *202:A 0.000139835
5 *59:4 0.000108039
6 *59:5 0.000163096
7 *59:6 0.00013031
8 *59:7 0.000199987
9 *59:8 0.000395606
10 *59:9 0.000250488
11 *59:10 0.000410670352
12 *59:11 0.000410670352
13 *59:12 0.000115515

*RES
1 *59:6 *204:C 6.4000001
2 *59:7 *59:6 0.467969
3 *59:10 *59:7 3.2
4 *59:11 *59:10 0.919238
5 *216:Y *203:A 0.671484
6 *59:9 *202:A 3.2
7 *59:12 *59:11 3.2
8 *59:9 *59:8 0.936035
9 *59:8 *59:12 0.312012
10 *59:4 *216:Y 3.2
11 *59:5 *59:8 0.367676
12 *59:5 *59:4 0.467969
*END

*D_NET *60 0.000696151

*CONN
*I *215:Y O *C 24.09 22.68 *L 0 *D NOR2XL
*I *212:A I *C 24.75 23.24 *L 0.0026 *D INVXL
*I *191:A1 I *C 26.07 23.24 *L 0.00342 *D AOI211XL

*CAP
1 *215:Y 3.98612e-05
2 *212:A 0.000151729
3 *191:A1 0.000139841
4 *60:3 0.00018236
5 *60:4 0.00018236

*RES
1 *60:4 *191:A1 3.20000005
2 *60:3 *60:4 0.367725
3 *212:A *60:3 3.20000005
4 *215:Y *212:A 0.223828
*END

*D_NET *61 0.000866101

*CONN
*I *212:Y O *C 25.41 23.8 *L 0 *D INVXL
*I *208:A I *C 25.41 28.28 *L 0.00348 *D NOR3XL

*CAP
1 *212:Y 6.33003e-05
2 *208:A 0.000139838
3 *61:2 0.000299991
4 *61:3 0.00036297

*RES
1 *61:3 *208:A 3.2
2 *61:2 *61:3 1.24805
3 *212:Y *61:2 6.4000001
*END

*D_NET *62 0.00154946

*CONN
*I *214:Y O *C 32.01 64.12 *L 0 *D OR2X1
*I *211:AN I *C 30.03 59.64 *L 0.0021 *D NAND2BXL
*I *207:A0 I *C 28.05 57.4 *L 0.00336 *D OAI21XL

*CAP
1 *214:Y 0.000139841
2 *211:AN 0.000139841
3 *207:A0 0.000139841
4 *62:3 0.000182358
5 *62:4 0.000199432
6 *62:5 0.00015917
7 *62:6 0.000174442
8 *62:7 0.00025493
9 *62:8 0.00015961

*RES
1 *62:8 *214:Y 3.20000005
2 *62:7 *62:8 0.624023
3 *62:6 *211:AN 3.20000005
4 *62:6 *62:7 0.551562
5 *62:5 *62:6 0.183838
6 *62:4 *62:5 0.624023
7 *62:3 *62:4 0.367725
8 *207:A0 *62:3 3.20000005
*END

*D_NET *63 0.00295002

*CONN
*I *211:Y O *C 31.35 56.84 *L 0 *D NAND2BXL
*I *210:A I *C 28.71 47.32 *L 0.0026 *D INVXL
*I *203:B I *C 27.39 53.48 *L 0.00313 *D NAND3XL

*CAP
1 *211:Y 0.000139841
2 *210:A 0.000139841
3 *203:B 0.000139841
4 *63:3 0.000244276
5 *63:4 0.00036506
6 *63:5 0.000278618
7 *63:6 0.000348299
8 *63:7 0.0001206
9 *63:8 0.000262881
10 *63:9 9.85414e-05
11 *63:10 0.00033337
12 *63:11 0.000230873
13 *63:3 *70:4 0.00012399
14 *63:4 *70:5 0.000123989999

*RES
1 *63:8 *210:A 3.20000005
2 *63:8 *63:4 0.735449
3 *63:4 *63:3 1.404
4 *63:3 *63:9 0.183838
5 *63:11 *211:Y 3.20000005
6 *63:9 *63:10 0.312012
7 *63:10 *63:11 0.935986
8 *63:5 *63:10 3.20000005
9 *63:6 *63:5 1.28701
10 *63:7 *63:6 3.20000005
11 *203:B *63:7 3.20000005
*END

*D_NET *64 0.00113022

*CONN
*I *210:Y O *C 29.37 46.76 *L 0 *D INVXL
*I *204:A I *C 29.37 53.48 *L 0.00234 *D AND3X1

*CAP
1 *210:Y 0.000139841
2 *204:A 0.000139841
3 *64:2 0.00046011
4 *64:3 0.000390428

*RES
1 *64:3 *204:A 3.20000005
2 *64:2 *64:3 1.404
3 *210:Y *64:2 3.20000005
*END

*D_NET *65 0.00158813

*CONN
*I *209:Y O *C 63.03 26.6 *L 0 *D NOR2BX1
*I *192:B I *C 65.01 33.32 *L 0.00391 *D NAND2BX1
*I *190:A I *C 65.67 27.72 *L 0.00403 *D NAND2X1

*CAP
1 *209:Y 8.5822e-05
2 *192:B 0.000139838
3 *190:A 0.000139838
4 *65:3 0.000197688
5 *65:4 0.0003889
6 *65:5 0.00043708
7 *65:6 0.000126919
8 *65:7 7.20363e-05

*RES
1 *65:6 *190:A 3.20000005
2 *65:5 *192:B 3.20000005
3 *65:6 *65:7 0.156006
4 *65:4 *65:5 1.404
5 *65:4 *65:7 0.183838
6 *65:3 *65:4 3.20000005
7 *209:Y *65:3 0.447656
*END

*D_NET *66 0.00197462

*CONN
*I *207:Y O *C 28.71 59.08 *L 0 *D OAI21XL
*I *202:B I *C 26.73 47.88 *L 0.00277 *D NAND2XL

*CAP
1 *207:Y 0.00013984
2 *202:B 0.00013984
3 *66:2 0.000159786
4 *66:3 0.000159786
5 *66:4 0.00050065
6 *66:5 0.000445593
7 *66:6 0.00015822
8 *66:7 0.00015822
9 *66:8 0.000112682

*RES
1 *66:8 *207:Y 3.20000005
2 *66:4 *66:8 0.367725
3 *66:5 *66:4 1.87202
4 *66:7 *66:5 3.20000005
5 *66:6 *66:7 0.367725
6 *66:2 *66:6 3.20000005
7 *66:3 *66:2 0.468018
8 *202:B *66:3 3.20000005
*END

*D_NET *67 0.00278151

*CONN
*I *208:Y O *C 24.75 26.6 *L 0 *D NOR3XL
*I *206:A I *C 22.11 33.32 *L 0.0026 *D INVXL
*I *201:A I *C 30.03 33.32 *L 0.00234 *D AND3X1

*CAP
1 *208:Y 0.000406006
2 *206:A 0.000139842
3 *201:A 0.000139842
4 *67:3 0.000432319
5 *67:4 0.000502002305
6 *67:5 0.000307567
7 *67:6 0.000377251
8 *67:7 0.000191754
9 *67:8 0.000284924

*RES
1 *67:5 *201:A 3.20000005
2 *67:6 *67:5 1.248
3 *67:8 *67:6 3.20000005
4 *67:3 *206:A 3.20000005
5 *208:Y *67:8 1.34297
6 *67:4 *67:3 1.87202
7 *67:7 *67:4 3.20000005
8 *67:7 *208:Y 0.895312
*END

*D_NET *68 0.00122527

*CONN
*I *206:Y O *C 22.77 33.88 *L 0 *D INVXL
*I *197:B0 I *C 28.71 32.76 *L 0.00316 *D AOI31XL

*CAP
1 *206:Y 0.000139838
2 *197:B0 6.33019e-05
3 *68:2 5.72431e-05
4 *68:3 0.000126922
5 *68:4 0.000120599
6 *68:5 0.00039352
7 *68:6 0.000323841

*RES
1 *68:2 *197:B0 6.4000001
2 *68:3 *68:2 0.155957
3 *68:6 *68:3 3.2
4 *68:5 *68:6 1.65469
5 *68:4 *68:5 3.2
6 *206:Y *68:4 3.2
*END

*D_NET *69 0.000952698

*CONN
*I *205:Y O *C 23.43 61.88 *L 0 *D AOI2BB1XL
*I *200:A0N I *C 21.45 58.52 *L 0.00247 *D AOI2BB1XL

*CAP
1 *205:Y 0.000139839
2 *200:A0N 0.000139839
3 *69:2 0.00015727
4 *69:3 0.00018291
5 *69:4 0.00021408
6 *69:5 0.000118759

*RES
1 *69:5 *205:Y 3.20000005
2 *69:4 *69:5 0.468018
3 *69:3 *69:4 0.551562
4 *69:2 *69:3 0.468018
5 *200:A0N *69:2 3.20000005
*END

*D_NET *70 0.00438115

*CONN
*I *203:Y O *C 27.39 52.36 *L 0 *D NAND3XL
*I *197:A0 I *C 28.05 33.32 *L 0.00353 *D AOI31XL

*CAP
1 *203:Y 0.000139841
2 *197:A0 6.3298e-05
3 *70:2 0.000200913
4 *70:3 0.000200913
5 *70:4 0.00021475
6 *70:5 0.000229551
7 *70:6 0.00039983
8 *70:7 0.00039983
9 *70:8 0.000192688
10 *70:9 0.000247573
11 *70:10 0.000142886
12 *70:11 7.32061e-05
13 *70:12 0.000292312
14 *70:13 0.000292312
15 *70:14 0.000268115
16 *70:15 0.000268115
17 *70:4 *71:3 7.209e-05
18 *70:5 *71:4 7.209e-05
19 *70:6 *71:3 4.978e-05
20 *70:7 *71:4 4.9780003e-05
21 *70:4 *63:3 0.00012399
22 *70:5 *63:4 0.000123989999
23 *70:8 *54:8 1.736e-05
24 *70:9 *54:9 1.736e-05
25 *70:6 *54:6 3.207e-05
26 *70:7 *54:7 3.207e-05
27 *70:10 *54:12 4.071e-05
28 *70:11 *54:13 4.071e-05
29 *70:10 *54:13 4.151e-05
30 *70:11 *54:14 4.15099999e-05

*RES
1 *70:2 *203:Y 3.2
2 *70:3 *70:2 0.467969
3 *70:15 *70:3 3.2
4 *70:15 *70:14 0.919238
5 *70:4 *70:14 3.2
6 *70:5 *70:4 1.404
7 *70:6 *70:5 0.183887
8 *70:7 *70:6 2.02803
9 *70:7 *70:8 0.183887
10 *70:9 *70:8 0.77998
11 *70:12 *70:9 3.2
12 *70:13 *70:12 1.10312
13 *70:10 *70:13 3.2
14 *70:11 *70:10 0.624023
15 *197:A0 *70:11 6.4000001
*END

*D_NET *71 0.00372873

*CONN
*I *204:Y O *C 32.01 51.8 *L 0 *D AND3X1
*I *198:B I *C 37.95 32.76 *L 0.00302 *D NOR2BXL
*I *194:A1 I *C 33.33 33.32 *L 0.00342 *D AOI211XL

*CAP
1 *204:Y 8.23977e-05
2 *198:B 6.33031e-05
3 *194:A1 0.000139842
4 *71:3 0.00094117
5 *71:4 0.00117059
6 *71:5 0.000137877
7 *71:6 0.000117729
8 *71:7 0.0001051
9 *71:8 0.000361474
10 *71:3 *16:10 4.071e-05
11 *71:4 *16:8 4.071e-05
12 *71:3 *16:8 0.00010053
13 *71:4 *16:9 0.00010053
14 *71:4 *16:8 4.151e-05
15 *71:5 *16:9 4.15099966e-05
16 *71:3 *70:4 7.209e-05
17 *71:4 *70:5 7.209e-05
18 *71:3 *70:6 4.978e-05
19 *71:4 *70:7 4.9780003e-05

*RES
1 *71:7 *198:B 6.4000001
2 *71:5 *194:A1 3.2
3 *71:7 *71:8 0.467969
4 *71:5 *71:4 0.312012
5 *71:4 *71:8 1.28701
6 *71:4 *71:3 4.83604
7 *71:6 *71:3 3.2
8 *204:Y *71:6 0.447656
*END

*D_NET *72 0.00239423

*CONN
*I *202:Y O *C 28.05 46.76 *L 0 *D NAND2XL
*I *199:A1N I *C 23.43 32.2 *L 0.00155 *D OAI2BB1XL

*CAP
1 *202:Y 0.000123602
2 *199:A1N 0.000139836
3 *72:2 0.000239571
4 *72:3 0.00020482
5 *72:4 0.0003845
6 *72:5 0.00034424
7 *72:6 0.000277261
8 *72:7 0.00026264
9 *72:8 0.000159608
10 *72:9 9.92243e-05
11 *72:10 0.000158928

*RES
1 *72:10 *202:Y 0.671484
2 *72:2 *72:10 3.20000005
3 *72:3 *72:2 0.624023
4 *72:4 *72:3 0.275781
5 *72:5 *72:4 1.71602
6 *72:9 *72:5 0.0919434
7 *72:8 *72:9 0.624023
8 *72:7 *72:8 0.367725
9 *72:6 *72:7 1.09199
10 *199:A1N *72:6 3.20000005
*END

*D_NET *73 0.00152775

*CONN
*I *201:Y O *C 32.67 31.64 *L 0 *D AND3X1
*I *198:AN I *C 36.63 33.32 *L 0.0022 *D NOR2BXL
*I *194:A0 I *C 33.99 33.32 *L 0.00341 *D AOI211XL

*CAP
1 *201:Y 8.34591e-05
2 *198:AN 0.00013984
3 *194:A0 0.00013984
4 *73:3 0.000106241
5 *73:4 0.000175921
6 *73:5 0.00016946
7 *73:6 0.000171429
8 *73:7 0.0001285
9 *73:8 0.000203880098
10 *73:9 0.0001342
11 *73:10 7.49785e-05

*RES
1 *73:3 *198:AN 3.20000005
2 *73:4 *73:3 0.624023
3 *73:5 *73:4 3.20000005
4 *73:9 *194:A0 3.20000005
5 *73:6 *73:5 0.671484
6 *73:8 *73:9 0.468018
7 *73:6 *73:10 0.189893
8 *73:7 *73:8 3.20000005
9 *73:7 *73:10 0.223828
10 *201:Y *73:7 0.447656
*END

*D_NET *74 0.00139312

*CONN
*I *200:Y O *C 24.09 59.08 *L 0 *D AOI2BB1XL
*I *196:A0N I *C 21.45 52.36 *L 0.00247 *D AOI2BB1XL

*CAP
1 *200:Y 0.000139841
2 *196:A0N 0.000139841
3 *74:2 0.00035368
4 *74:3 0.00041958
5 *74:4 0.00023788
6 *74:5 0.000102304

*RES
1 *74:5 *200:Y 3.20000005
2 *74:4 *74:5 0.468018
3 *74:3 *74:4 0.735449
4 *74:2 *74:3 1.404
5 *196:A0N *74:2 3.20000005
*END

*D_NET *75 0.00149422

*CONN
*I *199:Y O *C 25.41 31.64 *L 0 *D OAI2BB1XL
*I *191:A0 I *C 26.73 23.24 *L 0.00341 *D AOI211XL

*CAP
1 *199:Y 0.000139842
2 *191:A0 0.000139842
3 *75:2 0.00057846
4 *75:3 0.000563658
5 *75:4 7.24145e-05

*RES
1 *75:3 *191:A0 3.20000005
2 *75:3 *75:2 2.33999
3 *75:4 *75:2 0.183838
4 *199:Y *75:4 3.20000005
*END

*D_NET *76 0.000776668

*CONN
*I *198:Y O *C 37.95 33.88 *L 0 *D NOR2BXL
*I *195:D I *C 41.25 32.76 *L 0.00303 *D TLATNRX1

*CAP
1 *198:Y 3.986e-05
2 *195:D 0.000139839
3 *76:2 0.000151729
4 *76:3 0.00022262
5 *76:4 0.00022262

*RES
1 *76:4 *195:D 3.20000005
2 *76:3 *76:4 0.551562
3 *76:2 *76:3 3.20000005
4 *198:Y *76:2 0.223828
*END

*D_NET *77 0.00360541

*CONN
*I *197:Y O *C 29.37 33.88 *L 0 *D AOI31XL
*I *193:D I *C 49.83 32.76 *L 0.00303 *D TLATNRX1

*CAP
1 *197:Y 0.000139843
2 *193:D 0.000139843
3 *77:2 0.000250463
4 *77:3 0.000241758
5 *77:4 0.000130181
6 *77:5 0.000130181
7 *77:6 0.00047148
8 *77:7 0.000267463
9 *77:8 0.00047148
10 *77:9 0.000233326
11 *77:10 0.000163649
12 *77:11 0.00032845
13 *77:8 *17:10 0.00010628
14 *77:6 *17:11 0.00010628
15 *77:8 *17:11 1.463e-05
16 *77:6 *17:12 1.46299997e-05
17 *77:11 *45:15 3.678e-05
18 *77:7 *45:16 3.678e-05
19 *77:8 *45:16 5.853e-05
20 *77:6 *45:17 5.853e-05
21 *77:11 *45:16 6.204e-05
22 *77:7 *45:17 6.204e-05
23 *77:8 *45:17 4.038e-05
24 *77:6 *45:18 4.03799971e-05

*RES
1 *77:9 *193:D 3.20000005
2 *77:9 *77:10 0.468018
3 *77:11 *77:10 3.20000005
4 *77:7 *77:11 1.47085
5 *77:7 *77:8 0.156006
6 *77:6 *77:8 3.12559
7 *77:2 *77:6 0.156006
8 *77:3 *77:2 1.10312
9 *77:4 *77:3 3.20000005
10 *77:5 *77:4 0.156006
11 *197:Y *77:5 3.20000005
*END

*D_NET *78 0.000848959

*CONN
*I *196:Y O *C 24.09 51.8 *L 0 *D AOI2BB1XL
*I *189:A0N I *C 22.77 48.44 *L 0.00247 *D AOI2BB1XL

*CAP
1 *196:Y 0.000139839
2 *189:A0N 0.000139839
3 *78:2 0.000124802
4 *78:3 0.000110178
5 *78:4 0.00019468
6 *78:5 0.000139619

*RES
1 *78:5 *196:Y 3.20000005
2 *78:4 *78:5 0.77998
3 *78:3 *78:4 0.367725
4 *78:2 *78:3 0.156006
5 *189:A0N *78:2 3.20000005
*END

*D_NET *79 0.000939328

*CONN
*I *191:Y O *C 28.71 22.12 *L 0 *D AOI211XL
*I *188:D I *C 33.33 22.68 *L 0.00303 *D TLATNRX1

*CAP
1 *191:Y 0.00015946
2 *188:D 0.000139839
3 *79:2 0.000194789
4 *79:3 0.00022262
5 *79:4 0.00022262

*RES
1 *79:4 *188:D 3.20000005
2 *79:3 *79:4 0.551562
3 *79:2 *79:3 3.20000005
4 *191:Y *79:2 0.895312
*END

*D_NET *80 0.00698236

*CONN
*I *192:Y O *C 65.67 33.88 *L 0 *D NAND2BX1
*I *159:A I *C 69.63 63.56 *L 0.00317 *D NOR2XL
*I *158:A I *C 64.35 63.56 *L 0.00317 *D NOR2XL
*I *156:A I *C 66.99 43.4 *L 0.00317 *D NOR2XL
*I *149:A I *C 67.65 57.4 *L 0.00317 *D NOR2XL
*I *146:A I *C 64.35 47.32 *L 0.00317 *D NOR2XL
*I *143:A I *C 62.37 63.56 *L 0.00317 *D NOR2XL
*I *142:A I *C 67.65 63.56 *L 0.00317 *D NOR2XL
*I *140:A I *C 65.01 53.48 *L 0.00317 *D NOR2XL

*CAP
1 *192:Y 0.000139837
2 *159:A 6.32992e-05
3 *158:A 6.32992e-05
4 *156:A 6.32992e-05
5 *149:A 6.32992e-05
6 *146:A 6.32992e-05
7 *143:A 6.32992e-05
8 *142:A 6.32992e-05
9 *140:A 6.32992e-05
10 *80:9 0.000617504
11 *80:10 0.000842296719
12 *80:11 0.000487641
13 *80:12 0.000392326
14 *80:13 0.00047556
15 *80:14 9.01226e-05
16 *80:15 0.000185451
17 *80:16 6.57155e-05
18 *80:17 0.000116715
19 *80:18 0.000160169
20 *80:19 0.000166968
21 *80:20 0.000669635
22 *80:21 0.000335608
23 *80:22 0.000330775
24 *80:23 0.000275715
25 *80:24 0.000505622
26 *80:25 0.000465368
27 *80:26 0.000152946

*RES
1 *80:23 *156:A 6.4000001
2 *80:12 *192:Y 3.2
3 *80:22 *80:23 0.936035
4 *80:12 *80:11 1.71602
5 *80:11 *80:22 0.367676
6 *80:16 *146:A 6.4000001
7 *80:13 *80:11 0.183887
8 *80:26 *159:A 6.4000001
9 *80:16 *80:10 0.183887
10 *80:13 *80:10 2.02803
11 *80:25 *142:A 6.4000001
12 *80:25 *80:26 0.551562
13 *80:9 *140:A 6.4000001
14 *80:10 *80:9 1.71602
15 *80:24 *149:A 6.4000001
16 *80:24 *80:25 1.71602
17 *80:9 *80:20 1.09199
18 *80:20 *80:24 0.735449
19 *80:20 *80:21 1.404
20 *80:17 *80:21 0.183887
21 *80:18 *158:A 6.4000001
22 *80:17 *80:18 0.312012
23 *80:18 *80:19 0.312012
24 *80:15 *80:19 0.551562
25 *80:14 *80:15 0.312012
26 *143:A *80:14 6.4000001
*END

*D_NET *81 0.0014138

*CONN
*I *189:Y O *C 25.41 49 *L 0 *D AOI2BB1XL
*I *185:A0N I *C 22.77 42.28 *L 0.00247 *D AOI2BB1XL

*CAP
1 *189:Y 0.00013984
2 *185:A0N 0.00013984
3 *81:2 0.000171161
4 *81:3 0.000306743
5 *81:4 0.000295162
6 *81:5 0.00036106

*RES
1 *81:2 *189:Y 3.20000005
2 *81:3 *81:2 0.77998
3 *81:5 *81:3 0.735449
4 *81:4 *81:5 1.09199
5 *185:A0N *81:4 3.20000005
*END

*D_NET *82 0.00575029

*CONN
*I *190:Y O *C 65.67 28.28 *L 0 *D NAND2X1
*I *160:A I *C 67.65 47.32 *L 0.00317 *D NOR2XL
*I *157:A I *C 68.97 53.48 *L 0.00317 *D NOR2XL
*I *150:A I *C 68.31 23.24 *L 0.00317 *D NOR2XL
*I *148:A I *C 70.29 23.24 *L 0.00317 *D NOR2XL
*I *147:A I *C 68.97 43.4 *L 0.00317 *D NOR2XL
*I *145:A I *C 68.31 37.24 *L 0.00317 *D NOR2XL
*I *144:A I *C 66.99 53.48 *L 0.00317 *D NOR2XL
*I *141:A I *C 68.31 33.32 *L 0.00317 *D NOR2XL

*CAP
1 *190:Y 0.00012676
2 *160:A 6.32985e-05
3 *157:A 6.32985e-05
4 *150:A 6.32985e-05
5 *148:A 6.32985e-05
6 *147:A 6.32985e-05
7 *145:A 6.32985e-05
8 *144:A 6.32985e-05
9 *141:A 6.32985e-05
10 *82:9 0.000482394
11 *82:10 0.000278322
12 *82:11 0.000226719
13 *82:12 0.00045748
14 *82:13 0.00066886
15 *82:14 0.000536221
16 *82:15 0.000616768
17 *82:16 7.24228e-05
18 *82:17 9.0998e-05
19 *82:18 0.000324096
20 *82:19 0.000162094
21 *82:20 0.000605296
22 *82:21 8.47825e-05
23 *82:22 0.000139834
24 *82:23 0.000105981
25 *82:24 8.47825e-05
26 *82:25 0.000180098

*RES
1 *82:16 *144:A 6.4000001
2 *82:23 *157:A 6.4000001
3 *82:21 *147:A 6.4000001
4 *82:16 *82:14 0.183887
5 *82:14 *82:23 0.367676
6 *82:21 *82:22 0.312012
7 *82:15 *160:A 6.4000001
8 *82:15 *82:14 1.71602
9 *82:9 *82:22 0.367676
10 *82:9 *82:15 0.77998
11 *82:10 *82:9 1.09199
12 *82:24 *148:A 6.4000001
13 *82:10 *82:11 0.183887
14 *82:17 *150:A 6.4000001
15 *82:24 *82:25 0.312012
16 *82:12 *145:A 6.4000001
17 *82:12 *82:11 0.936035
18 *82:17 *82:18 0.312012
19 *82:18 *82:25 0.551562
20 *82:13 *141:A 6.4000001
21 *82:13 *82:12 1.09199
22 *82:18 *82:20 0.624023
23 *82:20 *82:13 1.87197
24 *82:19 *82:20 3.2
25 *190:Y *82:19 0.671484
*END

*D_NET *83 0.00198203

*CONN
*I *187:Y O *C 48.51 54.04 *L 0 *D NAND2XL
*I *177:A I *C 41.25 57.4 *L 0.00317 *D NOR2XL
*I *176:A I *C 48.51 57.4 *L 0.00317 *D NOR2XL

*CAP
1 *187:Y 0.000139841
2 *177:A 6.33008e-05
3 *176:A 6.33008e-05
4 *83:3 0.000276194
5 *83:4 0.000202312
6 *83:5 0.000485075
7 *83:6 0.00055475
8 *83:7 7.10717e-05
9 *83:8 7.10717e-05
10 *83:9 5.51237e-05

*RES
1 *83:4 *187:Y 3.2
2 *83:9 *176:A 6.4000001
3 *83:4 *83:3 0.77998
4 *83:3 *83:9 0.155957
5 *83:5 *83:3 3.2
6 *83:7 *177:A 6.4000001
7 *83:6 *83:5 2.02246
8 *83:8 *83:7 0.155957
9 *83:8 *83:6 3.2
*END

*D_NET *84 0.00118918

*CONN
*I *186:Y O *C 43.23 43.96 *L 0 *D NAND2XL
*I *179:A I *C 39.93 47.32 *L 0.00317 *D NOR2XL
*I *178:A I *C 39.93 43.4 *L 0.00317 *D NOR2XL

*CAP
1 *186:Y 0.000126002
2 *179:A 6.33023e-05
3 *178:A 6.33023e-05
4 *84:3 5.51194e-05
5 *84:4 0.00031124
6 *84:5 0.000226523
7 *84:6 0.000161331
8 *84:7 0.00018236

*RES
1 *84:6 *186:Y 0.671484
2 *84:5 *179:A 6.4000001
3 *84:7 *84:6 3.2
4 *84:4 *84:5 0.936035
5 *84:4 *84:7 0.367676
6 *84:3 *84:4 0.155957
7 *178:A *84:3 6.4000001
*END

*D_NET *85 0.00105087

*CONN
*I *185:Y O *C 25.41 41.72 *L 0 *D AOI2BB1XL
*I *184:A0N I *C 26.73 38.36 *L 0.00247 *D AOI2BB1XL

*CAP
1 *185:Y 8.23985e-05
2 *184:A0N 0.000139843
3 *85:2 0.0002762
4 *85:3 0.0002762
5 *85:4 0.000156532
6 *85:5 0.000119701

*RES
1 *85:3 *184:A0N 3.20000005
2 *85:3 *85:2 0.77998
3 *85:4 *85:2 3.20000005
4 *85:4 *85:5 0.189893
5 *185:Y *85:5 0.447656
*END

*D_NET *86 0.000616117

*CONN
*I *184:Y O *C 29.37 38.92 *L 0 *D AOI2BB1XL
*I *183:A0N I *C 33.33 38.36 *L 0.00247 *D AOI2BB1XL

*CAP
1 *184:Y 0.00016719
2 *183:A0N 0.00010357
3 *86:2 0.00014087
4 *86:3 0.00020449

*RES
1 *86:2 *183:A0N 0.447652
2 *86:2 *86:3 0.189919
3 *184:Y *86:3 0.895304322
*END

*D_NET *87 0.00053057

*CONN
*I *183:Y O *C 35.97 38.92 *L 0 *D AOI2BB1XL
*I *182:D I *C 38.61 37.8 *L 0.00303 *D TLATNRX1

*CAP
1 *183:Y 4.12101e-05
2 *182:D 6.32993e-05
3 *87:2 7.65401e-05
4 *87:3 0.00010598
5 *87:4 6.878e-05
6 *87:5 0.00010904
7 *87:6 6.57202e-05

*RES
1 *87:6 *182:D 6.4000001
2 *87:4 *87:6 0.183887
3 *87:4 *87:5 0.155957
4 *87:3 *87:5 0.367676
5 *87:2 *87:3 6.4000001
6 *183:Y *87:2 0.223828
*END

*D_NET *88 0.00139866

*CONN
*I *181:Y O *C 50.49 36.68 *L 0 *D OR2X1
*I *175:A I *C 49.83 43.4 *L 0.00317 *D NOR2XL
*I *174:A I *C 51.81 37.24 *L 0.00317 *D NOR2XL

*CAP
1 *181:Y 0.000139837
2 *175:A 6.32993e-05
3 *174:A 6.32993e-05
4 *88:3 0.000201580293
5 *88:4 0.000186779
6 *88:5 0.00013463
7 *88:6 0.00017075
8 *88:7 0.000105981
9 *88:4 *36:11 0.00015739
10 *88:3 *36:12 0.00015739
11 *88:6 *36:12 8.86e-06
12 *88:5 *36:13 8.86001293e-06

*RES
1 *88:7 *174:A 6.4000001
2 *88:5 *88:7 0.367676
3 *88:4 *175:A 6.4000001
4 *88:5 *88:6 0.467969
5 *88:6 *181:Y 3.2
6 *88:3 *88:4 1.24805
7 *88:3 *88:6 0.183887
*END

*D_NET *89 0.0022278

*CONN
*I *180:Y O *C 41.91 54.04 *L 0 *D OR2X1
*I *173:A I *C 49.17 47.32 *L 0.00317 *D NOR2XL
*I *172:A I *C 43.23 53.48 *L 0.00317 *D NOR2XL

*CAP
1 *180:Y 3.98602e-05
2 *173:A 6.3303e-05
3 *172:A 6.3303e-05
4 *89:3 0.000122963
5 *89:4 0.000192637
6 *89:5 8.0607e-05
7 *89:6 7.7162e-05
8 *89:7 0.000308914
9 *89:8 0.00037011
10 *89:9 0.000142097
11 *89:10 0.000350564
12 *89:11 0.000310297
13 *89:12 0.000105981

*RES
1 *89:12 *173:A 6.4000001
2 *89:10 *89:12 0.367676
3 *89:10 *89:11 1.24805
4 *89:3 *172:A 6.4000001
5 *89:9 *89:11 0.183887
6 *89:4 *89:3 0.467969
7 *89:8 *89:9 3.2
8 *89:7 *89:4 3.2
9 *89:7 *89:8 1.34297
10 *89:5 *89:7 0.223828
11 *89:5 *89:6 0.189941
12 *180:Y *89:6 0.223828
*END

*D_NET *90 0.00176629

*CONN
*I *179:Y O *C 40.59 47.88 *L 0 *D NOR2XL
*I *170:A I *C 36.63 47.88 *L 0.00403 *D NAND2X1
*I *164:A I *C 36.63 52.92 *L 0.00403 *D NAND2X1

*CAP
1 *179:Y 7.97311e-05
2 *170:A 0.000139841
3 *164:A 0.000139841
4 *90:3 0.000160816
5 *90:4 0.00020929
6 *90:5 0.00037435
7 *90:6 0.00033413
8 *90:7 0.000117032
9 *90:8 0.000211261

*RES
1 *90:7 *179:Y 0.447656
2 *90:7 *90:8 0.189893
3 *90:6 *164:A 3.20000005
4 *90:4 *90:8 0.895312
5 *90:5 *90:6 1.09199
6 *90:5 *90:4 3.20000005
7 *90:3 *90:5 0.312012
8 *170:A *90:3 3.20000005
*END

*D_NET *91 0.00121183

*CONN
*I *178:Y O *C 40.59 42.84 *L 0 *D NOR2XL
*I *171:A I *C 37.95 42.84 *L 0.00403 *D NAND2X1
*I *169:A I *C 35.97 42.84 *L 0.00403 *D NAND2X1

*CAP
1 *178:Y 7.97288e-05
2 *171:A 0.00013984
3 *169:A 6.32977e-05
4 *91:3 0.000152941
5 *91:4 0.00011879
6 *91:5 0.00015871
7 *91:6 0.00026073
8 *91:7 0.000120759
9 *91:8 0.000117031

*RES
1 *91:8 *178:Y 0.447656
2 *91:7 *91:8 0.189941
3 *91:4 *91:7 0.447656
4 *91:5 *91:4 3.2
5 *91:6 *171:A 3.2
6 *91:5 *91:6 0.312012
7 *91:3 *91:6 0.551562
8 *169:A *91:3 6.4000001
*END

*D_NET *92 0.00170635

*CONN
*I *177:Y O *C 41.91 57.96 *L 0 *D NOR2XL
*I *166:A I *C 42.57 63 *L 0.00403 *D NAND2X1
*I *165:A I *C 40.59 63 *L 0.00403 *D NAND2X1

*CAP
1 *177:Y 3.73025e-05
2 *166:A 0.00013984
3 *165:A 0.00013984
4 *92:3 0.000117729
5 *92:4 0.000274178
6 *92:5 0.00036861
7 *92:6 0.00016393
8 *92:7 0.000119698
9 *92:8 0.000185433
10 *92:9 0.00015979

*RES
1 *92:9 *166:A 3.20000005
2 *92:8 *92:9 0.312012
3 *92:6 *165:A 3.20000005
4 *92:5 *92:8 0.551562
5 *92:5 *92:6 0.312012
6 *92:4 *92:5 0.77998
7 *177:Y *92:7 0.189893
8 *92:3 *92:4 3.20000005
9 *92:3 *92:7 0.447656
*END

*D_NET *93 0.00172781

*CONN
*I *176:Y O *C 49.17 57.96 *L 0 *D NOR2XL
*I *168:A I *C 51.15 63 *L 0.00403 *D NAND2X1
*I *167:A I *C 49.17 63 *L 0.00403 *D NAND2X1

*CAP
1 *176:Y 0.000119594
2 *168:A 0.000139838
3 *167:A 0.000139838
4 *93:3 0.000180098
5 *93:4 0.000154458
6 *93:5 0.000154922
7 *93:6 0.000297561
8 *93:7 0.00038478
9 *93:8 0.000156719

*RES
1 *93:4 *167:A 3.20000005
2 *93:3 *93:4 0.312012
3 *93:8 *168:A 3.20000005
4 *93:3 *93:7 0.551562
5 *93:7 *93:8 0.312012
6 *93:6 *93:7 0.935986
7 *93:5 *93:6 3.20000005
8 *176:Y *93:5 0.671484
*END

*D_NET *94 0.00203482

*CONN
*I *175:Y O *C 50.49 42.84 *L 0 *D NOR2XL
*I *163:A I *C 51.15 47.88 *L 0.00403 *D NAND2X1
*I *154:A I *C 52.47 52.92 *L 0.00403 *D NAND2X1

*CAP
1 *175:Y 0.000139843
2 *163:A 0.000139843
3 *154:A 0.000139843
4 *94:3 0.00010977
5 *94:4 0.000164652
6 *94:5 0.000270902
7 *94:6 0.00037454
8 *94:7 0.000186901
9 *94:8 0.000246962
10 *94:9 0.000261581

*RES
1 *94:9 *154:A 3.20000005
2 *94:8 *94:9 0.77998
3 *94:7 *94:8 0.367725
4 *94:6 *163:A 3.20000005
5 *94:6 *94:7 0.624023
6 *94:5 *94:6 1.09199
7 *94:3 *94:5 0.183838
8 *94:4 *94:3 0.312012
9 *175:Y *94:4 3.20000005
*END

*D_NET *95 0.00159389

*CONN
*I *174:Y O *C 52.47 37.8 *L 0 *D NOR2XL
*I *161:A I *C 51.81 42.84 *L 0.00403 *D NAND2X1
*I *155:A I *C 53.79 37.8 *L 0.00403 *D NAND2X1

*CAP
1 *174:Y 0.00013984
2 *161:A 0.00013984
3 *155:A 0.00013984
4 *95:3 0.00035765
5 *95:4 9.43692e-05
6 *95:5 0.0001421
7 *95:6 0.00024848
8 *95:7 0.00017319
9 *95:8 0.00015857

*RES
1 *95:7 *155:A 3.20000005
2 *95:4 *174:Y 3.20000005
3 *95:7 *95:8 0.468018
4 *95:4 *95:3 0.312012
5 *95:3 *95:8 0.367725
6 *95:3 *95:6 0.935986
7 *95:5 *95:6 0.183838
8 *161:A *95:5 3.20000005
*END

*D_NET *96 0.00141171

*CONN
*I *173:Y O *C 49.83 47.88 *L 0 *D NOR2XL
*I *162:A I *C 53.13 47.88 *L 0.00403 *D NAND2X1
*I *152:A I *C 55.11 47.88 *L 0.00403 *D NAND2X1

*CAP
1 *173:Y 3.73015e-05
2 *162:A 0.00013984
3 *152:A 0.00013984
4 *96:3 0.00025461
5 *96:4 0.000268278301
6 *96:5 0.000252641
7 *96:6 9.65818e-05
8 *96:7 0.000222622

*RES
1 *96:7 *152:A 3.2
2 *96:4 *162:A 3.2
3 *96:4 *96:7 0.551562
4 *96:4 *96:6 0.312012
5 *96:5 *96:6 6.4000001
6 *96:3 *96:5 1.11914
7 *173:Y *96:3 0.189941
*END

*D_NET *97 0.00174012

*CONN
*I *172:Y O *C 43.89 52.92 *L 0 *D NOR2XL
*I *153:A I *C 39.27 57.96 *L 0.00403 *D NAND2X1
*I *151:A I *C 43.23 57.96 *L 0.00403 *D NAND2X1

*CAP
1 *172:Y 0.000139839
2 *153:A 6.32999e-05
3 *151:A 0.000139839
4 *97:3 0.000190498
5 *97:4 0.000245378
6 *97:5 0.00016142
7 *97:6 0.000176219
8 *97:7 0.000286350488
9 *97:8 0.000216667
10 *97:9 0.000120601

*RES
1 *97:4 *172:Y 3.2
2 *97:4 *97:3 0.624023
3 *97:6 *97:3 0.183887
4 *97:5 *151:A 3.2
5 *97:6 *97:5 0.77998
6 *97:7 *97:5 3.2
7 *97:8 *97:7 1.10312
8 *97:9 *97:8 3.2
9 *153:A *97:9 6.4000001
*END

*D_NET *98 0.00687397

*CONN
*I *171:Y O *C 37.95 42.28 *L 0 *D NAND2X1
*I *159:B I *C 68.97 63 *L 0.00274 *D NOR2XL
*I *138:A I *C 55.77 63.56 *L 0.00478 *D NAND4X1

*CAP
1 *171:Y 0.000139838
2 *159:B 6.33042e-05
3 *138:A 6.33042e-05
4 *98:3 0.000433521
5 *98:4 0.00045365
6 *98:5 0.000144633
7 *98:6 0.000129841
8 *98:7 0.000160762
9 *98:8 8.57452e-05
10 *98:9 0.000591817734
11 *98:10 0.000591817734
12 *98:11 0.000469454
13 *98:12 0.000512313
14 *98:13 0.00041555
15 *98:14 0.00041555
16 *98:15 0.000558793
17 *98:16 0.000550097
18 *98:17 0.000333164
19 *98:18 0.000412958
20 *98:19 0.000112584
21 *98:20 6.06854e-05
22 *98:21 0.000123655
23 *98:22 5.09233e-05

*RES
1 *98:22 *159:B 6.4000001
2 *98:11 *98:22 6.4000001
3 *98:20 *138:A 6.4000001
4 *98:12 *98:11 2.20625
5 *98:20 *98:21 0.155957
6 *98:12 *98:17 0.312012
7 *98:18 *98:21 3.2
8 *98:18 *98:17 1.28701
9 *98:19 *98:18 0.367676
10 *98:19 *98:13 0.155957
11 *98:14 *98:13 2.02246
12 *98:15 *98:14 0.155957
13 *98:16 *98:15 2.75781
14 *98:7 *98:16 3.2
15 *98:8 *98:7 0.467969
16 *98:8 *98:9 0.0918945
17 *98:10 *98:9 2.65195
18 *98:6 *171:Y 3.2
19 *98:3 *98:10 0.0918945
20 *98:6 *98:5 0.467969
21 *98:4 *98:3 2.02803
22 *98:4 *98:5 0.183887
*END

*D_NET *99 0.00533391

*CONN
*I *170:Y O *C 36.63 48.44 *L 0 *D NAND2X1
*I *157:B I *C 68.31 52.92 *L 0.00274 *D NOR2XL
*I *136:A I *C 61.05 47.32 *L 0.00478 *D NAND4X1

*CAP
1 *170:Y 8.82729e-05
2 *157:B 6.33034e-05
3 *136:A 6.33034e-05
4 *99:3 0.000200153
5 *99:4 0.000402137
6 *99:5 0.000395426
7 *99:6 0.000271856
8 *99:7 0.000245028
9 *99:8 0.000351049
10 *99:9 0.000351049
11 *99:10 0.000122819
12 *99:11 0.000131203
13 *99:12 0.000120591
14 *99:13 0.000726769
15 *99:14 5.0918e-05
16 *99:15 0.00092976
17 *99:16 0.000250873
18 *99:15 *104:14 0.00016234
19 *99:13 *104:15 0.00016234
20 *99:8 *104:16 7.013e-05
21 *99:9 *104:17 7.013e-05
22 *99:8 *104:18 5.223e-05
23 *99:9 *104:19 5.22299932e-05

*RES
1 *99:4 *157:B 6.4000001
2 *99:5 *99:4 1.24805
3 *99:6 *99:5 3.2
4 *99:7 *99:6 0.919238
5 *99:14 *136:A 6.4000001
6 *99:16 *99:7 0.312012
7 *99:15 *99:14 6.4000001
8 *99:15 *99:16 0.919238
9 *99:13 *99:15 4.04482
10 *99:8 *99:13 0.0780273
11 *99:9 *99:8 1.83857
12 *99:10 *99:9 0.0780273
13 *99:11 *99:10 0.551562
14 *99:12 *99:11 3.2
15 *99:3 *99:12 3.2
16 *170:Y *99:3 0.447656
*END

*D_NET *100 0.00521399

*CONN
*I *169:Y O *C 35.97 42.28 *L 0 *D NAND2X1
*I *160:B I *C 66.99 47.88 *L 0.00274 *D NOR2XL
*I *137:A I *C 63.03 43.4 *L 0.00478 *D NAND4X1

*CAP
1 *169:Y 0.000139846
2 *160:B 3.98492e-05
3 *137:A 6.33007e-05
4 *100:3 0.000127747
5 *100:4 6.47778e-05
6 *100:5 0.000301666
7 *100:6 0.000362643
8 *100:7 0.000472116
9 *100:8 0.000472116
10 *100:9 0.000178367
11 *100:10 0.00108768
12 *100:11 0.000899255
13 *100:12 0.000248987
14 *100:13 0.000318661
15 *100:14 0.00012061
16 *100:15 7.51675e-05
17 *100:16 0.00012061
18 *100:17 0.00012061

*RES
1 *100:15 *160:B 0.223828
2 *100:16 *100:15 3.2
3 *100:17 *100:16 3.2
4 *100:12 *100:17 3.2
5 *100:4 *137:A 6.4000001
6 *100:13 *100:12 1.09199
7 *100:4 *100:3 0.155957
8 *100:9 *100:13 3.2
9 *100:10 *100:3 3.2
10 *100:10 *100:9 0.735449
11 *100:11 *100:10 3.86104
12 *100:7 *100:11 0.155957
13 *100:8 *100:7 2.20625
14 *100:8 *100:5 0.155957
15 *100:6 *100:5 1.4709
16 *100:14 *100:6 3.2
17 *169:Y *100:14 3.2
*END

*D_NET *101 0.0033543

*CONN
*I *168:Y O *C 51.15 62.44 *L 0 *D NAND2X1
*I *149:B I *C 66.99 57.96 *L 0.00274 *D NOR2XL
*I *138:D I *C 54.45 63.56 *L 0.00447 *D NAND4X1

*CAP
1 *168:Y 6.40719e-05
2 *149:B 0.000411787
3 *138:D 7.85971e-05
4 *101:3 0.000317099
5 *101:4 0.000317099
6 *101:5 0.000150032
7 *101:6 0.000530507
8 *101:7 0.000600193242
9 *101:8 0.000447111
10 *101:9 0.000120597
11 *101:3 *102:3 0.00013843
12 *101:4 *102:4 0.00013843
13 *101:5 *102:16 2.017e-05
14 *168:Y *102:15 2.01700044e-05

*RES
1 *101:8 *149:B 2.23828
2 *101:9 *101:8 3.20000005
3 *101:6 *101:9 3.20000005
4 *101:7 *101:6 2.02241
5 *101:4 *101:7 3.20000005
6 *101:4 *101:3 1.404
7 *101:5 *101:3 3.20000005
8 *101:5 *138:D 0.447656
9 *168:Y *101:5 0.447656
*END

*D_NET *102 0.00851919

*CONN
*I *167:Y O *C 49.17 62.44 *L 0 *D NAND2X1
*I *150:B I *C 67.65 22.68 *L 0.00274 *D NOR2XL
*I *137:D I *C 61.71 43.4 *L 0.00447 *D NAND4X1

*CAP
1 *167:Y 3.73018e-05
2 *150:B 3.98362e-05
3 *137:D 0.000331973
4 *102:3 0.000565689
5 *102:4 0.000635369
6 *102:5 0.00045709
7 *102:6 0.00076688
8 *102:7 0.000430391
9 *102:8 0.000954539688
10 *102:9 0.000954539688
11 *102:10 0.000547103
12 *102:11 0.000547103
13 *102:12 0.000367309
14 *102:13 0.000183669
15 *102:14 0.000183669
16 *102:15 0.000203784
17 *102:16 0.000278344
18 *102:17 7.51717e-05
19 *102:5 *118:8 1.556e-05
20 *102:6 *118:7 1.556e-05
21 *102:5 *118:6 4.317e-05
22 *102:6 *118:4 4.317e-05
23 *102:6 *118:8 2.426e-05
24 *102:7 *118:7 2.426e-05
25 *102:6 *118:3 4.687e-05
26 *102:7 *118:2 4.68700054e-05
27 *102:5 *112:3 2.089e-05
28 *102:6 *112:4 2.089e-05
29 *102:5 *112:5 1.734e-05
30 *102:6 *112:6 1.734e-05
31 *102:3 *112:5 5.875e-05
32 *102:4 *112:6 5.875e-05
33 *102:3 *112:5 9.427e-05
34 *102:4 *112:6 9.42700004e-05
35 *102:3 *101:3 0.00013843
36 *102:4 *101:4 0.00013843
37 *102:16 *101:5 2.017e-05
38 *102:15 *168:Y 2.01700044e-05

*RES
1 *102:17 *150:B 0.223831
2 *102:9 *102:17 3.20002
3 *102:9 *102:8 3.74399996
4 *102:10 *102:8 3.20002
5 *102:11 *102:10 2.94174
6 *102:12 *137:D 1.79059
7 *102:7 *102:11 3.20002
8 *102:6 *102:12 3.20002
9 *102:7 *102:6 2.02802
10 *102:6 *102:5 1.872
11 *102:13 *102:5 3.20002
12 *102:14 *102:13 0.73542
13 *102:4 *102:14 3.20002
14 *102:4 *102:3 3.276
15 *102:16 *102:3 3.20002
16 *102:15 *102:16 1.34293
17 *102:15 *167:Y 0.189896
*END

*D_NET *103 0.00677306

*CONN
*I *166:Y O *C 42.57 62.44 *L 0 *D NAND2X1
*I *156:B I *C 66.33 42.84 *L 0.00274 *D NOR2XL
*I *139:C I *C 55.11 57.4 *L 0.00345 *D NAND4XL

*CAP
1 *166:Y 7.97042e-05
2 *156:B 0.000139838
3 *139:C 3.73058e-05
4 *103:3 0.000353653
5 *103:4 0.000353653
6 *103:5 0.000248698
7 *103:6 0.000179014
8 *103:7 0.000770756094
9 *103:8 0.000770756094
10 *103:9 0.000679467
11 *103:10 0.000467817
12 *103:11 0.000156586
13 *103:12 0.000156586
14 *103:13 0.000225046
15 *103:14 0.000115022
16 *103:15 0.00025432
17 *103:16 0.000764276
18 *103:17 0.000764276
19 *103:18 0.000256284

*RES
1 *103:6 *156:B 3.2
2 *103:6 *103:5 0.780002
3 *103:7 *103:5 3.2
4 *103:18 *139:C 0.189923
5 *103:8 *103:7 3.30944
6 *103:15 *103:18 1.11911
7 *103:16 *103:8 3.2
8 *103:12 *103:15 3.2
9 *103:16 *103:17 3.58800006
10 *103:12 *103:11 0.46799
11 *103:13 *103:17 3.2
12 *103:9 *103:11 3.2
13 *103:9 *103:13 0.735437
14 *103:10 *103:9 2.02241
15 *103:4 *103:10 3.2
16 *103:4 *103:3 1.24799
17 *103:14 *103:3 3.2
18 *166:Y *103:14 0.447679
*END

*D_NET *104 0.0122723

*CONN
*I *165:Y O *C 40.59 62.44 *L 0 *D NAND2X1
*I *148:B I *C 69.63 22.68 *L 0.00274 *D NOR2XL
*I *136:D I *C 59.73 47.32 *L 0.00447 *D NAND4X1

*CAP
1 *165:Y 6.32741e-05
2 *148:B 0.000139831
3 *136:D 0.000170573
4 *104:3 0.000320233
5 *104:4 0.000320233
6 *104:5 0.000117159
7 *104:6 0.000117159
8 *104:7 0.000282425
9 *104:8 0.00105531
10 *104:9 0.00105531
11 *104:10 0.000522836
12 *104:11 0.000514137
13 *104:12 0.000186588
14 *104:13 0.000125606
15 *104:14 0.000619176
16 *104:15 0.000541143
17 *104:16 0.000277087
18 *104:17 0.000277087
19 *104:18 0.000105729
20 *104:19 0.000114113
21 *104:20 0.000161184
22 *104:21 0.000161184
23 *104:22 9.86008e-05
24 *104:23 0.000821716
25 *104:24 0.0020579
26 *104:25 0.0013568
27 *104:26 0.000120613
28 *104:14 *99:15 0.00016234
29 *104:15 *99:13 0.00016234
30 *104:16 *99:8 7.013e-05
31 *104:17 *99:9 7.013e-05
32 *104:18 *99:8 5.223e-05
33 *104:19 *99:9 5.22299932e-05

*RES
1 *104:7 *136:D 0.895281
2 *104:5 *104:7 3.20002
3 *104:26 *148:B 3.20002
4 *104:6 *104:5 0.312024
5 *104:12 *104:26 3.20002
6 *104:14 *104:6 3.20002
7 *104:13 *104:12 0.36771
8 *104:15 *104:14 2.57397
9 *104:13 *104:8 0.155962
10 *104:16 *104:15 0.077981
11 *104:9 *104:8 5.14804
12 *104:17 *104:16 1.28699
13 *104:10 *104:9 0.155962
14 *104:17 *104:18 0.077981
15 *104:11 *104:10 2.39012
16 *104:19 *104:18 0.551565
17 *104:25 *104:11 3.20002
18 *104:24 *104:19 3.20002
19 *104:25 *104:24 6.55200005
20 *104:24 *104:23 3.58802
21 *104:20 *104:23 3.20002
22 *104:22 *165:Y 0.447691
23 *104:21 *104:20 0.551565
24 *104:3 *104:22 3.20002
25 *104:4 *104:21 3.20002
26 *104:4 *104:3 0.935971
*END

*D_NET *105 0.00505484

*CONN
*I *164:Y O *C 36.63 52.36 *L 0 *D NAND2X1
*I *158:B I *C 63.69 63 *L 0.00274 *D NOR2XL
*I *138:B I *C 56.43 63 *L 0.00465 *D NAND4X1

*CAP
1 *164:Y 0.000139833
2 *158:B 0.000139833
3 *138:B 6.32986e-05
4 *105:3 0.000149196
5 *105:4 0.000212171
6 *105:5 0.000119264
7 *105:6 0.00018895
8 *105:7 0.000409123
9 *105:8 0.00151121
10 *105:9 0.00118517
11 *105:10 0.000468386
12 *105:11 0.000468386

*RES
1 *105:5 *158:B 3.2
2 *105:3 *138:B 6.4000001
3 *105:6 *105:5 0.624023
4 *105:4 *105:3 0.624023
5 *105:7 *105:6 3.2
6 *105:8 *105:4 3.2
7 *105:8 *105:7 2.02246
8 *105:9 *105:8 5.33184
9 *105:11 *105:9 3.2
10 *105:10 *105:11 1.87197
11 *164:Y *105:10 3.2
*END

*D_NET *106 0.00389283

*CONN
*I *163:Y O *C 51.15 48.44 *L 0 *D NAND2X1
*I *145:B I *C 67.65 37.8 *L 0.00274 *D NOR2XL
*I *137:B I *C 63.69 42.84 *L 0.00465 *D NAND4X1

*CAP
1 *163:Y 0.000139836
2 *145:B 0.000251482
3 *137:B 6.33002e-05
4 *106:3 0.000208915
5 *106:4 0.00026397
6 *106:5 0.000362489
7 *106:6 0.000362489
8 *106:7 0.00018648
9 *106:8 0.000201098
10 *106:9 0.000205009
11 *106:10 0.000213711
12 *106:11 0.000154094
13 *106:12 0.0003742
14 *106:13 0.00016279
15 *106:14 0.0003742
16 *106:15 0.000288779
17 *106:16 7.99904e-05

*RES
1 *106:15 *145:B 1.34297
2 *106:15 *106:16 0.189941
3 *106:6 *106:16 6.4000001
4 *106:5 *137:B 6.4000001
5 *106:6 *106:5 1.24805
6 *106:9 *106:5 6.4000001
7 *106:10 *106:9 0.735449
8 *106:14 *106:10 0.155957
9 *106:12 *106:14 1.65469
10 *106:12 *106:13 0.155957
11 *106:11 *106:13 0.551562
12 *106:8 *106:11 3.2
13 *106:8 *106:7 0.467969
14 *106:3 *163:Y 3.2
15 *106:4 *106:7 0.367676
16 *106:4 *106:3 0.624023
*END

*D_NET *107 0.00290108

*CONN
*I *162:Y O *C 53.13 48.44 *L 0 *D NAND2X1
*I *144:B I *C 66.33 52.92 *L 0.00274 *D NOR2XL
*I *136:C I *C 60.39 47.32 *L 0.00463 *D NAND4X1

*CAP
1 *162:Y 3.73035e-05
2 *144:B 7.4594e-05
3 *136:C 0.000139838
4 *107:3 0.000249075
5 *107:4 0.00026387
6 *107:5 0.000161441
7 *107:6 0.00017606
8 *107:7 0.00042942
9 *107:8 0.000427448
10 *107:9 0.000142098
11 *107:10 0.000418615
12 *107:11 0.000381331

*RES
1 *107:11 *144:B 0.379834
2 *107:10 *107:11 1.79062
3 *107:3 *107:10 3.20000005
4 *107:6 *136:C 3.20000005
5 *107:4 *107:3 0.77998
6 *107:6 *107:5 0.468018
7 *107:5 *107:4 0.183838
8 *107:9 *107:5 0.183838
9 *107:8 *107:9 3.20000005
10 *107:7 *107:8 2.01445
11 *162:Y *107:7 0.189893
*END

*D_NET *108 0.00324331

*CONN
*I *161:Y O *C 51.81 42.28 *L 0 *D NAND2X1
*I *147:B I *C 68.31 42.84 *L 0.00274 *D NOR2XL
*I *137:C I *C 62.37 43.4 *L 0.00463 *D NAND4X1

*CAP
1 *161:Y 3.73007e-05
2 *147:B 0.000139842
3 *137:C 0.000139842
4 *108:3 0.00018658
5 *108:4 0.000208093
6 *108:5 0.000190052
7 *108:6 0.000120373
8 *108:7 0.000645462
9 *108:8 0.00072003
10 *108:9 0.000142105
11 *108:10 0.000321984
12 *108:11 0.000391663

*RES
1 *108:5 *147:B 3.20000005
2 *108:6 *108:5 0.312012
3 *108:11 *108:6 3.20000005
4 *108:10 *108:11 1.65474
5 *108:3 *137:C 3.20000005
6 *108:4 *108:10 3.20000005
7 *108:4 *108:3 0.468018
8 *108:9 *108:4 0.183838
9 *108:8 *108:9 3.20000005
10 *108:7 *108:8 3.13354
11 *108:7 *161:Y 0.189893
*END

*D_NET *109 0.00569852

*CONN
*I *155:Y O *C 53.79 38.36 *L 0 *D NAND2X1
*I *142:B I *C 66.99 63 *L 0.00274 *D NOR2XL
*I *139:D I *C 54.45 57.4 *L 0.0031 *D NAND4XL

*CAP
1 *155:Y 3.72961e-05
2 *142:B 7.45923e-05
3 *139:D 0.000139836
4 *109:3 0.000393803
5 *109:4 0.000393803
6 *109:5 0.000118568
7 *109:6 0.000120533
8 *109:7 0.000151313
9 *109:8 8.16324e-05
10 *109:9 0.000320275
11 *109:10 0.000473013
12 *109:11 0.000235827
13 *109:12 0.000371095
14 *109:13 0.000331851
15 *109:14 0.00107296
16 *109:15 0.00107296
17 *109:16 0.000120599
18 *109:17 0.000129128
19 *109:18 5.94315e-05

*RES
1 *109:12 *142:B 0.379793
2 *109:13 *109:12 1.79057
3 *109:7 *139:D 3.19998
4 *109:3 *109:13 3.19998
5 *109:8 *109:7 0.156
6 *109:4 *109:3 1.404
7 *109:11 *109:8 3.19998
8 *109:9 *109:4 3.19998
9 *109:11 *109:10 0.551561
10 *109:10 *109:9 1.47088
11 *109:14 *109:10 3.19998
12 *109:15 *109:14 4.9920001
13 *109:18 *109:15 3.19998
14 *109:17 *109:18 0.183879
15 *109:16 *109:17 3.19998
16 *109:5 *109:16 3.19998
17 *109:6 *109:5 0.447662
18 *155:Y *109:6 0.189896
*END

*D_NET *110 0.00353008

*CONN
*I *154:Y O *C 52.47 52.36 *L 0 *D NAND2X1
*I *146:B I *C 63.69 47.88 *L 0.00274 *D NOR2XL
*I *139:A I *C 57.09 57.4 *L 0.00324 *D NAND4XL

*CAP
1 *154:Y 0.000253575
2 *146:B 0.000139841
3 *139:A 0.000139841
4 *110:3 0.000221207
5 *110:4 0.000151525
6 *110:5 0.00069549
7 *110:6 0.000388651
8 *110:7 0.000393342
9 *110:8 0.000458333
10 *110:3 *118:6 0.00011418
11 *110:4 *118:4 0.000114179998
12 *110:3 *113:4 6.184e-05
13 *110:4 *113:5 6.184e-05
14 *110:3 *113:5 6.159e-05
15 *110:4 *113:6 6.159e-05
16 *110:7 *140:B 9.702e-05
17 *110:5 *113:3 9.702e-05
18 *110:5 *140:B 9.51e-06
19 *154:Y *113:3 9.51000388e-06

*RES
1 *110:6 *146:B 3.20000005
2 *110:3 *139:A 3.20000005
3 *110:6 *110:8 1.71602
4 *110:4 *110:3 0.935986
5 *110:7 *110:8 3.20000005
6 *110:5 *110:4 3.20000005
7 *110:5 *110:7 2.23828
8 *154:Y *110:5 1.34297
*END

*D_NET *111 0.00903189

*CONN
*I *153:Y O *C 39.27 58.52 *L 0 *D NAND2X1
*I *141:B I *C 67.65 32.76 *L 0.00274 *D NOR2XL
*I *136:B I *C 61.71 47.88 *L 0.00465 *D NAND4X1

*CAP
1 *153:Y 4.12119e-05
2 *141:B 7.45903e-05
3 *136:B 6.33135e-05
4 *111:3 0.00053244
5 *111:4 0.00046945
6 *111:5 0.00141035
7 *111:6 0.00141035
8 *111:7 0.00025603
9 *111:8 0.000295284
10 *111:9 0.000483008
11 *111:10 0.000483008
12 *111:11 0.00067099
13 *111:12 0.000731979
14 *111:13 0.000194998
15 *111:14 7.65486e-05
16 *111:15 0.000264681
17 *111:16 0.000294186
18 *111:17 0.000775773
19 *111:18 0.000503689

*RES
1 *111:8 *141:B 0.379785
2 *111:8 *111:7 1.11914
3 *111:6 *111:7 3.2
4 *111:4 *136:B 6.4000001
5 *111:6 *111:5 6.396
6 *111:4 *111:3 1.87197
7 *111:18 *111:5 3.2
8 *111:17 *111:3 3.2
9 *111:17 *111:18 2.57402
10 *111:16 *111:17 1.28701
11 *111:9 *111:16 0.155957
12 *111:10 *111:9 2.20625
13 *111:10 *111:11 0.155957
14 *111:14 *153:Y 0.223828
15 *111:12 *111:11 2.75781
16 *111:15 *111:14 3.2
17 *111:13 *111:12 3.2
18 *111:13 *111:15 0.624023
*END

*D_NET *112 0.00345373

*CONN
*I *152:Y O *C 55.11 48.44 *L 0 *D NAND2X1
*I *143:B I *C 61.71 63 *L 0.00274 *D NOR2XL
*I *138:C I *C 55.11 63.56 *L 0.00463 *D NAND4X1

*CAP
1 *152:Y 6.33095e-05
2 *143:B 0.000138133
3 *138:C 0.000139836
4 *112:3 6.28529e-05
5 *112:4 4.8056e-05
6 *112:5 0.00080877
7 *112:6 0.000750829
8 *112:7 0.000320867
9 *112:8 0.000320867
10 *112:9 0.000123657
11 *112:10 0.000173466
12 *112:11 0.000120597
13 *112:3 *102:5 2.089e-05
14 *112:4 *102:6 2.089e-05
15 *112:5 *102:5 1.734e-05
16 *112:6 *102:6 1.734e-05
17 *112:5 *102:3 5.875e-05
18 *112:6 *102:4 5.875e-05
19 *112:5 *102:3 9.427e-05
20 *112:6 *102:4 9.42700004e-05

*RES
1 *112:10 *143:B 0.671484
2 *112:11 *112:10 3.2
3 *112:7 *112:11 3.2
4 *112:8 *112:7 1.28701
5 *112:9 *138:C 3.2
6 *112:4 *152:Y 6.4000001
7 *112:5 *112:8 3.2
8 *112:5 *112:9 0.155957
9 *112:4 *112:3 0.155957
10 *112:6 *112:5 3.9
11 *112:6 *112:3 0.183887
*END

*D_NET *113 0.00389255

*CONN
*I *151:Y O *C 43.23 58.52 *L 0 *D NAND2X1
*I *140:B I *C 64.35 52.92 *L 0.00274 *D NOR2XL
*I *139:B I *C 56.43 57.4 *L 0.00355 *D NAND4XL

*CAP
1 *151:Y 0.000157789
2 *140:B 0.000400057
3 *139:B 0.000139843
4 *113:3 0.000435388
5 *113:4 0.000170578
6 *113:5 0.00026199
7 *113:6 0.000212007
8 *113:7 0.000165766
9 *113:8 0.000165766
10 *113:9 0.000193121
11 *113:10 0.000565158516
12 *113:11 0.000565158516
13 *113:4 *110:3 6.184e-05
14 *113:5 *110:4 6.184e-05
15 *113:5 *110:3 6.159e-05
16 *113:6 *110:4 6.159e-05
17 *140:B *110:7 9.702e-05
18 *113:3 *110:5 9.702e-05
19 *140:B *110:5 9.51e-06
20 *113:3 *154:Y 9.51000388e-06

*RES
1 *113:3 *140:B 2.68594
2 *113:6 *113:3 3.20000005
3 *113:4 *139:B 3.20000005
4 *113:6 *113:5 0.77998
5 *113:5 *113:4 0.468018
6 *113:10 *113:5 3.20000005
7 *113:11 *113:10 2.57402
8 *113:8 *113:11 3.20000005
9 *113:8 *113:7 0.312012
10 *113:9 *113:7 3.20000005
11 *151:Y *113:9 1.11914
*END

*D_NET *114 0.0002358

*CONN
*I *139:Y O *C 55.77 56.84 *L 0 *D NAND4XL
*I *135:B I *C 57.75 57.96 *L 0.00385 *D NOR2X1

*CAP
1 *139:Y 4.33101e-05
2 *135:B 7.45899e-05
3 *114:2 0.0001179

*RES
1 *114:2 *135:B 0.379826099
2 *139:Y *114:2 0.223824
*END

*D_NET *115 0.00100421

*CONN
*I *138:Y O *C 57.09 64.68 *L 0 *D NAND4X1
*I *135:A I *C 58.41 57.4 *L 0.0043 *D NOR2X1

*CAP
1 *138:Y 7.97314e-05
2 *135:A 6.32997e-05
3 *115:2 0.0004079
4 *115:3 0.000338221
5 *115:4 0.00011506

*RES
1 *115:3 *135:A 6.4000001
2 *115:3 *115:2 1.404
3 *115:4 *115:2 3.2
4 *138:Y *115:4 0.447656
*END

*D_NET *116 0.00145067

*CONN
*I *137:Y O *C 64.35 44.52 *L 0 *D NAND4X1
*I *134:A1 I *C 61.05 37.24 *L 0.00324 *D OAI21XL

*CAP
1 *137:Y 0.000139836
2 *134:A1 6.33038e-05
3 *116:2 0.000226758
4 *116:3 0.0005983
5 *116:4 0.000422466

*RES
1 *116:4 *137:Y 3.2
2 *116:3 *116:4 1.24805
3 *116:2 *116:3 0.919238
4 *134:A1 *116:2 6.4000001
*END

*D_NET *117 0.00162727

*CONN
*I *136:Y O *C 62.37 46.2 *L 0 *D NAND4X1
*I *134:A0 I *C 61.71 37.24 *L 0.00336 *D OAI21XL

*CAP
1 *136:Y 0.00010982
2 *134:A0 0.000149174
3 *117:2 0.00051021
4 *117:3 0.000455331
5 *117:4 0.000145149
6 *117:5 0.000191869
7 *117:6 6.57158e-05

*RES
1 *134:A0 *117:5 0.759668
2 *117:4 *136:Y 0.447656
3 *117:6 *117:5 6.4000001
4 *117:2 *117:4 3.2
5 *117:3 *117:6 0.183887
6 *117:3 *117:2 1.87197
*END

*D_NET *118 0.00350374

*CONN
*I *135:Y O *C 59.07 57.96 *L 0 *D NOR2X1
*I *133:A0 I *C 59.07 37.24 *L 0.00336 *D OAI21XL

*CAP
1 *135:Y 8.85967e-05
2 *133:A0 0.000139838
3 *118:2 0.000186427
4 *118:3 0.000146156
5 *118:4 0.000635106
6 *118:5 0.000200461
7 *118:6 0.00068998
8 *118:7 0.000373369
9 *118:8 0.000373369
10 *118:9 0.000182352
11 *118:6 *110:3 0.00011418
12 *118:4 *110:4 0.000114179998
13 *118:8 *102:5 1.556e-05
14 *118:7 *102:6 1.556e-05
15 *118:6 *102:5 4.317e-05
16 *118:4 *102:6 4.317e-05
17 *118:8 *102:6 2.426e-05
18 *118:7 *102:7 2.426e-05
19 *118:3 *102:6 4.687e-05
20 *118:2 *102:7 4.68700054e-05

*RES
1 *118:5 *135:Y 0.447656
2 *118:6 *118:5 3.20000005
3 *118:4 *118:6 3.12002
4 *118:4 *118:8 0.183838
5 *118:7 *118:8 1.87202
6 *118:9 *133:A0 3.20000005
7 *118:3 *118:7 0.183838
8 *118:2 *118:9 0.367725
9 *118:2 *118:3 0.935986
*END

*D_NET *119 0.0005612

*CONN
*I *134:Y O *C 62.37 38.92 *L 0 *D OAI21XL
*I *133:B0 I *C 59.73 38.36 *L 0.00302 *D OAI21XL

*CAP
1 *134:Y 6.32995e-05
2 *133:B0 6.32995e-05
3 *119:2 0.000111319775
4 *119:3 0.000111319775
5 *119:4 0.000105979
6 *119:5 0.000105979

*RES
1 *119:5 *134:Y 6.4000001
2 *119:2 *119:5 0.367676
3 *119:3 *119:2 0.155957
4 *119:4 *119:3 0.367676
5 *133:B0 *119:4 6.4000001
*END

*D_NET *120 0.00184611

*CONN
*I *133:Y O *C 59.73 38.92 *L 0 *D OAI21XL
*I *132:AN I *C 61.71 33.32 *L 0.0022 *D NOR2BXL
*I *131:A I *C 59.07 28.28 *L 0.00348 *D NOR3XL

*CAP
1 *133:Y 0.000139839
2 *132:AN 0.000159462
3 *131:A 0.000139839
4 *120:3 0.000274717
5 *120:4 7.99915e-05
6 *120:5 0.00047454
7 *120:6 0.00019676
8 *120:7 0.00026828
9 *120:8 0.000112685

*RES
1 *120:6 *132:AN 0.895312
2 *120:8 *133:Y 3.20000005
3 *120:4 *120:6 0.189893
4 *120:7 *120:8 0.367725
5 *120:5 *120:4 3.20000005
6 *120:5 *120:7 0.935986
7 *120:3 *120:5 1.248
8 *131:A *120:3 3.20000005
*END

*D_NET *121 0.00450599

*CONN
*I *182:QN O *C 44.55 36.68 *L 0 *D TLATNRX1
*I *180:A I *C 39.93 52.92 *L 0.0024 *D OR2X1
*I *178:B I *C 39.27 42.84 *L 0.00274 *D NOR2XL
*I *177:B I *C 40.59 57.96 *L 0.00274 *D NOR2XL

*CAP
1 *182:QN 0.000139844
2 *180:A 0.000139844
3 *178:B 0.000139844
4 *177:B 0.000139844
5 *121:4 0.000278172
6 *121:5 0.000278172
7 *121:6 0.000297109
8 *121:7 0.000347251016
9 *121:8 6.35368e-05
10 *121:9 0.000193249
11 *121:10 0.000123566
12 *121:11 0.00010057
13 *121:12 0.000252187
14 *121:13 0.000179822
15 *121:14 0.000176728
16 *121:15 0.000191533
17 *121:16 0.000337851
18 *121:17 0.000337851
19 *121:18 0.000192078
20 *121:19 0.0001372
21 *121:20 0.000176977
22 *121:21 0.000120599
23 *121:22 0.000162183

*RES
1 *121:14 *177:B 3.20000005
2 *121:15 *121:14 0.935986
3 *121:11 *121:15 0.183838
4 *121:12 *180:A 3.20000005
5 *121:12 *121:11 0.468018
6 *121:13 *121:12 0.77998
7 *121:21 *121:13 3.20000005
8 *121:22 *121:21 3.20000005
9 *121:20 *121:22 0.624023
10 *121:17 *121:20 0.183838
11 *121:16 *121:17 1.71602
12 *121:10 *182:QN 3.20000005
13 *121:16 *121:19 0.183838
14 *121:10 *121:9 0.468018
15 *121:18 *121:19 0.468018
16 *121:6 *121:9 3.20000005
17 *121:7 *121:18 3.20000005
18 *121:7 *121:6 1.28701
19 *121:4 *178:B 3.20000005
20 *121:8 *121:7 0.183838
21 *121:5 *121:4 0.77998
22 *121:5 *121:8 3.20000005
*END

*D_NET *122 0.00450968

*CONN
*I *195:QN O *C 47.19 33.88 *L 0 *D TLATNRX1
*I *186:B I *C 41.91 42.84 *L 0.00277 *D NAND2XL
*I *175:B I *C 49.17 42.84 *L 0.00274 *D NOR2XL
*I *172:B I *C 42.57 52.92 *L 0.00274 *D NOR2XL

*CAP
1 *195:QN 0.000139843
2 *186:B 0.000139843
3 *175:B 0.000119542
4 *172:B 0.000139843
5 *122:4 0.000222623
6 *122:5 0.000327615
7 *122:6 0.000342234
8 *122:7 0.0002466
9 *122:8 0.00056422
10 *122:9 0.000447579
11 *122:10 0.000370921
12 *122:11 0.000154583
13 *122:12 0.000440597
14 *122:13 0.000442698
15 *122:12 *34:5 0.00018081
16 *122:10 *34:6 0.00018081
17 *122:12 *34:7 8.86e-06
18 *122:10 *34:8 8.86e-06
19 *122:12 *34:8 1.581e-05
20 *122:10 *34:9 1.58099888e-05

*RES
1 *122:10 *195:QN 3.20000005
2 *122:10 *122:12 2.02798
3 *122:6 *172:B 3.20000005
4 *122:11 *122:12 3.20000005
5 *122:5 *122:6 0.935986
6 *122:11 *122:13 0.569727
7 *122:13 *175:B 0.671484
8 *122:5 *122:9 0.367725
9 *122:7 *122:13 1.11914
10 *122:8 *122:9 1.87202
11 *122:8 *122:7 3.20000005
12 *122:4 *122:8 0.551562
13 *186:B *122:4 3.20000005
*END

*D_NET *123 0.00106571

*CONN
*I *131:Y O *C 58.41 26.6 *L 0 *D NOR3XL
*I *130:B I *C 53.13 28.28 *L 0.00259 *D OR2X1

*CAP
1 *131:Y 0.000171951
2 *130:B 6.32992e-05
3 *123:2 0.000186498
4 *123:3 0.00028382
5 *123:4 0.000112281
6 *123:5 0.000247861

*RES
1 *123:3 *131:Y 0.895312
2 *123:4 *123:3 3.2
3 *123:4 *123:5 0.312012
4 *123:2 *123:5 0.735449
5 *130:B *123:2 6.4000001
*END

