*SPEF "IEEE 1481-1998"
*DESIGN "aer64_pending_grouped_rr"
*DATE "Wed Aug 26 17:03:39 2026"
*VENDOR "Cadence Design Systems, Inc."
*PROGRAM "Innovus"
*VERSION "23.14-s088_1"
*DESIGN_FLOW "COUPLING C" "PIN_CAP NONE" "NAME_SCOPE LOCAL"
*DIVIDER /
*DELIMITER :
*BUS_DELIMITER []
*T_UNIT 1 NS
*C_UNIT 1 PF
*R_UNIT 1 OHM
*L_UNIT 1 HENRY

// MMMC spef file for corner 'rc_45nm'

*NAME_MAP

*1 core/FE_PHN151_reset_release_q_0
*2 core/FE_PHN150_req_sync_q_8
*3 core/FE_PHN149_req_sync_q_30
*4 core/FE_PHN148_req_sync_q_40
*5 core/FE_PHN147_req_sync_q_24
*6 core/FE_PHN146_req_sync_q_25
*7 core/FE_PHN145_req_sync_q_7
*8 core/FE_PHN144_req_sync_q_27
*9 core/FE_PHN143_FE_OFN3_req_meta_q_8
*10 core/FE_PHN142_req_meta_q_17
*11 core/FE_PHN141_req_meta_q_16
*12 core/FE_PHN140_req_meta_q_12
*13 core/FE_PHN139_req_meta_q_14
*14 core/FE_PHN138_req_meta_q_7
*15 core/FE_PHN137_req_meta_q_55
*16 core/FE_PHN136_req_meta_q_19
*17 core/FE_PHN135_req_meta_q_60
*18 core/FE_PHN134_req_meta_q_42
*19 core/FE_PHN133_req_meta_q_33
*20 core/FE_PHN132_req_meta_q_53
*21 core/FE_PHN131_req_meta_q_30
*22 core/FE_PHN130_req_meta_q_37
*23 core/FE_PHN129_req_meta_q_36
*24 core/FE_PHN128_req_meta_q_31
*25 core/FE_PHN127_req_meta_q_26
*26 core/FE_PHN126_req_meta_q_57
*27 core/FE_PHN125_req_meta_q_4
*28 core/FE_PHN124_req_meta_q_34
*29 core/FE_PHN123_req_meta_q_13
*30 core/FE_PHN122_req_meta_q_62
*31 core/FE_PHN121_req_meta_q_59
*32 core/FE_PHN120_req_meta_q_45
*33 core/FE_PHN119_req_meta_q_46
*34 core/FE_PHN118_req_meta_q_5
*35 core/FE_PHN117_req_meta_q_43
*36 core/FE_PHN116_req_meta_q_63
*37 core/FE_PHN115_req_meta_q_29
*38 core/FE_PHN114_req_meta_q_56
*39 core/FE_PHN113_req_meta_q_2
*40 core/FE_PHN112_req_meta_q_47
*41 core/FE_PHN111_req_meta_q_61
*42 core/FE_PHN110_req_meta_q_54
*43 core/FE_PHN109_req_meta_q_3
*44 core/FE_PHN108_req_meta_q_22
*45 core/FE_PHN107_req_meta_q_48
*46 core/FE_PHN106_req_meta_q_50
*47 core/FE_PHN105_req_meta_q_41
*48 core/FE_PHN104_req_meta_q_49
*49 core/FE_PHN103_req_meta_q_20
*50 core/FE_PHN102_req_meta_q_58
*51 core/FE_PHN101_req_meta_q_35
*52 core/FE_PHN100_req_meta_q_18
*53 core/FE_PHN99_req_meta_q_52
*54 core/FE_PHN98_req_meta_q_40
*55 core/FE_PHN97_req_meta_q_27
*56 core/FE_PHN96_req_meta_q_0
*57 core/FE_PHN95_req_meta_q_32
*58 core/FE_PHN94_req_meta_q_1
*59 core/FE_PHN93_req_meta_q_23
*60 core/FE_PHN92_req_meta_q_38
*61 core/FE_PHN91_req_meta_q_51
*62 core/FE_PHN90_req_meta_q_39
*63 core/FE_PHN89_req_meta_q_28
*64 core/FE_PHN88_req_meta_q_6
*65 core/FE_PHN87_req_meta_q_44
*66 core/FE_PHN86_req_meta_q_21
*67 core/FE_PHN85_req_meta_q_25
*68 core/FE_PHN84_req_meta_q_11
*69 core/FE_PHN83_req_meta_q_10
*70 core/FE_PHN82_req_meta_q_9
*71 core/FE_PHN81_req_meta_q_24
*72 core/FE_PHN80_req_meta_q_15
*73 FE_PHN79_rst_n
*74 core/FE_PHN78_req_meta_q_19
*75 core/FE_PHN77_req_meta_q_18
*76 FE_PHN76_rst_n
*77 core/FE_OFN439_n_568
*78 core/FE_OFN438_n_396
*79 core/FE_OFN436_n_394
*80 core/FE_OFN435_n_568
*81 core/FE_OFN434_n_414
*82 core/FE_OFN432_n_473
*83 core/CTS_12
*84 core/CTS_11
*85 core/CTS_10
*86 core/CTS_9
*87 core/CTS_8
*88 core/CTS_7
*89 core/CTS_6
*90 core/CTS_5
*91 core/CTS_4
*92 core/CTS_3
*93 core/CTS_2
*94 core/CTS_1
*95 core/FE_OFN431_FE_DBTN0_n_653
*96 core/FE_OFN430_n_160
*97 core/FE_OFN429_n_166
*98 core/FE_OFN51_n_412
*99 core/FE_OFN49_n_576
*100 core/FE_OFN47_n_395
*101 core/FE_OFN46_n_548
*102 core/FE_OFN42_n_412
*103 core/FE_OFN41_n_396
*104 core/FE_OFN40_n_422
*105 core/FE_OFN39_n_582
*106 core/FE_OFN38_n_580
*107 core/FE_OFN34_n_554
*108 core/FE_OFN32_n_576
*109 core/FE_OFN29_n_573
*110 core/FE_OFN26_n_547
*111 core/FE_OFN25_n_546
*112 core/FE_OFN20_n_452
*113 core/FE_OFN19_n_485
*114 core/FE_OFN18_n_427
*115 core/FE_OFN14_n_420
*116 core/FE_OFN13_n_399
*117 core/FE_OFN7_n_171
*118 core/FE_OFN5_n_162
*119 core/FE_OFN4_n_160
*120 core/FE_OFN3_req_meta_q_8
*121 core/FE_OFN1_FE_DBTN0_n_653
*122 core/FE_DBTN0_n_653
*123 clk
*124 rst_n
*125 src_req_async[63]
*126 src_req_async[62]
*127 src_req_async[61]
*128 src_req_async[60]
*129 src_req_async[59]
*130 src_req_async[58]
*131 src_req_async[57]
*132 src_req_async[56]
*133 src_req_async[55]
*134 src_req_async[54]
*135 src_req_async[53]
*136 src_req_async[52]
*137 src_req_async[51]
*138 src_req_async[50]
*139 src_req_async[49]
*140 src_req_async[48]
*141 src_req_async[47]
*142 src_req_async[46]
*143 src_req_async[45]
*144 src_req_async[44]
*145 src_req_async[43]
*146 src_req_async[42]
*147 src_req_async[41]
*148 src_req_async[40]
*149 src_req_async[39]
*150 src_req_async[38]
*151 src_req_async[37]
*152 src_req_async[36]
*153 src_req_async[35]
*154 src_req_async[34]
*155 src_req_async[33]
*156 src_req_async[32]
*157 src_req_async[31]
*158 src_req_async[30]
*159 src_req_async[29]
*160 src_req_async[28]
*161 src_req_async[27]
*162 src_req_async[26]
*163 src_req_async[25]
*164 src_req_async[24]
*165 src_req_async[23]
*166 src_req_async[22]
*167 src_req_async[21]
*168 src_req_async[20]
*169 src_req_async[19]
*170 src_req_async[18]
*171 src_req_async[17]
*172 src_req_async[16]
*173 src_req_async[15]
*174 src_req_async[14]
*175 src_req_async[13]
*176 src_req_async[12]
*177 src_req_async[11]
*178 src_req_async[10]
*179 src_req_async[9]
*180 src_req_async[8]
*181 src_req_async[7]
*182 src_req_async[6]
*183 src_req_async[5]
*184 src_req_async[4]
*185 src_req_async[3]
*186 src_req_async[2]
*187 src_req_async[1]
*188 src_req_async[0]
*189 src_ack_async[63]
*190 src_ack_async[62]
*191 src_ack_async[61]
*192 src_ack_async[60]
*193 src_ack_async[59]
*194 src_ack_async[58]
*195 src_ack_async[57]
*196 src_ack_async[56]
*197 src_ack_async[55]
*198 src_ack_async[54]
*199 src_ack_async[53]
*200 src_ack_async[52]
*201 src_ack_async[51]
*202 src_ack_async[50]
*203 src_ack_async[49]
*204 src_ack_async[48]
*205 src_ack_async[47]
*206 src_ack_async[46]
*207 src_ack_async[45]
*208 src_ack_async[44]
*209 src_ack_async[43]
*210 src_ack_async[42]
*211 src_ack_async[41]
*212 src_ack_async[40]
*213 src_ack_async[39]
*214 src_ack_async[38]
*215 src_ack_async[37]
*216 src_ack_async[36]
*217 src_ack_async[35]
*218 src_ack_async[34]
*219 src_ack_async[33]
*220 src_ack_async[32]
*221 src_ack_async[31]
*222 src_ack_async[30]
*223 src_ack_async[29]
*224 src_ack_async[28]
*225 src_ack_async[27]
*226 src_ack_async[26]
*227 src_ack_async[25]
*228 src_ack_async[24]
*229 src_ack_async[23]
*230 src_ack_async[22]
*231 src_ack_async[21]
*232 src_ack_async[20]
*233 src_ack_async[19]
*234 src_ack_async[18]
*235 src_ack_async[17]
*236 src_ack_async[16]
*237 src_ack_async[15]
*238 src_ack_async[14]
*239 src_ack_async[13]
*240 src_ack_async[12]
*241 src_ack_async[11]
*242 src_ack_async[10]
*243 src_ack_async[9]
*244 src_ack_async[8]
*245 src_ack_async[7]
*246 src_ack_async[6]
*247 src_ack_async[5]
*248 src_ack_async[4]
*249 src_ack_async[3]
*250 src_ack_async[2]
*251 src_ack_async[1]
*252 src_ack_async[0]
*253 out_addr[5]
*254 out_addr[4]
*255 out_addr[3]
*256 out_addr[2]
*257 out_addr[1]
*258 out_addr[0]
*259 out_valid
*260 out_ready
*261 core/req_meta_q[63]
*262 core/req_meta_q[62]
*263 core/req_meta_q[61]
*264 core/req_meta_q[60]
*265 core/req_meta_q[59]
*266 core/req_meta_q[58]
*267 core/req_meta_q[57]
*268 core/req_meta_q[56]
*269 core/req_meta_q[55]
*270 core/req_meta_q[54]
*271 core/req_meta_q[53]
*272 core/req_meta_q[52]
*273 core/req_meta_q[51]
*274 core/req_meta_q[50]
*275 core/req_meta_q[49]
*276 core/req_meta_q[48]
*277 core/req_meta_q[47]
*278 core/req_meta_q[46]
*279 core/req_meta_q[45]
*280 core/req_meta_q[44]
*281 core/req_meta_q[43]
*282 core/req_meta_q[42]
*283 core/req_meta_q[41]
*284 core/req_meta_q[40]
*285 core/req_meta_q[39]
*286 core/req_meta_q[38]
*287 core/req_meta_q[37]
*288 core/req_meta_q[36]
*289 core/req_meta_q[35]
*290 core/req_meta_q[34]
*291 core/req_meta_q[33]
*292 core/req_meta_q[32]
*293 core/req_meta_q[31]
*294 core/req_meta_q[30]
*295 core/req_meta_q[29]
*296 core/req_meta_q[28]
*297 core/req_meta_q[27]
*298 core/req_meta_q[26]
*299 core/req_meta_q[25]
*300 core/req_meta_q[24]
*301 core/req_meta_q[23]
*302 core/req_meta_q[22]
*303 core/req_meta_q[21]
*304 core/req_meta_q[20]
*305 core/req_meta_q[19]
*306 core/req_meta_q[18]
*307 core/req_meta_q[17]
*308 core/req_meta_q[16]
*309 core/req_meta_q[15]
*310 core/req_meta_q[14]
*311 core/req_meta_q[13]
*312 core/req_meta_q[12]
*313 core/req_meta_q[11]
*314 core/req_meta_q[10]
*315 core/req_meta_q[9]
*316 core/req_meta_q[8]
*317 core/req_meta_q[7]
*318 core/req_meta_q[6]
*319 core/req_meta_q[5]
*320 core/req_meta_q[4]
*321 core/req_meta_q[3]
*322 core/req_meta_q[2]
*323 core/req_meta_q[1]
*324 core/req_meta_q[0]
*325 core/req_sync_q[63]
*326 core/req_sync_q[62]
*327 core/req_sync_q[61]
*328 core/req_sync_q[60]
*329 core/req_sync_q[59]
*330 core/req_sync_q[58]
*331 core/req_sync_q[57]
*332 core/req_sync_q[56]
*333 core/req_sync_q[55]
*334 core/req_sync_q[54]
*335 core/req_sync_q[53]
*336 core/req_sync_q[52]
*337 core/req_sync_q[51]
*338 core/req_sync_q[50]
*339 core/req_sync_q[49]
*340 core/req_sync_q[48]
*341 core/req_sync_q[47]
*342 core/req_sync_q[46]
*343 core/req_sync_q[45]
*344 core/req_sync_q[44]
*345 core/req_sync_q[43]
*346 core/req_sync_q[42]
*347 core/req_sync_q[41]
*348 core/req_sync_q[40]
*349 core/req_sync_q[39]
*350 core/req_sync_q[38]
*351 core/req_sync_q[37]
*352 core/req_sync_q[36]
*353 core/req_sync_q[35]
*354 core/req_sync_q[34]
*355 core/req_sync_q[33]
*356 core/req_sync_q[32]
*357 core/req_sync_q[31]
*358 core/req_sync_q[30]
*359 core/req_sync_q[29]
*360 core/req_sync_q[28]
*361 core/req_sync_q[27]
*362 core/req_sync_q[26]
*363 core/req_sync_q[25]
*364 core/req_sync_q[24]
*365 core/req_sync_q[23]
*366 core/req_sync_q[22]
*367 core/req_sync_q[21]
*368 core/req_sync_q[20]
*369 core/req_sync_q[19]
*370 core/req_sync_q[18]
*371 core/req_sync_q[17]
*372 core/req_sync_q[16]
*373 core/req_sync_q[15]
*374 core/req_sync_q[14]
*375 core/req_sync_q[13]
*376 core/req_sync_q[12]
*377 core/req_sync_q[11]
*378 core/req_sync_q[10]
*379 core/req_sync_q[9]
*380 core/req_sync_q[8]
*381 core/req_sync_q[7]
*382 core/req_sync_q[6]
*383 core/req_sync_q[5]
*384 core/req_sync_q[4]
*385 core/req_sync_q[3]
*386 core/req_sync_q[2]
*387 core/req_sync_q[1]
*388 core/req_sync_q[0]
*389 core/reset_release_q[0]
*390 core/ack_q[63]
*391 core/ack_q[62]
*392 core/ack_q[61]
*393 core/ack_q[60]
*394 core/ack_q[59]
*395 core/ack_q[58]
*396 core/ack_q[57]
*397 core/ack_q[56]
*398 core/ack_q[55]
*399 core/ack_q[54]
*400 core/ack_q[53]
*401 core/ack_q[52]
*402 core/ack_q[51]
*403 core/ack_q[50]
*404 core/ack_q[49]
*405 core/ack_q[48]
*406 core/ack_q[47]
*407 core/ack_q[46]
*408 core/ack_q[45]
*409 core/ack_q[44]
*410 core/ack_q[43]
*411 core/ack_q[42]
*412 core/ack_q[41]
*413 core/ack_q[40]
*414 core/ack_q[39]
*415 core/ack_q[38]
*416 core/ack_q[37]
*417 core/ack_q[36]
*418 core/ack_q[35]
*419 core/ack_q[34]
*420 core/ack_q[33]
*421 core/ack_q[32]
*422 core/ack_q[31]
*423 core/ack_q[30]
*424 core/ack_q[29]
*425 core/ack_q[28]
*426 core/ack_q[27]
*427 core/ack_q[26]
*428 core/ack_q[25]
*429 core/ack_q[24]
*430 core/ack_q[23]
*431 core/ack_q[22]
*432 core/ack_q[21]
*433 core/ack_q[20]
*434 core/ack_q[19]
*435 core/ack_q[18]
*436 core/ack_q[17]
*437 core/ack_q[16]
*438 core/ack_q[15]
*439 core/ack_q[14]
*440 core/ack_q[13]
*441 core/ack_q[12]
*442 core/ack_q[11]
*443 core/ack_q[10]
*444 core/ack_q[9]
*445 core/ack_q[8]
*446 core/ack_q[7]
*447 core/ack_q[6]
*448 core/ack_q[5]
*449 core/ack_q[4]
*450 core/ack_q[3]
*451 core/ack_q[2]
*452 core/ack_q[1]
*453 core/ack_q[0]
*454 core/pending_q[63]
*455 core/pending_q[62]
*456 core/pending_q[61]
*457 core/pending_q[60]
*458 core/pending_q[59]
*459 core/pending_q[58]
*460 core/pending_q[57]
*461 core/pending_q[56]
*462 core/pending_q[55]
*463 core/pending_q[54]
*464 core/pending_q[53]
*465 core/pending_q[52]
*466 core/pending_q[51]
*467 core/pending_q[50]
*468 core/pending_q[49]
*469 core/pending_q[48]
*470 core/pending_q[47]
*471 core/pending_q[46]
*472 core/pending_q[45]
*473 core/pending_q[44]
*474 core/pending_q[43]
*475 core/pending_q[42]
*476 core/pending_q[41]
*477 core/pending_q[40]
*478 core/pending_q[39]
*479 core/pending_q[38]
*480 core/pending_q[37]
*481 core/pending_q[36]
*482 core/pending_q[35]
*483 core/pending_q[34]
*484 core/pending_q[33]
*485 core/pending_q[32]
*486 core/pending_q[31]
*487 core/pending_q[30]
*488 core/pending_q[29]
*489 core/pending_q[28]
*490 core/pending_q[27]
*491 core/pending_q[26]
*492 core/pending_q[25]
*493 core/pending_q[24]
*494 core/pending_q[23]
*495 core/pending_q[22]
*496 core/pending_q[21]
*497 core/pending_q[20]
*498 core/pending_q[19]
*499 core/pending_q[18]
*500 core/pending_q[17]
*501 core/pending_q[16]
*502 core/pending_q[15]
*503 core/pending_q[14]
*504 core/pending_q[13]
*505 core/pending_q[12]
*506 core/pending_q[11]
*507 core/pending_q[10]
*508 core/pending_q[9]
*509 core/pending_q[8]
*510 core/pending_q[7]
*511 core/pending_q[6]
*512 core/pending_q[5]
*513 core/pending_q[4]
*514 core/pending_q[3]
*515 core/pending_q[2]
*516 core/pending_q[1]
*517 core/pending_q[0]
*518 core/n_0
*519 core/n_1
*520 core/n_2
*521 core/n_3
*522 core/n_4
*523 core/n_5
*524 core/n_6
*525 core/n_15
*526 core/n_16
*527 core/n_17
*528 core/n_18
*529 core/n_19
*530 core/n_20
*531 core/n_21
*532 core/n_22
*533 core/n_23
*534 core/n_24
*535 core/n_25
*536 core/n_26
*537 core/n_27
*538 core/n_28
*539 core/n_29
*540 core/n_30
*541 core/n_31
*542 core/n_32
*543 core/n_33
*544 core/n_34
*545 core/n_35
*546 core/n_36
*547 core/n_37
*548 core/n_38
*549 core/n_39
*550 core/n_40
*551 core/n_41
*552 core/n_42
*553 core/n_43
*554 core/n_44
*555 core/n_45
*556 core/n_46
*557 core/n_47
*558 core/n_48
*559 core/n_49
*560 core/n_50
*561 core/n_51
*562 core/n_52
*563 core/n_53
*564 core/n_54
*565 core/n_55
*566 core/n_56
*567 core/n_57
*568 core/n_58
*569 core/n_59
*570 core/n_60
*571 core/n_61
*572 core/n_62
*573 core/n_63
*574 core/n_64
*575 core/n_65
*576 core/n_66
*577 core/n_67
*578 core/n_68
*579 core/n_69
*580 core/n_70
*581 core/n_71
*582 core/n_72
*583 core/n_73
*584 core/n_74
*585 core/n_75
*586 core/n_76
*587 core/n_77
*588 core/n_78
*589 core/n_79
*590 core/n_80
*591 core/n_81
*592 core/n_82
*593 core/n_83
*594 core/n_84
*595 core/n_85
*596 core/n_86
*597 core/n_87
*598 core/n_88
*599 core/n_89
*600 core/n_90
*601 core/n_91
*602 core/n_92
*603 core/n_93
*604 core/n_94
*605 core/n_95
*606 core/n_96
*607 core/n_97
*608 core/n_98
*609 core/n_99
*610 core/n_100
*611 core/n_101
*612 core/n_102
*613 core/n_103
*614 core/n_104
*615 core/n_105
*616 core/n_106
*617 core/n_107
*618 core/n_108
*619 core/n_109
*620 core/n_110
*621 core/n_111
*622 core/n_112
*623 core/n_113
*624 core/n_114
*625 core/n_115
*626 core/n_116
*627 core/n_117
*628 core/n_118
*629 core/n_119
*630 core/n_120
*631 core/n_121
*632 core/n_122
*633 core/n_123
*634 core/n_124
*635 core/n_125
*636 core/n_126
*637 core/n_127
*638 core/n_128
*639 core/n_129
*640 core/n_130
*641 core/n_131
*642 core/n_132
*643 core/n_133
*644 core/n_134
*645 core/n_135
*646 core/n_136
*647 core/n_137
*648 core/n_138
*649 core/n_139
*650 core/n_140
*651 core/n_141
*652 core/n_142
*653 core/n_143
*654 core/n_144
*655 core/n_145
*656 core/n_146
*657 core/n_147
*658 core/n_148
*659 core/n_149
*660 core/n_150
*661 core/n_151
*662 core/n_152
*663 core/n_153
*664 core/n_154
*665 core/n_155
*666 core/n_156
*667 core/n_157
*668 core/n_158
*669 core/n_160
*670 core/n_161
*671 core/n_162
*672 core/n_163
*673 core/n_164
*674 core/n_165
*675 core/n_166
*676 core/n_167
*677 core/n_168
*678 core/n_169
*679 core/n_170
*680 core/n_171
*681 core/n_172
*682 core/n_173
*683 core/n_174
*684 core/n_175
*685 core/n_176
*686 core/n_177
*687 core/n_178
*688 core/n_179
*689 core/n_180
*690 core/n_181
*691 core/n_182
*692 core/n_183
*693 core/n_184
*694 core/n_185
*695 core/n_186
*696 core/n_187
*697 core/n_188
*698 core/n_189
*699 core/n_190
*700 core/n_191
*701 core/n_192
*702 core/n_193
*703 core/n_194
*704 core/n_195
*705 core/n_196
*706 core/n_197
*707 core/n_198
*708 core/n_199
*709 core/n_200
*710 core/n_201
*711 core/n_202
*712 core/n_203
*713 core/n_204
*714 core/n_205
*715 core/n_206
*716 core/n_207
*717 core/n_208
*718 core/n_209
*719 core/n_210
*720 core/n_211
*721 core/n_212
*722 core/n_213
*723 core/n_214
*724 core/n_215
*725 core/n_216
*726 core/n_217
*727 core/n_218
*728 core/n_219
*729 core/n_220
*730 core/n_221
*731 core/n_222
*732 core/n_223
*733 core/n_224
*734 core/n_225
*735 core/n_226
*736 core/n_227
*737 core/n_228
*738 core/n_229
*739 core/n_230
*740 core/n_231
*741 core/n_232
*742 core/n_233
*743 core/n_234
*744 core/n_235
*745 core/n_236
*746 core/n_237
*747 core/n_238
*748 core/n_239
*749 core/n_240
*750 core/n_241
*751 core/n_242
*752 core/n_243
*753 core/n_244
*754 core/n_245
*755 core/n_246
*756 core/n_247
*757 core/n_248
*758 core/n_249
*759 core/n_250
*760 core/n_251
*761 core/n_252
*762 core/n_253
*763 core/n_254
*764 core/n_255
*765 core/n_256
*766 core/n_257
*767 core/n_258
*768 core/n_259
*769 core/n_260
*770 core/n_261
*771 core/n_262
*772 core/n_263
*773 core/n_264
*774 core/n_265
*775 core/n_266
*776 core/n_267
*777 core/n_268
*778 core/n_269
*779 core/n_270
*780 core/n_271
*781 core/n_272
*782 core/n_273
*783 core/n_274
*784 core/n_275
*785 core/n_276
*786 core/n_277
*787 core/n_278
*788 core/n_279
*789 core/n_280
*790 core/n_281
*791 core/n_282
*792 core/n_283
*793 core/n_284
*794 core/n_285
*795 core/n_286
*796 core/n_287
*797 core/n_288
*798 core/n_289
*799 core/n_290
*800 core/n_291
*801 core/n_292
*802 core/n_293
*803 core/n_294
*804 core/n_295
*805 core/n_296
*806 core/n_297
*807 core/n_298
*808 core/n_299
*809 core/n_300
*810 core/n_301
*811 core/n_302
*812 core/n_303
*813 core/n_304
*814 core/n_305
*815 core/n_306
*816 core/n_307
*817 core/n_308
*818 core/n_309
*819 core/n_310
*820 core/n_311
*821 core/n_312
*822 core/n_313
*823 core/n_314
*824 core/n_315
*825 core/n_316
*826 core/n_317
*827 core/n_318
*828 core/n_319
*829 core/n_320
*830 core/n_321
*831 core/n_322
*832 core/n_323
*833 core/n_324
*834 core/n_325
*835 core/n_326
*836 core/n_327
*837 core/n_328
*838 core/n_329
*839 core/n_330
*840 core/n_331
*841 core/n_332
*842 core/n_333
*843 core/n_334
*844 core/n_335
*845 core/n_336
*846 core/n_337
*847 core/n_338
*848 core/n_339
*849 core/n_340
*850 core/n_341
*851 core/n_342
*852 core/n_343
*853 core/n_344
*854 core/n_345
*855 core/n_346
*856 core/n_347
*857 core/n_348
*858 core/n_349
*859 core/n_350
*860 core/n_351
*861 core/n_352
*862 core/n_353
*863 core/n_354
*864 core/n_355
*865 core/n_356
*866 core/n_357
*867 core/n_358
*868 core/n_359
*869 core/n_360
*870 core/n_361
*871 core/n_362
*872 core/n_363
*873 core/n_364
*874 core/n_365
*875 core/n_366
*876 core/n_367
*877 core/n_368
*878 core/n_369
*879 core/n_370
*880 core/n_371
*881 core/n_372
*882 core/n_373
*883 core/n_374
*884 core/n_375
*885 core/n_376
*886 core/n_377
*887 core/n_378
*888 core/n_379
*889 core/n_380
*890 core/n_381
*891 core/n_382
*892 core/n_383
*893 core/n_384
*894 core/n_385
*895 core/n_386
*896 core/n_387
*897 core/n_388
*898 core/n_389
*899 core/n_390
*900 core/n_391
*901 core/n_392
*902 core/n_393
*903 core/n_394
*904 core/n_395
*905 core/n_396
*906 core/n_397
*907 core/n_398
*908 core/n_399
*909 core/n_400
*910 core/n_401
*911 core/n_402
*912 core/n_403
*913 core/n_404
*914 core/n_405
*915 core/n_406
*916 core/n_407
*917 core/n_408
*918 core/n_409
*919 core/n_410
*920 core/n_412
*921 core/n_413
*922 core/n_414
*923 core/n_415
*924 core/n_416
*925 core/n_417
*926 core/n_418
*927 core/n_419
*928 core/n_420
*929 core/n_421
*930 core/n_422
*931 core/n_423
*932 core/n_424
*933 core/n_425
*934 core/n_426
*935 core/n_427
*936 core/n_428
*937 core/n_429
*938 core/n_430
*939 core/n_431
*940 core/n_432
*941 core/n_433
*942 core/n_434
*943 core/n_435
*944 core/n_436
*945 core/n_437
*946 core/n_438
*947 core/n_439
*948 core/n_440
*949 core/n_441
*950 core/n_442
*951 core/n_443
*952 core/n_444
*953 core/n_445
*954 core/n_446
*955 core/n_447
*956 core/n_448
*957 core/n_449
*958 core/n_450
*959 core/n_451
*960 core/n_452
*961 core/n_453
*962 core/n_454
*963 core/n_455
*964 core/n_456
*965 core/n_457
*966 core/n_458
*967 core/n_459
*968 core/n_460
*969 core/n_461
*970 core/n_462
*971 core/n_463
*972 core/n_464
*973 core/n_465
*974 core/n_466
*975 core/n_467
*976 core/n_468
*977 core/n_469
*978 core/n_470
*979 core/n_471
*980 core/n_472
*981 core/n_473
*982 core/n_474
*983 core/n_475
*984 core/n_476
*985 core/n_477
*986 core/n_478
*987 core/n_479
*988 core/n_480
*989 core/n_481
*990 core/n_482
*991 core/n_483
*992 core/n_484
*993 core/n_485
*994 core/n_486
*995 core/n_487
*996 core/n_488
*997 core/n_489
*998 core/n_490
*999 core/n_491
*1000 core/n_492
*1001 core/n_493
*1002 core/n_494
*1003 core/n_495
*1004 core/n_496
*1005 core/n_497
*1006 core/n_498
*1007 core/n_499
*1008 core/n_500
*1009 core/n_501
*1010 core/n_502
*1011 core/n_503
*1012 core/n_504
*1013 core/n_505
*1014 core/n_506
*1015 core/n_507
*1016 core/n_508
*1017 core/n_509
*1018 core/n_510
*1019 core/n_511
*1020 core/n_512
*1021 core/n_513
*1022 core/n_514
*1023 core/n_515
*1024 core/n_516
*1025 core/n_517
*1026 core/n_518
*1027 core/n_519
*1028 core/n_520
*1029 core/n_521
*1030 core/n_522
*1031 core/n_523
*1032 core/n_524
*1033 core/n_525
*1034 core/n_526
*1035 core/n_527
*1036 core/n_528
*1037 core/n_529
*1038 core/n_530
*1039 core/n_531
*1040 core/n_532
*1041 core/n_533
*1042 core/n_534
*1043 core/n_535
*1044 core/n_536
*1045 core/n_537
*1046 core/n_538
*1047 core/n_539
*1048 core/n_540
*1049 core/n_541
*1050 core/n_542
*1051 core/n_543
*1052 core/n_544
*1053 core/n_545
*1054 core/n_546
*1055 core/n_547
*1056 core/n_548
*1057 core/n_549
*1058 core/n_550
*1059 core/n_551
*1060 core/n_552
*1061 core/n_553
*1062 core/n_554
*1063 core/n_555
*1064 core/n_556
*1065 core/n_557
*1066 core/n_558
*1067 core/n_559
*1068 core/n_560
*1069 core/n_561
*1070 core/n_562
*1071 core/n_563
*1072 core/n_564
*1073 core/n_565
*1074 core/n_566
*1075 core/n_567
*1076 core/n_568
*1077 core/n_569
*1078 core/n_570
*1079 core/n_571
*1080 core/n_572
*1081 core/n_573
*1082 core/n_574
*1083 core/n_575
*1084 core/n_576
*1085 core/n_577
*1086 core/n_578
*1087 core/n_579
*1088 core/n_580
*1089 core/n_581
*1090 core/n_582
*1091 core/n_583
*1092 core/n_584
*1093 core/n_585
*1094 core/n_586
*1095 core/n_587
*1096 core/n_588
*1097 core/n_589
*1098 core/n_590
*1099 core/n_591
*1100 core/n_592
*1101 core/n_593
*1102 core/n_594
*1103 core/n_595
*1104 core/n_596
*1105 core/n_597
*1106 core/n_598
*1107 core/n_599
*1108 core/n_600
*1109 core/n_601
*1110 core/n_602
*1111 core/n_603
*1112 core/n_604
*1113 core/n_605
*1114 core/n_606
*1115 core/n_607
*1116 core/n_608
*1117 core/n_609
*1118 core/n_610
*1119 core/n_611
*1120 core/n_612
*1121 core/n_613
*1122 core/n_614
*1123 core/n_615
*1124 core/n_616
*1125 core/n_617
*1126 core/n_618
*1127 core/n_619
*1128 core/n_620
*1129 core/n_621
*1130 core/n_622
*1131 core/n_623
*1132 core/n_624
*1133 core/n_625
*1134 core/n_626
*1135 core/n_627
*1136 core/n_628
*1137 core/n_629
*1138 core/n_630
*1139 core/n_631
*1140 core/n_632
*1141 core/n_633
*1142 core/n_634
*1143 core/n_635
*1144 core/n_636
*1145 core/n_637
*1146 core/n_638
*1147 core/n_639
*1148 core/n_640
*1149 core/n_641
*1150 core/n_642
*1151 core/n_643
*1152 core/n_644
*1153 core/n_645
*1154 core/n_646
*1155 core/n_647
*1156 core/n_648
*1157 core/n_649
*1158 core/n_650
*1159 core/n_651
*1160 core/n_652
*1161 core/n_653
*1162 core/n_657
*1163 core/out_valid_q
*1164 FE_PHC79_rst_n
*1165 FE_PHC76_rst_n
*1166 core/FE_PHC151_reset_release_q_0
*1167 core/FE_PHC150_req_sync_q_8
*1168 core/FE_PHC149_req_sync_q_30
*1169 core/FE_PHC148_req_sync_q_40
*1170 core/FE_PHC147_req_sync_q_24
*1171 core/FE_PHC146_req_sync_q_25
*1172 core/FE_PHC145_req_sync_q_7
*1173 core/FE_PHC144_req_sync_q_27
*1174 core/FE_PHC143_FE_OFN3_req_meta_q_8
*1175 core/FE_PHC142_req_meta_q_17
*1176 core/FE_PHC141_req_meta_q_16
*1177 core/FE_PHC140_req_meta_q_12
*1178 core/FE_PHC139_req_meta_q_14
*1179 core/FE_PHC138_req_meta_q_7
*1180 core/FE_PHC137_req_meta_q_55
*1181 core/FE_PHC136_req_meta_q_19
*1182 core/FE_PHC135_req_meta_q_60
*1183 core/FE_PHC134_req_meta_q_42
*1184 core/FE_PHC133_req_meta_q_33
*1185 core/FE_PHC132_req_meta_q_53
*1186 core/FE_PHC131_req_meta_q_30
*1187 core/FE_PHC130_req_meta_q_37
*1188 core/FE_PHC129_req_meta_q_36
*1189 core/FE_PHC128_req_meta_q_31
*1190 core/FE_PHC127_req_meta_q_26
*1191 core/FE_PHC126_req_meta_q_57
*1192 core/FE_PHC125_req_meta_q_4
*1193 core/FE_PHC124_req_meta_q_34
*1194 core/FE_PHC123_req_meta_q_13
*1195 core/FE_PHC122_req_meta_q_62
*1196 core/FE_PHC121_req_meta_q_59
*1197 core/FE_PHC120_req_meta_q_45
*1198 core/FE_PHC119_req_meta_q_46
*1199 core/FE_PHC118_req_meta_q_5
*1200 core/FE_PHC117_req_meta_q_43
*1201 core/FE_PHC116_req_meta_q_63
*1202 core/FE_PHC115_req_meta_q_29
*1203 core/FE_PHC114_req_meta_q_56
*1204 core/FE_PHC113_req_meta_q_2
*1205 core/FE_PHC112_req_meta_q_47
*1206 core/FE_PHC111_req_meta_q_61
*1207 core/FE_PHC110_req_meta_q_54
*1208 core/FE_PHC109_req_meta_q_3
*1209 core/FE_PHC108_req_meta_q_22
*1210 core/FE_PHC107_req_meta_q_48
*1211 core/FE_PHC106_req_meta_q_50
*1212 core/FE_PHC105_req_meta_q_41
*1213 core/FE_PHC104_req_meta_q_49
*1214 core/FE_PHC103_req_meta_q_20
*1215 core/FE_PHC102_req_meta_q_58
*1216 core/FE_PHC101_req_meta_q_35
*1217 core/FE_PHC100_req_meta_q_18
*1218 core/FE_PHC99_req_meta_q_52
*1219 core/FE_PHC98_req_meta_q_40
*1220 core/FE_PHC97_req_meta_q_27
*1221 core/FE_PHC96_req_meta_q_0
*1222 core/FE_PHC95_req_meta_q_32
*1223 core/FE_PHC94_req_meta_q_1
*1224 core/FE_PHC93_req_meta_q_23
*1225 core/FE_PHC92_req_meta_q_38
*1226 core/FE_PHC91_req_meta_q_51
*1227 core/FE_PHC90_req_meta_q_39
*1228 core/FE_PHC89_req_meta_q_28
*1229 core/FE_PHC88_req_meta_q_6
*1230 core/FE_PHC87_req_meta_q_44
*1231 core/FE_PHC86_req_meta_q_21
*1232 core/FE_PHC85_req_meta_q_25
*1233 core/FE_PHC84_req_meta_q_11
*1234 core/FE_PHC83_req_meta_q_10
*1235 core/FE_PHC82_req_meta_q_9
*1236 core/FE_PHC81_req_meta_q_24
*1237 core/FE_PHC80_req_meta_q_15
*1238 core/FE_PHC78_req_meta_q_19
*1239 core/FE_PHC77_req_meta_q_18
*1240 core/FE_OFC77_n_568
*1241 core/FE_OFC76_n_396
*1242 core/FE_OFC74_n_394
*1243 core/FE_OFC73_n_568
*1244 core/FE_OFC72_n_414
*1245 core/FE_OFC70_n_420
*1246 core/FE_OFC69_n_420
*1247 core/FE_OFC68_n_473
*1248 core/FE_OFC67_n_473
*1249 core/CTS_ccl_a_buf_00012
*1250 core/CTS_ccl_a_buf_00011
*1251 core/CTS_ccl_a_buf_00010
*1252 core/CTS_ccl_a_buf_00009
*1253 core/CTS_ccl_a_buf_00008
*1254 core/CTS_ccl_a_buf_00007
*1255 core/CTS_ccl_a_buf_00006
*1256 core/CTS_ccl_a_buf_00005
*1257 core/CTS_ccl_a_buf_00004
*1258 core/CTS_ccl_a_buf_00003
*1259 core/CTS_ccl_a_buf_00002
*1260 core/CTS_ccl_a_buf_00001
*1261 core/FE_OFC66_FE_DBTN0_n_653
*1262 core/FE_OFC65_FE_DBTN0_n_653
*1263 core/FE_OFC64_n_160
*1264 core/FE_OFC62_n_160
*1265 core/FE_OFC61_n_166
*1266 core/FE_OFC59_n_166
*1267 core/FE_OFC58_n_162
*1268 core/FE_OFC57_n_162
*1269 core/FE_OFC56_n_412
*1270 core/FE_OFC54_n_412
*1271 core/FE_OFC52_n_452
*1272 core/FE_OFC51_n_452
*1273 core/FE_OFC49_n_576
*1274 core/FE_OFC48_n_576
*1275 core/FE_OFC46_n_395
*1276 core/FE_OFC45_n_548
*1277 core/FE_OFC40_n_396
*1278 core/FE_OFC39_n_422
*1279 core/FE_OFC38_n_582
*1280 core/FE_OFC37_n_580
*1281 core/FE_OFC33_n_554
*1282 core/FE_OFC28_n_573
*1283 core/FE_OFC25_n_547
*1284 core/FE_OFC24_n_546
*1285 core/FE_OFC18_n_485
*1286 core/FE_OFC17_n_427
*1287 core/FE_OFC12_n_399
*1288 core/FE_OFC6_n_171
*1289 core/FE_OFC2_req_meta_q_8
*1290 core/FE_DBTC0_n_653
*1291 core/req_meta_q_reg\[0\]
*1292 core/req_meta_q_reg\[1\]
*1293 core/req_meta_q_reg\[2\]
*1294 core/req_meta_q_reg\[3\]
*1295 core/req_meta_q_reg\[4\]
*1296 core/req_meta_q_reg\[5\]
*1297 core/req_meta_q_reg\[6\]
*1298 core/req_meta_q_reg\[7\]
*1299 core/req_meta_q_reg\[8\]
*1300 core/req_meta_q_reg\[9\]
*1301 core/req_meta_q_reg\[10\]
*1302 core/req_meta_q_reg\[11\]
*1303 core/req_meta_q_reg\[12\]
*1304 core/req_meta_q_reg\[13\]
*1305 core/req_meta_q_reg\[14\]
*1306 core/req_meta_q_reg\[15\]
*1307 core/req_meta_q_reg\[16\]
*1308 core/req_meta_q_reg\[17\]
*1309 core/req_meta_q_reg\[18\]
*1310 core/req_meta_q_reg\[19\]
*1311 core/req_meta_q_reg\[20\]
*1312 core/req_meta_q_reg\[21\]
*1313 core/req_meta_q_reg\[22\]
*1314 core/req_meta_q_reg\[23\]
*1315 core/req_meta_q_reg\[24\]
*1316 core/req_meta_q_reg\[25\]
*1317 core/req_meta_q_reg\[26\]
*1318 core/req_meta_q_reg\[27\]
*1319 core/req_meta_q_reg\[28\]
*1320 core/req_meta_q_reg\[29\]
*1321 core/req_meta_q_reg\[30\]
*1322 core/req_meta_q_reg\[31\]
*1323 core/req_meta_q_reg\[32\]
*1324 core/req_meta_q_reg\[33\]
*1325 core/req_meta_q_reg\[34\]
*1326 core/req_meta_q_reg\[35\]
*1327 core/req_meta_q_reg\[36\]
*1328 core/req_meta_q_reg\[37\]
*1329 core/req_meta_q_reg\[38\]
*1330 core/req_meta_q_reg\[39\]
*1331 core/req_meta_q_reg\[40\]
*1332 core/req_meta_q_reg\[41\]
*1333 core/req_meta_q_reg\[42\]
*1334 core/req_meta_q_reg\[43\]
*1335 core/req_meta_q_reg\[44\]
*1336 core/req_meta_q_reg\[45\]
*1337 core/req_meta_q_reg\[46\]
*1338 core/req_meta_q_reg\[47\]
*1339 core/req_meta_q_reg\[48\]
*1340 core/req_meta_q_reg\[49\]
*1341 core/req_meta_q_reg\[50\]
*1342 core/req_meta_q_reg\[51\]
*1343 core/req_meta_q_reg\[52\]
*1344 core/req_meta_q_reg\[53\]
*1345 core/req_meta_q_reg\[54\]
*1346 core/req_meta_q_reg\[55\]
*1347 core/req_meta_q_reg\[56\]
*1348 core/req_meta_q_reg\[57\]
*1349 core/req_meta_q_reg\[58\]
*1350 core/req_meta_q_reg\[59\]
*1351 core/req_meta_q_reg\[60\]
*1352 core/req_meta_q_reg\[61\]
*1353 core/req_meta_q_reg\[62\]
*1354 core/req_meta_q_reg\[63\]
*1355 core/req_sync_q_reg\[0\]
*1356 core/req_sync_q_reg\[1\]
*1357 core/req_sync_q_reg\[2\]
*1358 core/req_sync_q_reg\[3\]
*1359 core/req_sync_q_reg\[4\]
*1360 core/req_sync_q_reg\[5\]
*1361 core/req_sync_q_reg\[6\]
*1362 core/req_sync_q_reg\[7\]
*1363 core/req_sync_q_reg\[8\]
*1364 core/req_sync_q_reg\[9\]
*1365 core/req_sync_q_reg\[10\]
*1366 core/req_sync_q_reg\[11\]
*1367 core/req_sync_q_reg\[12\]
*1368 core/req_sync_q_reg\[13\]
*1369 core/req_sync_q_reg\[14\]
*1370 core/req_sync_q_reg\[15\]
*1371 core/req_sync_q_reg\[16\]
*1372 core/req_sync_q_reg\[17\]
*1373 core/req_sync_q_reg\[18\]
*1374 core/req_sync_q_reg\[19\]
*1375 core/req_sync_q_reg\[20\]
*1376 core/req_sync_q_reg\[21\]
*1377 core/req_sync_q_reg\[22\]
*1378 core/req_sync_q_reg\[23\]
*1379 core/req_sync_q_reg\[24\]
*1380 core/req_sync_q_reg\[25\]
*1381 core/req_sync_q_reg\[26\]
*1382 core/req_sync_q_reg\[27\]
*1383 core/req_sync_q_reg\[28\]
*1384 core/req_sync_q_reg\[29\]
*1385 core/req_sync_q_reg\[30\]
*1386 core/req_sync_q_reg\[31\]
*1387 core/req_sync_q_reg\[32\]
*1388 core/req_sync_q_reg\[33\]
*1389 core/req_sync_q_reg\[34\]
*1390 core/req_sync_q_reg\[35\]
*1391 core/req_sync_q_reg\[36\]
*1392 core/req_sync_q_reg\[37\]
*1393 core/req_sync_q_reg\[38\]
*1394 core/req_sync_q_reg\[39\]
*1395 core/req_sync_q_reg\[40\]
*1396 core/req_sync_q_reg\[41\]
*1397 core/req_sync_q_reg\[42\]
*1398 core/req_sync_q_reg\[43\]
*1399 core/req_sync_q_reg\[44\]
*1400 core/req_sync_q_reg\[45\]
*1401 core/req_sync_q_reg\[46\]
*1402 core/req_sync_q_reg\[47\]
*1403 core/req_sync_q_reg\[48\]
*1404 core/req_sync_q_reg\[49\]
*1405 core/req_sync_q_reg\[50\]
*1406 core/req_sync_q_reg\[51\]
*1407 core/req_sync_q_reg\[52\]
*1408 core/req_sync_q_reg\[53\]
*1409 core/req_sync_q_reg\[54\]
*1410 core/req_sync_q_reg\[55\]
*1411 core/req_sync_q_reg\[56\]
*1412 core/req_sync_q_reg\[57\]
*1413 core/req_sync_q_reg\[58\]
*1414 core/req_sync_q_reg\[59\]
*1415 core/req_sync_q_reg\[60\]
*1416 core/req_sync_q_reg\[61\]
*1417 core/req_sync_q_reg\[62\]
*1418 core/req_sync_q_reg\[63\]
*1419 core/reset_release_q_reg\[0\]
*1420 core/reset_release_q_reg\[1\]
*1421 core/g16624__2398
*1422 core/g16625__5107
*1423 core/g16626__6260
*1424 core/g16627__4319
*1425 core/g16628__8428
*1426 core/g16629__5526
*1427 core/g16630__6783
*1428 core/g16631__3680
*1429 core/g16632__1617
*1430 core/g16633__2802
*1431 core/g16634__1705
*1432 core/g16635__5122
*1433 core/g16636__8246
*1434 core/g16637__7098
*1435 core/g16638__6131
*1436 core/g16639__1881
*1437 core/g16640__5115
*1438 core/g16641__7482
*1439 core/g16642__4733
*1440 core/g16643__6161
*1441 core/g16644__9315
*1442 core/g16645__9945
*1443 core/g16646__2883
*1444 core/g16647__2346
*1445 core/g16648__1666
*1446 core/g16649__7410
*1447 core/g16650__6417
*1448 core/g16651__5477
*1449 core/g16652__2398
*1450 core/g16653__5107
*1451 core/g16654__6260
*1452 core/g16655__4319
*1453 core/g16656__8428
*1454 core/g16657__5526
*1455 core/g16658__6783
*1456 core/g16659__3680
*1457 core/g16660__1617
*1458 core/g16661__2802
*1459 core/g16662__1705
*1460 core/g16663__5122
*1461 core/g16664__8246
*1462 core/g16665__7098
*1463 core/g16666__6131
*1464 core/g16667__1881
*1465 core/g16668__5115
*1466 core/g16669__7482
*1467 core/g16670__4733
*1468 core/g16671__6161
*1469 core/g16672__9315
*1470 core/g16673__9945
*1471 core/g16674__2883
*1472 core/g16675__2346
*1473 core/g16676__1666
*1474 core/g16677__7410
*1475 core/g16678__6417
*1476 core/g16679__5477
*1477 core/g16680__2398
*1478 core/g16681__5107
*1479 core/g16682__6260
*1480 core/g16683__4319
*1481 core/g16684__8428
*1482 core/g16685__5526
*1483 core/g16686__6783
*1484 core/g16687__3680
*1485 core/g16688__1617
*1486 core/ack_q_reg\[0\]
*1487 core/ack_q_reg\[1\]
*1488 core/ack_q_reg\[2\]
*1489 core/ack_q_reg\[3\]
*1490 core/ack_q_reg\[4\]
*1491 core/ack_q_reg\[5\]
*1492 core/ack_q_reg\[6\]
*1493 core/ack_q_reg\[7\]
*1494 core/ack_q_reg\[8\]
*1495 core/ack_q_reg\[9\]
*1496 core/ack_q_reg\[10\]
*1497 core/ack_q_reg\[11\]
*1498 core/ack_q_reg\[12\]
*1499 core/ack_q_reg\[13\]
*1500 core/ack_q_reg\[14\]
*1501 core/ack_q_reg\[15\]
*1502 core/ack_q_reg\[16\]
*1503 core/ack_q_reg\[17\]
*1504 core/ack_q_reg\[18\]
*1505 core/ack_q_reg\[19\]
*1506 core/ack_q_reg\[20\]
*1507 core/ack_q_reg\[21\]
*1508 core/ack_q_reg\[22\]
*1509 core/ack_q_reg\[23\]
*1510 core/ack_q_reg\[24\]
*1511 core/ack_q_reg\[25\]
*1512 core/ack_q_reg\[26\]
*1513 core/ack_q_reg\[27\]
*1514 core/ack_q_reg\[28\]
*1515 core/ack_q_reg\[29\]
*1516 core/ack_q_reg\[30\]
*1517 core/ack_q_reg\[31\]
*1518 core/ack_q_reg\[32\]
*1519 core/ack_q_reg\[33\]
*1520 core/ack_q_reg\[34\]
*1521 core/ack_q_reg\[35\]
*1522 core/ack_q_reg\[36\]
*1523 core/ack_q_reg\[37\]
*1524 core/ack_q_reg\[38\]
*1525 core/ack_q_reg\[39\]
*1526 core/ack_q_reg\[40\]
*1527 core/ack_q_reg\[41\]
*1528 core/ack_q_reg\[42\]
*1529 core/ack_q_reg\[43\]
*1530 core/ack_q_reg\[44\]
*1531 core/ack_q_reg\[45\]
*1532 core/ack_q_reg\[46\]
*1533 core/ack_q_reg\[47\]
*1534 core/ack_q_reg\[48\]
*1535 core/ack_q_reg\[49\]
*1536 core/ack_q_reg\[50\]
*1537 core/ack_q_reg\[51\]
*1538 core/ack_q_reg\[52\]
*1539 core/ack_q_reg\[53\]
*1540 core/ack_q_reg\[54\]
*1541 core/ack_q_reg\[55\]
*1542 core/ack_q_reg\[56\]
*1543 core/ack_q_reg\[57\]
*1544 core/ack_q_reg\[58\]
*1545 core/ack_q_reg\[59\]
*1546 core/ack_q_reg\[60\]
*1547 core/ack_q_reg\[61\]
*1548 core/ack_q_reg\[62\]
*1549 core/ack_q_reg\[63\]
*1550 core/out_rank_q_reg\[0\]
*1551 core/out_rank_q_reg\[1\]
*1552 core/out_rank_q_reg\[2\]
*1553 core/out_rank_q_reg\[3\]
*1554 core/out_rank_q_reg\[4\]
*1555 core/out_rank_q_reg\[5\]
*1556 core/out_valid_q_reg
*1557 core/pending_q_reg\[0\]
*1558 core/pending_q_reg\[1\]
*1559 core/pending_q_reg\[2\]
*1560 core/pending_q_reg\[3\]
*1561 core/pending_q_reg\[4\]
*1562 core/pending_q_reg\[5\]
*1563 core/pending_q_reg\[6\]
*1564 core/pending_q_reg\[7\]
*1565 core/pending_q_reg\[8\]
*1566 core/pending_q_reg\[9\]
*1567 core/pending_q_reg\[10\]
*1568 core/pending_q_reg\[11\]
*1569 core/pending_q_reg\[12\]
*1570 core/pending_q_reg\[13\]
*1571 core/pending_q_reg\[14\]
*1572 core/pending_q_reg\[15\]
*1573 core/pending_q_reg\[16\]
*1574 core/pending_q_reg\[17\]
*1575 core/pending_q_reg\[18\]
*1576 core/pending_q_reg\[19\]
*1577 core/pending_q_reg\[20\]
*1578 core/pending_q_reg\[21\]
*1579 core/pending_q_reg\[22\]
*1580 core/pending_q_reg\[23\]
*1581 core/pending_q_reg\[24\]
*1582 core/pending_q_reg\[25\]
*1583 core/pending_q_reg\[26\]
*1584 core/pending_q_reg\[27\]
*1585 core/pending_q_reg\[28\]
*1586 core/pending_q_reg\[29\]
*1587 core/pending_q_reg\[30\]
*1588 core/pending_q_reg\[31\]
*1589 core/pending_q_reg\[32\]
*1590 core/pending_q_reg\[33\]
*1591 core/pending_q_reg\[34\]
*1592 core/pending_q_reg\[35\]
*1593 core/pending_q_reg\[36\]
*1594 core/pending_q_reg\[37\]
*1595 core/pending_q_reg\[38\]
*1596 core/pending_q_reg\[39\]
*1597 core/pending_q_reg\[40\]
*1598 core/pending_q_reg\[41\]
*1599 core/pending_q_reg\[42\]
*1600 core/pending_q_reg\[43\]
*1601 core/pending_q_reg\[44\]
*1602 core/pending_q_reg\[45\]
*1603 core/pending_q_reg\[46\]
*1604 core/pending_q_reg\[47\]
*1605 core/pending_q_reg\[48\]
*1606 core/pending_q_reg\[49\]
*1607 core/pending_q_reg\[50\]
*1608 core/pending_q_reg\[51\]
*1609 core/pending_q_reg\[52\]
*1610 core/pending_q_reg\[53\]
*1611 core/pending_q_reg\[54\]
*1612 core/pending_q_reg\[55\]
*1613 core/pending_q_reg\[56\]
*1614 core/pending_q_reg\[57\]
*1615 core/pending_q_reg\[58\]
*1616 core/pending_q_reg\[59\]
*1617 core/pending_q_reg\[60\]
*1618 core/pending_q_reg\[61\]
*1619 core/pending_q_reg\[62\]
*1620 core/pending_q_reg\[63\]
*1621 core/g23953__2802
*1622 core/g23954__1705
*1623 core/g23955__5122
*1624 core/g23956__8246
*1625 core/g23957__7098
*1626 core/g23958__6131
*1627 core/g23959__1881
*1628 core/g23960__5115
*1629 core/g23961__7482
*1630 core/g23962__4733
*1631 core/g23963__6161
*1632 core/g23964__9315
*1633 core/g23965__9945
*1634 core/g23966__2883
*1635 core/g23967__2346
*1636 core/g23968__1666
*1637 core/g23985__7410
*1638 core/g23986__6417
*1639 core/g23987__5477
*1640 core/g23988__2398
*1641 core/g23989__5107
*1642 core/g23990__6260
*1643 core/g23991__4319
*1644 core/g23992__8428
*1645 core/g23993__5526
*1646 core/g23994__6783
*1647 core/g23995__3680
*1648 core/g23996__1617
*1649 core/g23997__2802
*1650 core/g23998__1705
*1651 core/g23999__5122
*1652 core/g24000__8246
*1653 core/g24001__7098
*1654 core/g24002__6131
*1655 core/g24003__1881
*1656 core/g24004__5115
*1657 core/g24005__7482
*1658 core/g24006__4733
*1659 core/g24007__6161
*1660 core/g24009__9315
*1661 core/g24010__9945
*1662 core/g24011__2883
*1663 core/g24012__2346
*1664 core/g24013__1666
*1665 core/g24014__7410
*1666 core/g24015__6417
*1667 core/g24016__5477
*1668 core/g24017__2398
*1669 core/g24018__5107
*1670 core/g24019__6260
*1671 core/g24020__4319
*1672 core/g24021__8428
*1673 core/g24022__5526
*1674 core/g24023__6783
*1675 core/g24024__3680
*1676 core/g24025__1617
*1677 core/g24026__2802
*1678 core/g24027__1705
*1679 core/g24028__5122
*1680 core/g24029__8246
*1681 core/g24030__7098
*1682 core/g24031__6131
*1683 core/g24032__1881
*1684 core/g24033__5115
*1685 core/g24034__7482
*1686 core/g24035__4733
*1687 core/g24036__6161
*1688 core/g24037__9315
*1689 core/g24038__9945
*1690 core/g24039__2883
*1691 core/g24041__2346
*1692 core/g24042__1666
*1693 core/g24043__7410
*1694 core/g24044
*1695 core/g24045__6417
*1696 core/g24046__5477
*1697 core/g24049__2398
*1698 core/g24050__5107
*1699 core/g24051__6260
*1700 core/g24052__4319
*1701 core/g24053__8428
*1702 core/g24054__5526
*1703 core/g24055__6783
*1704 core/g24056__3680
*1705 core/g24057__1617
*1706 core/g24058__2802
*1707 core/g24059__1705
*1708 core/g24060__5122
*1709 core/g24061__8246
*1710 core/g24062__7098
*1711 core/g24063__6131
*1712 core/g24064__1881
*1713 core/g24065__5115
*1714 core/g24066__7482
*1715 core/g24067
*1716 core/g24068__4733
*1717 core/g24069__6161
*1718 core/g24070__9315
*1719 core/g24071__9945
*1720 core/g24072__2883
*1721 core/g24073__2346
*1722 core/g24074__1666
*1723 core/g24075__7410
*1724 core/g24076__6417
*1725 core/g24077__5477
*1726 core/g24078__2398
*1727 core/g24079__5107
*1728 core/g24080
*1729 core/g24081
*1730 core/g24082__6260
*1731 core/g24083__4319
*1732 core/g24084__8428
*1733 core/g24085__5526
*1734 core/g24086__6783
*1735 core/g24087__3680
*1736 core/g24088__1617
*1737 core/g24089__2802
*1738 core/g24090__1705
*1739 core/g24091__5122
*1740 core/g24092__8246
*1741 core/g24093__7098
*1742 core/g24094__6131
*1743 core/g24095__1881
*1744 core/g24096__5115
*1745 core/g24097__7482
*1746 core/g24098__4733
*1747 core/g24100__6161
*1748 core/g24101__9315
*1749 core/g24102__9945
*1750 core/g24103__2883
*1751 core/g24104__2346
*1752 core/g24105__1666
*1753 core/g24106__7410
*1754 core/g24107__6417
*1755 core/g24108__5477
*1756 core/g24109__2398
*1757 core/g24110__5107
*1758 core/g24111__6260
*1759 core/g24112__4319
*1760 core/g24113__8428
*1761 core/g24114__5526
*1762 core/g24115__6783
*1763 core/g24116__3680
*1764 core/g24117__1617
*1765 core/g24118__2802
*1766 core/g24119__1705
*1767 core/g24120__5122
*1768 core/g24121__8246
*1769 core/g24123__7098
*1770 core/g24124__6131
*1771 core/g24125__1881
*1772 core/g24126__5115
*1773 core/g24127__7482
*1774 core/g24128__4733
*1775 core/g24129__6161
*1776 core/g24133__9315
*1777 core/g24135__9945
*1778 core/g24136__2883
*1779 core/g24137__2346
*1780 core/g24139__1666
*1781 core/g24140__7410
*1782 core/g24141__6417
*1783 core/g24142__5477
*1784 core/g24143__2398
*1785 core/g24144__5107
*1786 core/g24145__6260
*1787 core/g24147__4319
*1788 core/g24148__8428
*1789 core/g24149__5526
*1790 core/g24150
*1791 core/g24153__6783
*1792 core/g24154
*1793 core/g24155
*1794 core/g24156__3680
*1795 core/g24157__1617
*1796 core/g24158__2802
*1797 core/g24159__1705
*1798 core/g24160__5122
*1799 core/g24163__8246
*1800 core/g24164__7098
*1801 core/g24165__6131
*1802 core/g24166__1881
*1803 core/g24167__5115
*1804 core/g24168__7482
*1805 core/g24169__4733
*1806 core/g24170__6161
*1807 core/g24171__9315
*1808 core/g24172__9945
*1809 core/g24173__2883
*1810 core/g24174__2346
*1811 core/g24175__1666
*1812 core/g24176__7410
*1813 core/g24177__6417
*1814 core/g24178__5477
*1815 core/g24179__2398
*1816 core/g24180__5107
*1817 core/g24181__6260
*1818 core/g24182__4319
*1819 core/g24185__8428
*1820 core/g24186__5526
*1821 core/g24187__6783
*1822 core/g24188__3680
*1823 core/g24189__1617
*1824 core/g24190
*1825 core/g24191__2802
*1826 core/g24192__1705
*1827 core/g24193__5122
*1828 core/g24194__8246
*1829 core/g24195__7098
*1830 core/g24196__6131
*1831 core/g24197__1881
*1832 core/g24200__5115
*1833 core/g24202__7482
*1834 core/g24203__4733
*1835 core/g24204__6161
*1836 core/g24205
*1837 core/g24206__9315
*1838 core/g24207__9945
*1839 core/g24208__2883
*1840 core/g24209__2346
*1841 core/g24210__1666
*1842 core/g24211__7410
*1843 core/g24213__6417
*1844 core/g24214__5477
*1845 core/g24215__2398
*1846 core/g24216__5107
*1847 core/g24217__6260
*1848 core/g24219__4319
*1849 core/g24220__8428
*1850 core/g24221__5526
*1851 core/g24222__6783
*1852 core/g24223__3680
*1853 core/g24224__1617
*1854 core/g24225__2802
*1855 core/g24226__1705
*1856 core/g24227__5122
*1857 core/g24229__8246
*1858 core/g24230__7098
*1859 core/g24231__6131
*1860 core/g24232__1881
*1861 core/g24233__5115
*1862 core/g24234__7482
*1863 core/g24235__4733
*1864 core/g24236__6161
*1865 core/g24237__9315
*1866 core/g24238__9945
*1867 core/g24239__2883
*1868 core/g24240__2346
*1869 core/g24241__1666
*1870 core/g24242__7410
*1871 core/g24243__6417
*1872 core/g24244__5477
*1873 core/g24245__2398
*1874 core/g24246__5107
*1875 core/g24247__6260
*1876 core/g24248__4319
*1877 core/g24249__8428
*1878 core/g24250__5526
*1879 core/g24251__6783
*1880 core/g24252__3680
*1881 core/g24253__1617
*1882 core/g24254__2802
*1883 core/g24255__1705
*1884 core/g24298__5122
*1885 core/g24299__8246
*1886 core/g24300__7098
*1887 core/g24301__6131
*1888 core/g24302__1881
*1889 core/g24303__5115
*1890 core/g24304__7482
*1891 core/g24305__4733
*1892 core/g24306__6161
*1893 core/g24307__9315
*1894 core/g24308__9945
*1895 core/g24309__2883
*1896 core/g24310__2346
*1897 core/g24311__1666
*1898 core/g24312__7410
*1899 core/g24313__6417
*1900 core/g24314__5477
*1901 core/g24315__2398
*1902 core/g24316__5107
*1903 core/g24317__6260
*1904 core/g24318__4319
*1905 core/g24341
*1906 core/g24342
*1907 core/g24343
*1908 core/g24344
*1909 core/g24345
*1910 core/g24346
*1911 core/g24347
*1912 core/g24348
*1913 core/g24349
*1914 core/g24350
*1915 core/g24351
*1916 core/g24352
*1917 core/g24353
*1918 core/g24354
*1919 core/g24355
*1920 core/g24356
*1921 core/g24357
*1922 core/g24358
*1923 core/g24359
*1924 core/g24360
*1925 core/g24361
*1926 core/g24362
*1927 core/g24363
*1928 core/g24364
*1929 core/g24365
*1930 core/g24366
*1931 core/g24367
*1932 core/g24368
*1933 core/g24369
*1934 core/g24370
*1935 core/g24371
*1936 core/g24372__8428
*1937 core/g24373__5526
*1938 core/g24374__6783
*1939 core/g24375__3680
*1940 core/g24376__1617
*1941 core/g24377__2802
*1942 core/g24378__1705
*1943 core/g24379__5122
*1944 core/g24380__8246
*1945 core/g24381__7098
*1946 core/g24382__6131
*1947 core/g24383__1881
*1948 core/g24384__5115
*1949 core/g24385__7482
*1950 core/g24386__4733
*1951 core/g24387__6161
*1952 core/g24388__9315
*1953 core/g24389__9945
*1954 core/g24390__2883
*1955 core/g24391__2346
*1956 core/g24392__1666
*1957 core/g24393__7410
*1958 core/g24394__6417
*1959 core/g24395__5477
*1960 core/g24396__2398
*1961 core/g24397__5107
*1962 core/g24398__6260
*1963 core/g24399__4319
*1964 core/g24400__8428
*1965 core/g24401__5526
*1966 core/g24402__6783
*1967 core/g24403__3680
*1968 core/g24404
*1969 core/g24405
*1970 core/g24406
*1971 core/g24407
*1972 core/g24408
*1973 core/g24409
*1974 core/g24410
*1975 core/g24411
*1976 core/g24412
*1977 core/g24413
*1978 core/g24414
*1979 core/g24415
*1980 core/g24416
*1981 core/g24417
*1982 core/g24418
*1983 core/g24419
*1984 core/g24420
*1985 core/g24421
*1986 core/g24422
*1987 core/g24423
*1988 core/g24424
*1989 core/g24425
*1990 core/g24426
*1991 core/g24427
*1992 core/g24428
*1993 core/g24429
*1994 core/g24430
*1995 core/g24431
*1996 core/g24432
*1997 core/g24433
*1998 core/g24434
*1999 core/g24435
*2000 core/g24436
*2001 core/g24437__1617
*2002 core/g24438__2802
*2003 core/g24439__1705
*2004 core/g24440__5122
*2005 core/g24441__8246
*2006 core/g24442__7098
*2007 core/g24443__6131
*2008 core/g24444__1881
*2009 core/g24445__5115
*2010 core/g24446__7482
*2011 core/g24447__4733
*2012 core/g24448__6161
*2013 core/g24449__9315
*2014 core/g24450__9945
*2015 core/g24451__2883
*2016 core/g24452__2346
*2017 core/g24453__1666
*2018 core/g24454__7410
*2019 core/g24455__6417
*2020 core/g24456__5477
*2021 core/g24457__2398
*2022 core/g24458__5107
*2023 core/g24459__6260
*2024 core/g24460__4319
*2025 core/g24461__8428
*2026 core/g24462__5526
*2027 core/g24463__6783
*2028 core/g24464__3680
*2029 core/g24465__1617
*2030 core/g24466__2802
*2031 core/g24467__1705
*2032 core/g24468__5122
*2033 core/g24469__8246
*2034 core/g24470__7098
*2035 core/g24471__6131
*2036 core/g24472__1881
*2037 core/g24473__5115
*2038 core/g24474__7482
*2039 core/g24475__4733
*2040 core/g24476__6161
*2041 core/g24477__9315
*2042 core/g24478__9945
*2043 core/g24479__2883
*2044 core/g24480__2346
*2045 core/g24481__1666
*2046 core/g24482__7410
*2047 core/g24483__6417
*2048 core/g24484__5477
*2049 core/g24485__2398
*2050 core/g24486__5107
*2051 core/g24487__6260
*2052 core/g24488__4319
*2053 core/g24489__8428
*2054 core/g24490__5526
*2055 core/g24491__6783
*2056 core/g24492__3680
*2057 core/g24493__1617
*2058 core/g24494__2802
*2059 core/g24495__1705
*2060 core/g24496__5122
*2061 core/g24497__8246
*2062 core/g24498__7098
*2063 core/g24499__6131
*2064 core/g24500__1881
*2065 core/g24501__5115
*2066 core/g24502__7482
*2067 core/g24503__4733
*2068 core/g24504__6161
*2069 core/g24505__9315
*2070 core/g24506
*2071 core/g24509
*2072 core/g24512__9945
*2073 core/g24513__2883
*2074 core/g24514__2346
*2075 core/g24515__1666
*2076 core/g24516__7410
*2077 core/g24517__6417
*2078 core/g24518__5477
*2079 core/g24519__2398
*2080 core/g24520__5107
*2081 core/g24521__6260
*2082 core/g24522__4319
*2083 core/g24523__8428
*2084 core/g24524__5526
*2085 core/g24525__6783
*2086 core/g24526__3680
*2087 core/g24527__1617
*2088 core/g24528__2802
*2089 core/g24529__1705
*2090 core/g24530__5122
*2091 core/g24531__8246
*2092 core/g24532__7098
*2093 core/g24533__6131
*2094 core/g24534__1881
*2095 core/g24535__5115
*2096 core/g24536__7482
*2097 core/g24537__4733
*2098 core/g24538__6161
*2099 core/g24539__9315
*2100 core/g24540__9945
*2101 core/g24541__2883
*2102 core/g24542__2346
*2103 core/g24543__1666
*2104 core/g24544__7410
*2105 core/g24545__6417
*2106 core/g24546__5477
*2107 core/g24547__2398
*2108 core/g24548
*2109 core/g24549__5107
*2110 core/g24550__6260
*2111 core/g24551__4319
*2112 core/g24552__8428
*2113 core/g24553__5526
*2114 core/g24554__6783
*2115 core/g24555__3680
*2116 core/g24556__1617
*2117 core/g24557__2802
*2118 core/g24558
*2119 core/g24559
*2120 core/g24560
*2121 core/g24561
*2122 core/g24562
*2123 core/g24563
*2124 core/g24564
*2125 core/g24565
*2126 core/g24566
*2127 core/g24567
*2128 core/g24568
*2129 core/g24569
*2130 core/g24570
*2131 core/g24571
*2132 core/g24572
*2133 core/g24573
*2134 core/g24574
*2135 core/g24575
*2136 core/g24576
*2137 core/g24577
*2138 core/g24578
*2139 core/g24579
*2140 core/g24580
*2141 core/g24581
*2142 core/g24582
*2143 core/g24583
*2144 core/g24584
*2145 core/g24585
*2146 core/g24586
*2147 core/g24587
*2148 core/g24588
*2149 core/g24589
*2150 core/g24590
*2151 core/g24591
*2152 core/g24592
*2153 core/g24593
*2154 core/g24594
*2155 core/g24595
*2156 core/g24596
*2157 core/g24597
*2158 core/g24598
*2159 core/g24599
*2160 core/g24600
*2161 core/g24601
*2162 core/g24602
*2163 core/g24603
*2164 core/g24604
*2165 core/g24605
*2166 core/g24606
*2167 core/g24607
*2168 core/g24608
*2169 core/g24609
*2170 core/g24610
*2171 core/g24611
*2172 core/g24612
*2173 core/g24613
*2174 core/g24614
*2175 core/g24615
*2176 core/g24616
*2177 core/g24617
*2178 core/g24618
*2179 core/g24619
*2180 core/g24620
*2181 core/g24621
*2182 core/g24622
*2183 core/g24623
*2184 core/g24624
*2185 core/g24625
*2186 core/g24626
*2187 core/g24627
*2188 core/g24628
*2189 core/g24629
*2190 core/g24630
*2191 core/g24631
*2192 core/g24632
*2193 core/g24633
*2194 core/g24634
*2195 core/g24635
*2196 core/g24636
*2197 core/g24637
*2198 core/g24638
*2199 core/g24639
*2200 core/g24640
*2201 core/g24641
*2202 core/g24642
*2203 core/g24643
*2204 core/g24644
*2205 core/g24645
*2206 core/g24646
*2207 core/g24647
*2208 core/g24648
*2209 core/g24649
*2210 core/g24650
*2211 core/g24651
*2212 core/g24652
*2213 core/g24653
*2214 core/g24654
*2215 core/g24655
*2216 core/g24656
*2217 core/g24657
*2218 core/g24658
*2219 core/g24659
*2220 core/g24660
*2221 core/g24661
*2222 core/g24662
*2223 core/g24663
*2224 core/g24664
*2225 core/g24665
*2226 core/g24666
*2227 core/g24667
*2228 core/g24668
*2229 core/g24669
*2230 core/g24670
*2231 core/g24671
*2232 core/g24672
*2233 core/g24673
*2234 core/g24674
*2235 core/g24675
*2236 core/g24676
*2237 core/g24677
*2238 core/g24678
*2239 core/g24679
*2240 core/g24680
*2241 core/g24681
*2242 core/g24682
*2243 core/g24683
*2244 core/g24684
*2245 core/g24685
*2246 core/g24686
*2247 core/g24687
*2248 core/g24688
*2249 core/g24689
*2250 core/g24690
*2251 core/g24691
*2252 core/g2__1705
*2253 core/g24707__5122
*2254 core/g24708__8246
*2255 core/g24709__7098
*2256 core/g24710__6131
*2257 core/g24711__1881
*2258 core/g24712__5115


*PORTS

*123 I *C 0 0.095
*124 I *C 0 1.045
*125 I *C 0 73.435
*126 I *C 0 72.295
*127 I *C 0 71.155
*128 I *C 0 70.015
*129 I *C 0 68.875
*130 I *C 0 67.735
*131 I *C 0 66.595
*132 I *C 0 65.645
*133 I *C 0 64.505
*134 I *C 0 63.365
*135 I *C 0 62.225
*136 I *C 0 61.085
*137 I *C 0 59.945
*138 I *C 0 58.805
*139 I *C 0 57.855
*140 I *C 0 56.715
*141 I *C 0 55.575
*142 I *C 0 54.435
*143 I *C 0 53.295
*144 I *C 0 52.155
*145 I *C 0 51.205
*146 I *C 0 50.065
*147 I *C 0 48.925
*148 I *C 0 47.785
*149 I *C 0 46.645
*150 I *C 0 45.505
*151 I *C 0 44.365
*152 I *C 0 43.415
*153 I *C 0 42.275
*154 I *C 0 41.135
*155 I *C 0 39.995
*156 I *C 0 38.855
*157 I *C 0 37.715
*158 I *C 0 36.575
*159 I *C 0 35.625
*160 I *C 0 34.485
*161 I *C 0 33.345
*162 I *C 0 32.205
*163 I *C 0 31.065
*164 I *C 0 29.925
*165 I *C 0 28.975
*166 I *C 0 27.835
*167 I *C 0 26.695
*168 I *C 0 25.555
*169 I *C 0 24.415
*170 I *C 0 23.275
*171 I *C 0 22.135
*172 I *C 0 21.185
*173 I *C 0 20.045
*174 I *C 0 18.905
*175 I *C 0 17.765
*176 I *C 0 16.625
*177 I *C 0 15.485
*178 I *C 0 14.535
*179 I *C 0 13.395
*180 I *C 0 12.255
*181 I *C 0 11.115
*182 I *C 0 9.975
*183 I *C 0 8.835
*184 I *C 0 7.695
*185 I *C 0 6.745
*186 I *C 0 5.605
*187 I *C 0 4.465
*188 I *C 0 3.325
*189 O *C 73.8 6.555
*190 O *C 73.8 7.505
*191 O *C 73.8 8.645
*192 O *C 73.8 9.595
*193 O *C 73.8 10.735
*194 O *C 73.8 11.685
*195 O *C 73.8 12.825
*196 O *C 73.8 13.775
*197 O *C 73.8 14.915
*198 O *C 73.8 15.865
*199 O *C 73.8 17.005
*200 O *C 73.8 17.955
*201 O *C 73.8 19.095
*202 O *C 73.8 20.045
*203 O *C 73.8 21.185
*204 O *C 73.8 22.135
*205 O *C 73.8 23.275
*206 O *C 73.8 24.225
*207 O *C 73.8 25.365
*208 O *C 73.8 26.315
*209 O *C 73.8 27.455
*210 O *C 73.8 28.405
*211 O *C 73.8 29.545
*212 O *C 73.8 30.495
*213 O *C 73.8 31.635
*214 O *C 73.8 32.585
*215 O *C 73.8 33.725
*216 O *C 73.8 34.675
*217 O *C 73.8 35.815
*218 O *C 73.8 36.955
*219 O *C 73.8 37.905
*220 O *C 73.8 39.045
*221 O *C 73.8 39.995
*222 O *C 73.8 41.135
*223 O *C 73.8 42.085
*224 O *C 73.8 43.225
*225 O *C 73.8 44.175
*226 O *C 73.8 45.315
*227 O *C 73.8 46.265
*228 O *C 73.8 47.405
*229 O *C 73.8 48.355
*230 O *C 73.8 49.495
*231 O *C 73.8 50.445
*232 O *C 73.8 51.585
*233 O *C 73.8 52.535
*234 O *C 73.8 53.675
*235 O *C 73.8 54.625
*236 O *C 73.8 55.765
*237 O *C 73.8 56.715
*238 O *C 73.8 57.855
*239 O *C 73.8 58.805
*240 O *C 73.8 59.945
*241 O *C 73.8 60.895
*242 O *C 73.8 62.035
*243 O *C 73.8 62.985
*244 O *C 73.8 64.125
*245 O *C 73.8 65.075
*246 O *C 73.8 66.215
*247 O *C 73.8 67.165
*248 O *C 73.8 68.305
*249 O *C 73.8 69.255
*250 O *C 73.8 70.395
*251 O *C 73.8 71.345
*252 O *C 73.8 72.485
*253 O *C 73.8 0.095
*254 O *C 73.8 1.235
*255 O *C 73.8 2.375
*256 O *C 73.8 3.325
*257 O *C 73.8 4.465
*258 O *C 73.8 5.415
*259 O *C 73.8 73.435
*260 I *C 0 2.185


*D_NET *1 9.02414e-05

*CONN
*I *1166:A I *C 55.94 7.78 *L 0.00021 *D DLY1X1
*I *1419:Q O *C 55.54 5.68 *L 0 *D DFFRHQX1

*CAP
1 *1419:Q 4.51207178e-05
2 *1166:A 4.51207178e-05

*RES
1 *1166:A *1419:Q 14.3347
*END

*D_NET *2 0.000342607

*CONN
*I *1167:Y O *C 48.01 58.755 *L 0 *D CLKBUFX2
*I *2002:B0 I *C 45.9 57.475 *L 0.00039 *D OAI211X1

*CAP
1 *1167:Y 3.53454e-05
2 *2002:B0 5.58495508e-05
3 *2:2 3.53454e-05
4 *2:3 5.58495508e-05
5 *2:2 *1167:A 0.000160217285

*RES
1 *2002:B0 *2:3 14.9613619
2 *2:2 *1167:Y 7.66583
3 *2:3 *2:2 6.59993
*END

*D_NET *3 0.000215888

*CONN
*I *1168:Y O *C 38.61 41.655 *L 0 *D CLKBUFX2
*I *1953:B0 I *C 37.1 41.705 *L 0.00039 *D OAI211X1

*CAP
1 *1168:Y 5.54388e-06
2 *1953:B0 8.49957e-05
3 *3:2 2.29474e-05
4 *3:3 0.000102400781

*RES
1 *1953:B0 *3:3 14.3566132
2 *3:2 *1168:Y 0.165832
3 *3:3 *3:2 13.389
*END

*D_NET *4 0.00018394

*CONN
*I *1169:Y O *C 28.01 31.395 *L 0 *D CLKBUFX2
*I *1963:B0 I *C 29.1 31.445 *L 0.00039 *D OAI211X1

*CAP
1 *1169:Y 9.19699707e-05
2 *1963:B0 9.19699707e-05

*RES
1 *1963:B0 *1169:Y 27.9194
*END

*D_NET *5 0.000546813

*CONN
*I *1170:Y O *C 33.81 47.265 *L 0 *D CLKBUFX2
*I *1939:B0 I *C 37.5 47.215 *L 0.00039 *D OAI211X1

*CAP
1 *1170:Y 0.000189423555
2 *1939:B0 0.000189423555
3 *1939:B0 *379:3 0.000167965898

*RES
1 *1939:B0 *1170:Y 30.6031
*END

*D_NET *6 0.000672221

*CONN
*I *1171:Y O *C 17.61 34.815 *L 0 *D CLKBUFX2
*I *1937:B0 I *C 22.5 34.865 *L 0.00039 *D OAI211X1

*CAP
1 *1937:B0 8.4878e-05
2 *1171:Y 0.000103234
3 *6:2 0.000188112266
4 *6:2 *1389:D 0.000177502637
5 *6:2 *2081:A0 0.000118494033

*RES
1 *6:2 *1171:Y 30.1494598
2 *1937:B0 *6:2 14.3943
*END

*D_NET *7 0.000615358

*CONN
*I *1172:Y O *C 40.01 60.945 *L 0 *D CLKBUFX2
*I *1952:B0 I *C 39.9 57.475 *L 0.00039 *D OAI211X1

*CAP
1 *1952:B0 0.000228406
2 *1172:Y 7.92731e-05
3 *7:2 0.00030767918

*RES
1 *7:2 *1172:Y 8.38375
2 *1952:B0 *7:2 37.0141258
*END

*D_NET *8 0.000677407

*CONN
*I *1173:Y O *C 21.01 37.005 *L 0 *D CLKBUFX2
*I *1945:B0 I *C 20.9 31.445 *L 0.00039 *D OAI211X1

*CAP
1 *1173:Y 3.31995e-05
2 *1945:B0 9.82883e-05
3 *8:2 0.000131487842
4 *1945:B0 *387:6 0.00017356873
5 *1945:B0 *334:4 0.000240862363

*RES
1 *1945:B0 *8:2 30.7542076
2 *8:2 *1173:Y 13.6009
*END

*D_NET *9 0.000254631

*CONN
*I *1174:Y O *C 30.01 54.105 *L 0 *D CLKBUFX2
*I *1363:D I *C 29.5 55.575 *L 0.000307 *D DFFHQX1

*CAP
1 *1174:Y 5.70419e-05
2 *1363:D 4.12465e-05
3 *9:2 8.60691113e-05
4 *9:3 7.02737e-05

*RES
1 *1363:D *9:3 7.52237
2 *9:3 *9:2 13.5627
3 *9:2 *1174:Y 20.5256939
*END

*D_NET *10 0.00266707

*CONN
*I *1175:Y O *C 10.5 23.275 *L 0 *D DLY1X1
*I *1372:D I *C 11.1 52.155 *L 0.000307 *D DFFHQX1

*CAP
1 *1372:D 5.31658e-05
2 *1175:Y 5.1269e-06
3 *10:2 0.000115212
4 *10:3 0.000429691
5 *10:4 0.000520110117
6 *10:5 0.000486373
7 *10:6 0.000177799
8 *10:7 0.000506579
9 *10:5 *1376:D 8.91685449e-05
10 *10:3 *12:3 0.000144958496
11 *10:3 *1381:D 0.000138878818

*RES
1 *10:7 *10:6 23.9123116
2 *10:5 *10:7 8.53474
3 *10:4 *10:5 16.9494
4 *10:3 *10:4 8.67084
5 *10:6 *1175:Y 0.165652
6 *1372:D *10:2 4.26391
7 *10:2 *10:3 1.60252
*END

*D_NET *11 0.00204861

*CONN
*I *1176:Y O *C 17.7 21.185 *L 0 *D DLY1X1
*I *1371:D I *C 17.3 47.025 *L 0.000307 *D DFFHQX1

*CAP
1 *1176:Y 0.000811097
2 *1371:D 5.04282e-05
3 *11:2 0.000861525547
4 *11:2 *120:5 0.000184178359
5 *11:2 *338:4 0.000141382217

*RES
1 *1371:D *11:2 4.37719
2 *11:2 *1176:Y 53.9623489
*END

*D_NET *12 0.0022729

*CONN
*I *1177:Y O *C 12.3 23.275 *L 0 *D DLY1X1
*I *1367:D I *C 11.7 48.735 *L 0.000307 *D DFFHQX1

*CAP
1 *1367:D 0.000106752
2 *1177:Y 7.33118e-05
3 *12:2 0.000164454
4 *12:3 0.00041223
5 *12:4 0.000689804531
6 *12:5 0.000408588
7 *12:4 *1376:D 0.000114858154
8 *12:3 *10:3 0.000144958496
9 *12:2 *344:7 0.000157952305

*RES
1 *12:5 *1177:Y 14.9613
2 *12:4 *12:5 27.9943943
3 *12:3 *12:4 9.8499
4 *1367:D *12:2 5.5565
5 *12:2 *12:3 1.14906
*END

*D_NET *13 0.00117719

*CONN
*I *1178:Y O *C 8.1 45.125 *L 0 *D DLY1X1
*I *1369:D I *C 20.5 47.025 *L 0.000307 *D DFFHQX1

*CAP
1 *1369:D 7.55202e-05
2 *1178:Y 1.03126e-05
3 *13:2 0.00031781
4 *13:3 8.44006e-05
5 *13:4 0.00031924248
6 *13:2 *362:4 0.000172019004
7 *13:2 *1188:A 0.000197887422

*RES
1 *13:4 *1178:Y 13.4041309
2 *1369:D *13:3 4.9026
3 *13:3 *13:2 3.34674
4 *13:2 *13:4 9.75939
*END

*D_NET *14 0.000132799

*CONN
*I *1179:Y O *C 26.61 54.105 *L 0 *D CLKBUFX2
*I *1362:D I *C 26.3 55.575 *L 0.000307 *D DFFHQX1

*CAP
1 *1179:Y 2.08616e-05
2 *1362:D 4.55379e-05
3 *14:2 6.63995752e-05

*RES
1 *1362:D *14:2 7.53057003
2 *14:2 *1179:Y 7.09139
*END

*D_NET *15 0.000822663

*CONN
*I *1180:Y O *C 18.7 64.315 *L 0 *D DLY1X1
*I *1410:D I *C 23.1 55.575 *L 0.000307 *D DFFHQX1

*CAP
1 *1180:Y 0.000363348
2 *1410:D 4.7984e-05
3 *15:2 0.000411331641

*RES
1 *1410:D *15:2 4.39259
2 *15:2 *1180:Y 26.237011
*END

*D_NET *16 0.000736535

*CONN
*I *1181:Y O *C 17.41 30.165 *L 0 *D CLKBUFX2
*I *1374:D I *C 14.3 24.795 *L 0.000307 *D DFFHQX1

*CAP
1 *1181:Y 9.20303e-05
2 *1374:D 0.000118374
3 *16:2 0.000133037
4 *16:3 0.000159382822
5 *16:3 *1377:D 0.000117838379
6 *16:3 *369:5 0.000115871426

*RES
1 *1374:D *16:3 5.68546
2 *16:3 *16:2 15.5283213
3 *16:2 *1181:Y 8.384
*END

*D_NET *17 0.00063473

*CONN
*I *1182:Y O *C 28.5 62.225 *L 0 *D DLY1X1
*I *1415:D I *C 31.9 57.285 *L 0.000307 *D DFFHQX1

*CAP
1 *1415:D 5.6923e-05
2 *1182:Y 3.89221e-05
3 *17:2 0.000173509121
4 *17:3 0.000155508
5 *17:2 *386:3 0.00012356043
6 *17:2 *41:2 8.63075293e-05

*RES
1 *17:3 *1182:Y 7.66596
2 *1415:D *17:2 4.53596
3 *17:2 *17:3 17.9401627
*END

*D_NET *18 0.00129479

*CONN
*I *1183:Y O *C 24.9 54.055 *L 0 *D DLY1X1
*I *1397:D I *C 21.3 41.895 *L 0.000307 *D DFFHQX1

*CAP
1 *1183:Y 3.91586e-05
2 *1397:D 0.000434758
3 *18:2 0.000473916523
4 *1397:D *1197:A 0.000225782402
5 *1397:D *1390:D 0.00012117624

*RES
1 *1397:D *18:2 30.9048882
2 *18:2 *1183:Y 7.52203
*END

*D_NET *19 0.00177228

*CONN
*I *1184:Y O *C 13.7 30.115 *L 0 *D DLY1X1
*I *1388:D I *C 24.3 40.185 *L 0.000307 *D DFFHQX1

*CAP
1 *1388:D 0.000596342
2 *1184:Y 9.83498e-05
3 *19:2 0.000694692109
4 *1388:D *1385:D 9.5784668e-05
5 *1388:D *292:2 0.000108063223
6 *1388:D *348:4 0.000179052344

*RES
1 *19:2 *1184:Y 8.67142
2 *1388:D *19:2 41.6299095
*END

*D_NET *20 0.00114763

*CONN
*I *1185:Y O *C 16.9 62.225 *L 0 *D DLY1X1
*I *1408:D I *C 24.1 52.155 *L 0.000307 *D DFFHQX1

*CAP
1 *1408:D 0.000277219
2 *1185:Y 5.89461e-05
3 *20:2 0.000514864922
4 *20:3 0.000296592

*RES
1 *20:3 *1185:Y 7.95322
2 *1408:D *20:2 9.48351
3 *20:2 *20:3 15.6947374
*END

*D_NET *21 0.00159901

*CONN
*I *1186:Y O *C 22.3 28.025 *L 0 *D DLY1X1
*I *1385:D I *C 17.9 40.185 *L 0.000307 *D DFFHQX1

*CAP
1 *1186:Y 3.59412e-05
2 *1385:D 0.000342012
3 *21:2 0.000377953047
4 *1385:D *1388:D 9.5784668e-05
5 *1385:D *426:6 0.000216364863
6 *1385:D *386:7 0.000161170957
7 *1385:D *332:7 0.000369787227

*RES
1 *1385:D *21:2 58.801651
2 *21:2 *1186:Y 7.23536
*END

*D_NET *22 0.00105137

*CONN
*I *1187:Y O *C 26.3 51.965 *L 0 *D DLY1X1
*I *1392:D I *C 23.1 43.605 *L 0.000307 *D DFFHQX1

*CAP
1 *1392:D 0.000237047
2 *1187:Y 5.28099e-05
3 *22:2 0.000289857383
4 *22:2 *335:4 0.00012350082
5 *22:2 *317:2 8.33868945e-05
6 *1392:D *332:5 8.16583643e-05
7 *1392:D *1237:A 9.45329688e-05
8 *1392:D *1183:A 8.85725e-05

*RES
1 *22:2 *1187:Y 16.0198
2 *1392:D *22:2 20.4797974
*END

*D_NET *23 0.00116199

*CONN
*I *1188:Y O *C 25.7 31.445 *L 0 *D DLY1X1
*I *1391:D I *C 21.1 40.185 *L 0.000307 *D DFFHQX1

*CAP
1 *1188:Y 7.95144e-05
2 *1391:D 0.000228463
3 *23:2 0.000307977207
4 *1391:D *388:5 0.000174701211
5 *1391:D *355:6 0.000108957295
6 *1391:D *330:4 0.000262379648

*RES
1 *1391:D *23:2 35.1765137
2 *23:2 *1188:Y 14.5352
*END

*D_NET *24 0.000236511

*CONN
*I *1189:Y O *C 23.9 38.285 *L 0 *D DLY1X1
*I *1386:D I *C 21.7 38.475 *L 0.000307 *D DFFHQX1

*CAP
1 *1189:Y 1.41867e-05
2 *1386:D 0.000104069
3 *24:2 0.000118255615

*RES
1 *1386:D *24:2 15.1125193
2 *24:2 *1189:Y 13.389
*END

*D_NET *25 0.00132465

*CONN
*I *1190:Y O *C 9.9 36.955 *L 0 *D DLY1X1
*I *1381:D I *C 18.7 45.315 *L 0.000307 *D DFFHQX1

*CAP
1 *1190:Y 0.00049996375
2 *1381:D 0.00049996375
3 *1381:D *54:2 8.3088877e-05
4 *1381:D *10:3 0.000138878818
5 *1381:D *1325:D 0.000102758408

*RES
1 *1381:D *1190:Y 43.1856
*END

*D_NET *26 0.000658035

*CONN
*I *1191:Y O *C 25.7 64.315 *L 0 *D DLY1X1
*I *1412:D I *C 32.3 58.995 *L 0.000307 *D DFFHQX1

*CAP
1 *1412:D 9.38772e-05
2 *1191:Y 5.65068e-05
3 *26:2 0.000272512441
4 *26:3 0.000235142

*RES
1 *26:3 *1191:Y 7.95318
2 *1412:D *26:2 5.6056
3 *26:2 *26:3 15.0068998
*END

*D_NET *27 0.000251174

*CONN
*I *1192:A I *C 12.54 7.78 *L 0.00021 *D DLY1X1
*I *1295:Q O *C 11.54 9.53 *L 0 *D DFFHQX1

*CAP
1 *1192:A 6.53873e-05
2 *1295:Q 6.02016e-05
3 *27:2 0.000125586982

*RES
1 *27:2 *1295:Q 20.6542015
2 *1192:A *27:2 7.66591
*END

*D_NET *28 0.000343919

*CONN
*I *1193:A I *C 8.94 40.1 *L 0.00021 *D DLY1X1
*I *1325:Q O *C 12.1 40.375 *L 0 *D DFFQXL

*CAP
1 *1325:Q 1.35891e-05
2 *1193:A 9.54278e-05
3 *28:2 0.000109016895
4 *1193:A *1324:D 0.00012588501

*RES
1 *1193:A *28:2 15.8685446
2 *28:2 *1325:Q 13.3891
*END

*D_NET *29 0.000404

*CONN
*I *1194:A I *C 8.74 16.16 *L 0.00021 *D DLY1X1
*I *1304:Q O *C 5.14 17.83 *L 0 *D DFFHQX1

*CAP
1 *1194:A 5.17956e-05
2 *1304:Q 9.41761e-05
3 *29:2 0.000145971777
4 *1194:A *1304:D 0.000112056729

*RES
1 *29:2 *1304:Q 22.6197243
2 *1194:A *29:2 7.80935
*END

*D_NET *30 0.000125527

*CONN
*I *1195:Y O *C 26.3 60.895 *L 0 *D DLY1X1
*I *1417:D I *C 25.9 58.995 *L 0.000307 *D DFFHQX1

*CAP
1 *1195:Y 1.9908e-05
2 *1417:D 4.28557e-05
3 *30:2 6.27636914e-05

*RES
1 *1417:D *30:2 4.21847
2 *30:2 *1195:Y 7.13670254
*END

*D_NET *31 0.000631452

*CONN
*I *1196:Y O *C 34.1 57.475 *L 0 *D DLY1X1
*I *1414:D I *C 28.7 57.285 *L 0.000307 *D DFFHQX1

*CAP
1 *1196:Y 2.90873e-05
2 *1414:D 4.81007e-05
3 *31:2 7.71880127e-05
4 *31:2 *388:3 0.000228881836
5 *31:2 *381:4 0.00024819375

*RES
1 *1414:D *31:2 16.1482086
2 *31:2 *1196:Y 15.1126
*END

*D_NET *32 0.00117278

*CONN
*I *1197:Y O *C 26.3 45.125 *L 0 *D DLY1X1
*I *1400:D I *C 18.1 48.735 *L 0.000307 *D DFFHQX1

*CAP
1 *1197:Y 1.34731e-05
2 *1400:D 0.000405786
3 *32:2 0.000419259063
4 *1400:D *373:5 0.000135958193
5 *1400:D *313:2 9.25660156e-05
6 *1400:D *122:109 0.000105738643

*RES
1 *1400:D *32:2 30.8694839
2 *32:2 *1197:Y 6.94771
*END

*D_NET *33 0.000259399

*CONN
*I *1198:Y O *C 12.5 47.215 *L 0 *D DLY1X1
*I *1401:D I *C 13.3 50.445 *L 0.000307 *D DFFHQX1

*CAP
1 *1198:Y 2.33651e-05
2 *1401:D 0.000106335
3 *33:2 0.000129699707

*RES
1 *1401:D *33:2 9.1022253
2 *33:2 *1198:Y 7.5032
*END

*D_NET *34 0.000349641

*CONN
*I *1199:A I *C 10.34 5.9 *L 0.00021 *D DLY1X1
*I *1296:Q O *C 9.9 10.925 *L 0 *D DFFQXL

*CAP
1 *1199:A 0.000113427
2 *1296:Q 5.23917e-05
3 *34:2 0.000122427939
4 *34:3 6.13924e-05

*RES
1 *34:3 *1296:Q 7.80957
2 *34:2 *34:3 0.181428
3 *1199:A *34:2 9.24575329
*END

*D_NET *35 0.000917733

*CONN
*I *1200:Y O *C 23.1 54.055 *L 0 *D DLY1X1
*I *1398:D I *C 14.9 52.155 *L 0.000307 *D DFFHQX1

*CAP
1 *1200:Y 1.79405e-05
2 *1398:D 0.000169099
3 *35:2 0.000187039375
4 *1398:D *345:6 0.000291526309
5 *1398:D *372:3 0.000252127656

*RES
1 *1398:D *35:2 26.9588242
2 *35:2 *1200:Y 6.94785
*END

*D_NET *36 0.000237942

*CONN
*I *1201:Y O *C 30.7 60.895 *L 0 *D DLY1X1
*I *1418:D I *C 29.1 58.995 *L 0.000307 *D DFFHQX1

*CAP
1 *1201:Y 6.48498535e-05
2 *1418:D 5.41212e-05
3 *36:2 6.48498535e-05
4 *36:3 5.41212e-05

*RES
1 *1418:D *36:3 7.66587
2 *36:3 *36:2 6.60005
3 *36:2 *1201:Y 14.6589279
*END

*D_NET *37 0.000196218

*CONN
*I *1202:A I *C 6.74 35.14 *L 0.00021 *D DLY1X1
*I *1320:Q O *C 8.14 34.93 *L 0 *D DFFHQX1

*CAP
1 *1320:Q 8.41612e-05
2 *1202:A 1.3948e-05
3 *37:2 9.8109248e-05

*RES
1 *1202:A *37:2 13.4042
2 *37:2 *1320:Q 14.5077705
*END

*D_NET *38 0.000555336

*CONN
*I *1203:Y O *C 19.9 60.895 *L 0 *D DLY1X1
*I *1411:D I *C 23.3 57.285 *L 0.000307 *D DFFHQX1

*CAP
1 *1203:Y 8.92868e-05
2 *1411:D 0.000145257
3 *38:2 0.000234544277
4 *38:2 *1206:A 8.62479199e-05

*RES
1 *1411:D *38:2 13.2236
2 *38:2 *1203:Y 19.3918953
*END

*D_NET *39 0.000111818

*CONN
*I *1204:A I *C 5.54 5.9 *L 0.00021 *D DLY1X1
*I *1293:Q O *C 5.1 7.505 *L 0 *D DFFQXL

*CAP
1 *1204:A 2.00867e-05
2 *1293:Q 3.58225e-05
3 *39:2 5.59091553e-05

*RES
1 *39:2 *1293:Q 7.49266148
2 *1204:A *39:2 7.12921
*END

*D_NET *40 0.000486553

*CONN
*I *1205:A I *C 7.14 57.2 *L 0.00021 *D DLY1X1
*I *1338:Q O *C 11.54 55.45 *L 0 *D DFFHQX1

*CAP
1 *1338:Q 5.86509717e-05
2 *1205:A 4.17229e-05
3 *40:2 5.86509717e-05
4 *40:3 4.17229e-05
5 *40:2 *1339:D 0.000171720977
6 *40:2 *141:2 0.000114083291

*RES
1 *1205:A *40:3 7.66595
2 *40:3 *40:2 6.60007
3 *40:2 *1338:Q 16.7756081
*END

*D_NET *41 0.000628233

*CONN
*I *1206:Y O *C 28.1 60.895 *L 0 *D DLY1X1
*I *1416:D I *C 35.5 58.995 *L 0.000307 *D DFFHQX1

*CAP
1 *1206:Y 0.000196337
2 *1416:D 7.46259e-05
3 *41:2 0.000270962715
4 *41:2 *17:2 8.63075293e-05

*RES
1 *1416:D *41:2 5.19005
2 *41:2 *1206:Y 22.7029324
*END

*D_NET *42 0.000733137

*CONN
*I *1207:Y O *C 13.9 64.315 *L 0 *D DLY1X1
*I *1409:D I *C 19.5 58.995 *L 0.000307 *D DFFHQX1

*CAP
1 *1409:D 3.97551e-05
2 *1207:Y 0.000125943
3 *42:2 0.000240625
4 *42:3 0.000326812266

*RES
1 *42:3 *1207:Y 9.53294
2 *1409:D *42:2 4.16925
3 *42:2 *42:3 14.924407
*END

*D_NET *43 0.000355721

*CONN
*I *1208:Y O *C 20.5 9.595 *L 0 *D DLY1X1
*I *1358:D I *C 18.9 12.825 *L 0.000307 *D DFFHQX1

*CAP
1 *1208:Y 8.39231e-05
2 *1358:D 5.14391e-05
3 *43:2 0.000135362148
4 *1358:D *385:10 8.49962207e-05

*RES
1 *1358:D *43:2 21.5613842
2 *43:2 *1208:Y 8.67114
*END

*D_NET *44 0.000319839

*CONN
*I *1209:A I *C 10.54 26.42 *L 0.00021 *D DLY1X1
*I *1313:Q O *C 8.3 28.025 *L 0 *D DFFQXL

*CAP
1 *1313:Q 9.49511e-05
2 *1209:A 6.49682e-05
3 *44:2 0.000159919258

*RES
1 *1209:A *44:2 7.66578
2 *44:2 *1313:Q 21.7125416
*END

*D_NET *45 0.000376701

*CONN
*I *1210:A I *C 12.54 60.62 *L 0.00021 *D DLY1X1
*I *1339:Q O *C 11.7 57.475 *L 0 *D DFFQXL

*CAP
1 *1339:Q 0.000188350684
2 *1210:A 0.000188350684

*RES
1 *1210:A *1339:Q 29.6279
*END

*D_NET *46 0.00056231

*CONN
*I *1211:Y O *C 16.7 58.805 *L 0 *D DLY1X1
*I *1405:D I *C 19.9 55.575 *L 0.000307 *D DFFHQX1

*CAP
1 *1211:Y 0.000237048
2 *1405:D 4.41071e-05
3 *46:2 0.000281155117

*RES
1 *1405:D *46:2 4.24861
2 *46:2 *1211:Y 21.7920532
*END

*D_NET *47 0.00028193

*CONN
*I *1212:A I *C 7.34 23 *L 0.00021 *D DLY1X1
*I *1332:Q O *C 5.1 21.185 *L 0 *D DFFQXL

*CAP
1 *1212:A 9.6261e-05
2 *1332:Q 4.4704e-05
3 *47:2 0.00014096498

*RES
1 *47:2 *1332:Q 14.266
2 *1212:A *47:2 14.9613619
*END

*D_NET *48 0.000138521

*CONN
*I *1213:A I *C 8.94 55.66 *L 0.00021 *D DLY1X1
*I *1340:Q O *C 8.5 57.475 *L 0 *D DFFQXL

*CAP
1 *1213:A 3.90411e-05
2 *1340:Q 3.02195e-05
3 *48:2 6.92605957e-05

*RES
1 *48:2 *1340:Q 7.09136
2 *1213:A *48:2 7.41636753
*END

*D_NET *49 0.000253081

*CONN
*I *1214:A I *C 5.54 23 *L 0.00021 *D DLY1X1
*I *1311:Q O *C 5.14 26.63 *L 0 *D DFFHQX1

*CAP
1 *1214:A 4.46443e-05
2 *1311:Q 4.64986e-06
3 *49:2 0.000121891494
4 *49:3 8.18971e-05

*RES
1 *49:3 *1311:Q 0.165811
2 *1214:A *49:2 7.66591
3 *49:2 *49:3 8.26358795
*END

*D_NET *50 0.000268102

*CONN
*I *1215:Y O *C 24.3 60.895 *L 0 *D DLY1X1
*I *1413:D I *C 22.7 58.995 *L 0.000307 *D DFFHQX1

*CAP
1 *1215:Y 2.15165e-05
2 *1413:D 0.000112534
3 *50:2 0.00013405085

*RES
1 *1413:D *50:2 21.8485603
2 *50:2 *1215:Y 6.94769
*END

*D_NET *51 0.000530541

*CONN
*I *1216:Y O *C 23.5 41.705 *L 0 *D DLY1X1
*I *1390:D I *C 18.1 41.895 *L 0.000307 *D DFFHQX1

*CAP
1 *1216:Y 4.64867e-06
2 *1390:D 0.000183285
3 *51:2 2.13967e-05
4 *51:3 0.000200033184
5 *1390:D *1397:D 0.00012117624

*RES
1 *1390:D *51:3 17.6827908
2 *51:2 *1216:Y 0.165938
3 *51:3 *51:2 13.3889
*END

*D_NET *52 0.000176668

*CONN
*I *1217:Y O *C 16.01 27.975 *L 0 *D CLKBUFX2
*I *1373:D I *C 15.3 26.505 *L 0.000307 *D DFFHQX1

*CAP
1 *1217:Y 3.43321e-05
2 *1373:D 5.40019e-05
3 *52:2 8.8334082e-05

*RES
1 *1373:D *52:2 7.66587257
2 *52:2 *1217:Y 7.28782
*END

*D_NET *53 0.000453353

*CONN
*I *1218:Y O *C 17.1 55.385 *L 0 *D DLY1X1
*I *1407:D I *C 20.9 53.865 *L 0.000307 *D DFFHQX1

*CAP
1 *1218:Y 0.000100254
2 *1407:D 5.138e-05
3 *53:2 0.000151634219
4 *53:2 *384:7 0.000150084492

*RES
1 *1407:D *53:2 4.31294
2 *53:2 *1218:Y 19.6943283
*END

*D_NET *54 0.000763416

*CONN
*I *1219:Y O *C 11.9 40.375 *L 0 *D DLY1X1
*I *1395:D I *C 15.9 36.765 *L 0.000307 *D DFFHQX1

*CAP
1 *1219:Y 0.000290334
2 *1395:D 4.98294e-05
3 *54:2 0.000340163711
4 *54:2 *1381:D 8.3088877e-05

*RES
1 *1395:D *54:2 7.52232
2 *54:2 *1219:Y 24.0069618
*END

*D_NET *55 0.000195861

*CONN
*I *1220:A I *C 11.74 35.14 *L 0.00021 *D DLY1X1
*I *1318:Q O *C 10.54 33.47 *L 0 *D DFFHQX1

*CAP
1 *1318:Q 9.79304297e-05
2 *1220:A 9.79304297e-05

*RES
1 *1220:A *1318:Q 28.494
*END

*D_NET *56 0.000345945

*CONN
*I *1221:A I *C 8.74 12.74 *L 0.00021 *D DLY1X1
*I *1291:Q O *C 5.1 10.925 *L 0 *D DFFQXL

*CAP
1 *1291:Q 0.000172972676
2 *1221:A 0.000172972676

*RES
1 *1221:A *1291:Q 30.1571
*END

*D_NET *57 0.000352621

*CONN
*I *1222:Y O *C 20.1 36.955 *L 0 *D DLY1X1
*I *1387:D I *C 18.5 38.475 *L 0.000307 *D DFFHQX1

*CAP
1 *1222:Y 8.57121e-05
2 *1387:D 9.05990625e-05
3 *57:2 8.57121e-05
4 *57:3 9.05990625e-05

*RES
1 *1387:D *57:3 14.6589279
2 *57:2 *1222:Y 7.80948
3 *57:3 *57:2 6.60005
*END

*D_NET *58 0.000260472

*CONN
*I *1223:A I *C 8.34 5.9 *L 0.00021 *D DLY1X1
*I *1292:Q O *C 7.9 9.595 *L 0 *D DFFQXL

*CAP
1 *1223:A 4.41668e-05
2 *1292:Q 3.29611e-05
3 *58:2 5.35249707e-05
4 *58:3 4.23193e-05
5 *1223:A *1293:D 8.74996191e-05

*RES
1 *58:3 *1292:Q 7.37854
2 *58:2 *58:3 0.211742
3 *1223:A *58:2 8.24034214
*END

*D_NET *59 0.000194073

*CONN
*I *1224:Y O *C 19.9 30.115 *L 0 *D DLY1X1
*I *1378:D I *C 19.3 31.635 *L 0.000307 *D DFFHQX1

*CAP
1 *1224:Y 3.15311e-05
2 *1378:D 6.55053e-05
3 *59:2 9.70363574e-05

*RES
1 *1378:D *59:2 7.66587257
2 *59:2 *1224:Y 7.28782
*END

*D_NET *60 0.000109911

*CONN
*I *1225:A I *C 8.74 46.94 *L 0.00021 *D DLY1X1
*I *1329:Q O *C 8.3 45.125 *L 0 *D DFFQXL

*CAP
1 *1329:Q 5.49554834e-05
2 *1225:A 5.49554834e-05

*RES
1 *1225:A *1329:Q 14.538
*END

*D_NET *61 0.000253201

*CONN
*I *1226:Y O *C 19.9 57.475 *L 0 *D DLY1X1
*I *1406:D I *C 17.7 57.285 *L 0.000307 *D DFFHQX1

*CAP
1 *1226:Y 7.42677e-05
2 *1406:D 1.04901e-05
3 *61:2 8.47578027e-05
4 *61:2 *334:3 8.36849219e-05

*RES
1 *1406:D *61:2 13.4042
2 *61:2 *1226:Y 15.1125193
*END

*D_NET *62 0.000393152

*CONN
*I *1227:Y O *C 18.9 43.795 *L 0 *D DLY1X1
*I *1394:D I *C 15.3 43.605 *L 0.000307 *D DFFHQX1

*CAP
1 *1227:Y 0.000111461
2 *1394:D 1.41857e-05
3 *62:2 0.000125646592
4 *62:2 *1237:A 0.000141859053

*RES
1 *1394:D *62:2 13.4041
2 *62:2 *1227:Y 16.1708603
*END

*D_NET *63 0.00037992

*CONN
*I *1228:Y O *C 18.1 36.955 *L 0 *D DLY1X1
*I *1383:D I *C 16.5 35.055 *L 0.000307 *D DFFHQX1

*CAP
1 *1228:Y 3.74316e-05
2 *1383:D 4.88758105e-05
3 *63:2 3.74316e-05
4 *63:3 4.88758105e-05
5 *63:2 *359:4 8.36849219e-05
6 *63:2 *365:3 0.000123620029

*RES
1 *1383:D *63:3 7.66587
2 *63:3 *63:2 6.60005
3 *63:2 *1228:Y 14.6589279
*END

*D_NET *64 0.000147223

*CONN
*I *1229:Y O *C 22.1 13.015 *L 0 *D DLY1X1
*I *1361:D I *C 21.5 14.535 *L 0.000307 *D DFFHQX1

*CAP
1 *1229:Y 2.93852e-05
2 *1361:D 4.42266e-05
3 *64:2 7.36117383e-05

*RES
1 *1361:D *64:2 7.66587257
2 *64:2 *1229:Y 7.28782
*END

*D_NET *65 0.000431538

*CONN
*I *1230:Y O *C 15.3 41.705 *L 0 *D DLY1X1
*I *1399:D I *C 14.1 45.315 *L 0.000307 *D DFFHQX1

*CAP
1 *1230:Y 2.32467e-05
2 *1399:D 8.05849e-05
3 *65:2 8.90486e-05
4 *65:3 0.000146389004
5 *1399:D *340:6 9.22679883e-05

*RES
1 *1399:D *65:3 8.67125
2 *65:3 *65:2 14.1676664
3 *65:2 *1230:Y 6.94785
*END

*D_NET *66 0.000365853

*CONN
*I *1231:A I *C 8.74 26.42 *L 0.00021 *D DLY1X1
*I *1312:Q O *C 5.1 28.025 *L 0 *D DFFQXL

*CAP
1 *1231:A 0.000108779
2 *1312:Q 2.28877e-05
3 *66:2 0.00013166666
4 *1231:A *1313:D 0.00010251999

*RES
1 *66:2 *1312:Q 7.09143
2 *1231:A *66:2 23.2093334
*END

*D_NET *67 0.000122905

*CONN
*I *1232:A I *C 8.74 33.26 *L 0.00021 *D DLY1X1
*I *1316:Q O *C 8.3 31.445 *L 0 *D DFFQXL

*CAP
1 *1316:Q 6.14523877e-05
2 *1232:A 6.14523877e-05

*RES
1 *1232:A *1316:Q 14.538
*END

*D_NET *68 0.000142455

*CONN
*I *1233:Y O *C 20.41 51.915 *L 0 *D CLKBUFX2
*I *1366:D I *C 20.1 50.445 *L 0.000307 *D DFFHQX1

*CAP
1 *1233:Y 2.49739e-05
2 *1366:D 4.62536e-05
3 *68:2 7.12275488e-05

*RES
1 *1366:D *68:2 7.53057003
2 *68:2 *1233:Y 7.09139
*END

*D_NET *69 0.00015831

*CONN
*I *1234:Y O *C 24.01 45.075 *L 0 *D CLKBUFX2
*I *1365:D I *C 23.7 47.025 *L 0.000307 *D DFFHQX1

*CAP
1 *1234:Y 2.78948e-05
2 *1365:D 4.23792e-05
3 *69:2 3.67764e-05
4 *69:3 5.12599951e-05

*RES
1 *1365:D *69:3 7.52222538
2 *69:3 *69:2 0.181467
3 *69:2 *1234:Y 7.23505
*END

*D_NET *70 8.14199e-05

*CONN
*I *1235:Y O *C 22.41 48.495 *L 0 *D CLKBUFX2
*I *1364:D I *C 21.5 48.735 *L 0.000307 *D DFFHQX1

*CAP
1 *1235:Y 1.35302e-05
2 *1364:D 2.71797e-05
3 *70:2 4.07099731e-05

*RES
1 *1364:D *70:2 13.767004
2 *70:2 *1235:Y 0.442403
*END

*D_NET *71 0.000161171

*CONN
*I *1236:Y O *C 22.81 45.075 *L 0 *D CLKBUFX2
*I *1379:D I *C 21.9 45.315 *L 0.000307 *D DFFHQX1

*CAP
1 *1236:Y 2.38418e-05
2 *1379:D 5.67437e-05
3 *71:2 8.05854785e-05

*RES
1 *1379:D *71:2 20.669342
2 *71:2 *1236:Y 6.94771
*END

*D_NET *72 0.0001719

*CONN
*I *1237:Y O *C 23.61 48.495 *L 0 *D CLKBUFX2
*I *1370:D I *C 23.3 50.445 *L 0.000307 *D DFFHQX1

*CAP
1 *1237:Y 7.25384e-05
2 *1370:D 1.34115e-05
3 *72:2 8.59499023e-05

*RES
1 *1370:D *72:2 6.81167
2 *72:2 *1237:Y 8.09681416
*END

*D_NET *73 0.000327647

*CONN
*I *1164:Y O *C 33.5 6.175 *L 0 *D DLY1X1
*I *1165:A I *C 29.94 6.11 *L 0.00021 *D DLY2X1

*CAP
1 *1164:Y 1.32329e-05
2 *1165:A 9.05388e-05
3 *73:2 0.000103771689
4 *1165:A *1164:A 0.000120103359

*RES
1 *1165:A *73:2 16.1708603
2 *73:2 *1164:Y 13.389
*END

*D_NET *74 0.000531554

*CONN
*I *1181:A I *C 17.765 29.695 *L 0.00021 *D CLKBUFX2
*I *1238:Y O *C 15.01 27.975 *L 0 *D CLKBUFX2

*CAP
1 *1181:A 0.000124693
2 *1238:Y 5.42427e-06
3 *74:2 0.000130116943
4 *1181:A *368:7 0.000143587588
5 *1181:A *1224:A 0.000127732754

*RES
1 *74:2 *1238:Y 0.16577
2 *1181:A *74:2 30.346035
*END

*D_NET *75 0.000330448

*CONN
*I *1217:A I *C 16.365 28.445 *L 0.00021 *D CLKBUFX2
*I *1239:Y O *C 15.61 24.555 *L 0 *D CLKBUFX2

*CAP
1 *1239:Y 0.000110447
2 *1217:A 5.47772e-05
3 *75:2 0.000165224082

*RES
1 *1217:A *75:2 7.80966
2 *75:2 *1239:Y 18.8056221
*END

*D_NET *76 0.001867

*CONN
*I *1165:Y O *C 28.73 6.365 *L 0 *D DLY2X1
*I *1419:RN I *C 56.7 5.985 *L 0.000617 *D DFFRHQX1
*I *1420:RN I *C 59.1 7.695 *L 0.000422 *D DFFRX1

*CAP
1 *1420:RN 0.000122548
2 *1419:RN 3.48121e-05
3 *1165:Y 4.78001e-05
4 *76:3 0.000554144375
5 *76:4 0.000406203
6 *76:5 0.000258389
7 *76:6 0.00029677
8 *76:5 *94:29 6.16908e-05
9 *76:5 *94:30 5.21541e-05
10 *76:3 *1419:CK 1.84774e-06
11 *76:3 *94:25 5.24521e-06
12 *76:3 *94:27 7.27177e-06
13 *76:3 *94:28 1.55568e-05
14 *76:3 *94:29 2.56297973e-06

*RES
1 *76:6 *1165:Y 7.59185
2 *76:5 *76:6 8.63294
3 *76:4 *76:5 0.317548
4 *1419:RN *76:3 7.18022
5 *76:3 *76:4 12.3068094
6 *1420:RN *76:3 9.28119
*END

*D_NET *77 0.000686884

*CONN
*I *1243:A I *C 51.3 21.375 *L 0.00021 *D BUFX2
*I *1240:Y O *C 44.735 21.84 *L 0 *D BUFX2

*CAP
1 *1240:Y 0.000285565859
2 *1243:A 0.000285565859
3 *1243:A *102:3 0.000115752217

*RES
1 *1243:A *1240:Y 18.6394
*END

*D_NET *78 0.00170654

*CONN
*I *1277:A I *C 41.5 21.375 *L 0.00021 *D BUFX2
*I *1241:Y O *C 53.535 32.1 *L 0 *D BUFX2

*CAP
1 *1241:Y 3.25442e-05
2 *1277:A 0.000219284
3 *78:2 0.000131548
4 *78:3 0.000317933
5 *78:4 0.000438213359
6 *78:4 *1903:A1 8.00490381e-05
7 *78:3 *1095:10 0.000126659873
8 *78:3 *1092:10 0.000113427637
9 *78:3 *1089:15 0.000246882441

*RES
1 *78:4 *78:3 9.08656
2 *1277:A *78:4 20.8806992
3 *78:3 *78:2 11.285
4 *78:2 *1241:Y 7.06145
*END

*D_NET *79 0.000969172

*CONN
*I *1862:A2 I *C 45.5 26.695 *L 0.000391 *D OAI31X1
*I *1242:Y O *C 42.935 35.52 *L 0 *D BUFX2

*CAP
1 *1242:Y 0.00023675
2 *1862:A2 0.000177979
3 *79:2 0.000414729102
4 *79:2 *1031:2 0.000139713291

*RES
1 *1862:A2 *79:2 6.44389
2 *79:2 *1242:Y 21.8800316
*END

*D_NET *80 0.000436783

*CONN
*I *1243:Y O *C 50.935 21.84 *L 0 *D BUFX2
*I *1696:B I *C 52.975 21.605 *L 0.000392 *D NOR2X1
*I *1695:B I *C 54.5 20.995 *L 0.000392 *D NAND2X1

*CAP
1 *1695:B 6.06769e-05
2 *1696:B 3.64185e-05
3 *1243:Y 7.90959e-05
4 *80:3 0.000176191328
5 *1695:B *598:5 8.44001758e-05

*RES
1 *80:3 *1243:Y 8.35324
2 *1696:B *80:3 10.3616714
3 *1695:B *80:3 8.0481
*END

*D_NET *81 0.00102937

*CONN
*I *1846:AN I *C 50.1 19.665 *L 0.00021 *D NAND2BX2
*I *1244:Y O *C 54.935 28.68 *L 0 *D BUFX2

*CAP
1 *1244:Y 3.39747e-05
2 *1846:AN 0.000480711
3 *81:2 0.000514686094

*RES
1 *1846:AN *81:2 26.976347
2 *81:2 *1244:Y 3.79149
*END

*D_NET *82 0.00047493

*CONN
*I *1717:A I *C 51.215 19.69 *L 0.000793 *D NOR2X2
*I *1783:A I *C 52.1 21.185 *L 0.000392 *D NOR2X1
*I *1696:A I *C 52.7 21.185 *L 0.000392 *D NOR2X1
*I *1247:Y O *C 51.93 19.23 *L 0 *D INVX1

*CAP
1 *1696:A 8.46376e-06
2 *1783:A 3.56428e-05
3 *1247:Y 0.000101686
4 *1717:A 9.16711e-05
5 *82:4 0.000120162969
6 *82:5 0.000117303

*RES
1 *1717:A *82:5 7.92384148
2 *82:5 *1247:Y 6.84993
3 *1783:A *82:4 7.18582
4 *82:4 *1247:Y 5.11079
5 *1696:A *82:4 6.73229
*END

*D_NET *83 0.00617987

*CONN
*I *1399:CK I *C 11.875 45.57 *L 0.00021 *D DFFHQX1
*I *1249:Y O *C 6.56 30.3 *L 0 *D CLKBUFX4
*I *1395:CK I *C 13.675 36.51 *L 0.00021 *D DFFHQX1
*I *1394:CK I *C 13.075 43.35 *L 0.00021 *D DFFHQX1
*I *1384:CK I *C 10.475 36.51 *L 0.00021 *D DFFHQX1
*I *1383:CK I *C 14.275 35.31 *L 0.00021 *D DFFHQX1
*I *1376:CK I *C 14.275 29.67 *L 0.00021 *D DFFHQX1
*I *1375:CK I *C 11.875 28.47 *L 0.00021 *D DFFHQX1
*I *1331:CK I *C 6.285 42.225 *L 0.00021 *D DFFQXL
*I *1330:CK I *C 5.485 46.695 *L 0.00021 *D DFFQXL
*I *1329:CK I *C 8.685 45.645 *L 0.00021 *D DFFQXL
*I *1328:CK I *C 5.685 43.275 *L 0.00021 *D DFFQXL
*I *1327:CK I *C 9.885 43.275 *L 0.00021 *D DFFQXL
*I *1326:CK I *C 9.485 42.225 *L 0.00021 *D DFFQXL
*I *1325:CK I *C 12.485 39.855 *L 0.00021 *D DFFQXL
*I *1324:CK I *C 9.885 38.805 *L 0.00021 *D DFFQXL
*I *1323:CK I *C 13.085 38.805 *L 0.00021 *D DFFQXL
*I *1322:CK I *C 6.685 38.805 *L 0.00021 *D DFFQXL
*I *1321:CK I *C 5.485 36.435 *L 0.00021 *D DFFQXL
*I *1320:CK I *C 8.475 35.31 *L 0.00021 *D DFFHQX1
*I *1319:CK I *C 5.485 33.015 *L 0.00021 *D DFFQXL
*I *1318:CK I *C 10.875 33.09 *L 0.00021 *D DFFHQX1
*I *1317:CK I *C 5.485 39.855 *L 0.00021 *D DFFQXL
*I *1316:CK I *C 8.685 31.965 *L 0.00021 *D DFFQXL
*I *1315:CK I *C 5.485 31.965 *L 0.00021 *D DFFQXL
*I *1314:CK I *C 8.485 29.595 *L 0.00021 *D DFFQXL
*I *1313:CK I *C 8.685 28.545 *L 0.00021 *D DFFQXL
*I *1312:CK I *C 5.485 28.545 *L 0.00021 *D DFFQXL

*CAP
1 *1383:CK 3.70735e-05
2 *1376:CK 8.9466e-05
3 *1395:CK 5.00684e-05
4 *1323:CK 4.73272e-05
5 *1394:CK 5.36438e-05
6 *1325:CK 4.03511e-05
7 *1399:CK 2.64068e-05
8 *1375:CK 8.52946e-05
9 *1318:CK 0.000102222
10 *1384:CK 4.5897e-05
11 *1327:CK 7.68724e-06
12 *1324:CK 6.07828e-06
13 *1326:CK 7.98519e-06
14 *1329:CK 5.87091e-05
15 *1316:CK 4.9532e-05
16 *1313:CK 6.01392e-05
17 *1320:CK 3.16508e-05
18 *1322:CK 2.64664e-05
19 *1249:Y 2.098e-05
20 *1331:CK 1.81196e-05
21 *1328:CK 7.62765e-06
22 *1330:CK 0.000136018
23 *1317:CK 6.36591e-05
24 *1321:CK 3.52262e-05
25 *1315:CK 4.38709e-05
26 *1312:CK 5.75768e-05
27 *83:28 0.000135244
28 *83:29 5.71001e-05
29 *83:30 0.000157177
30 *83:31 5.07239e-05
31 *83:32 0.000186742
32 *83:33 0.000236691
33 *83:34 0.000127493
34 *83:35 5.41205e-05
35 *83:36 0.000115634
36 *83:37 0.000221075
37 *83:38 0.000127493
38 *83:39 0.000168027
39 *83:40 0.000167073
40 *83:41 0.00013721
41 *83:42 0.000133814
42 *83:43 0.000153125
43 *83:44 0.000156224
44 *83:45 0.000132324
45 *83:46 9.22667e-05
46 *83:47 9.25647e-05
47 *83:48 7.28361e-05
48 *83:49 0.000121295
49 *83:50 0.000240088
50 *83:51 0.000196515
51 *83:52 0.000185014
52 *83:53 0.000167252
53 *83:54 0.000260353086
54 *83:55 0.000101329
55 *83:56 0.000199078
56 *83:57 9.85278e-05
57 *83:55 *123:25 3.64184e-05
58 *83:48 *1249:A 4.76837e-07
59 *83:46 *123:22 3.9041e-05
60 *83:46 *1249:A 7.62939e-06
61 *83:42 *123:22 9.17911e-06
62 *83:33 *123:22 7.08699e-05
63 *1376:CK *123:22 6.13332894e-05
64 *1330:CK *280:2 2.26498e-06
65 *1329:CK *280:2 7.84993e-05
66 *1399:CK *280:2 4.11272e-06
67 *1394:CK *280:2 1.06805302e-11
68 *83:52 *287:4 5.78165e-06
69 *1328:CK *287:4 4.76837e-07
70 *83:32 *287:4 5.20945e-05
71 *1394:CK *287:2 1.67489e-05
72 *1394:CK *287:4 8.28501001e-06
73 *1320:CK *1384:D 1.04308e-05
74 *83:39 *1384:D 1.80006e-05
75 *83:34 *1384:D 1.78218e-05
76 *83:28 *1384:D 5.16772302e-05
77 *1329:CK *1329:D 0.000135242939

*RES
1 *83:57 *83:56 7.66105
2 *1312:CK *83:55 7.77268
3 *1315:CK *83:57 4.27107
4 *1319:CK *83:57 3.30001
5 *1321:CK *83:54 7.14123
6 *1317:CK *83:53 8.17227
7 *1330:CK *83:52 12.9276
8 *1328:CK *83:52 3.35194
9 *83:54 *83:51 4.00172
10 *83:50 *83:54 7.60663
11 *83:52 *83:50 1.03577
12 *1331:CK *83:50 3.59908
13 *83:55 *83:49 4.77035
14 *83:48 *1249:Y 6.82522
15 *83:49 *83:48 3.35721
16 *83:56 *83:49 2.1354
17 *83:51 *83:56 2.34338
18 *83:53 *83:51 5.41319
19 *1322:CK *83:53 7.07208
20 *83:47 *83:46 3.78513
21 *83:46 *83:48 1.33206
22 *1320:CK *83:45 10.4515
23 *1314:CK *83:47 3.30001
24 *1313:CK *83:47 4.6154
25 *1316:CK *83:44 7.28368
26 *1329:CK *83:43 9.13334
27 *83:42 *83:46 0.362934
28 *83:44 *83:41 3.33639
29 *83:41 *83:42 4.82839
30 *83:45 *83:41 5.55703
31 *1326:CK *83:40 3.35194
32 *83:39 *83:45 0.665056
33 *83:38 *83:39 5.76002
34 *83:37 *83:38 0.115239
35 *83:40 *83:37 2.4228
36 *83:36 *83:40 0.986338
37 *1324:CK *83:38 6.75608
38 *1327:CK *83:36 3.35721
39 *83:35 *83:34 3.34694
40 *83:34 *83:39 0.665056
41 *1384:CK *83:35 7.44446
42 *1318:CK *83:44 12.0771
43 *83:33 *83:42 2.17705
44 *83:32 *83:36 4.92947
45 *83:43 *83:32 8.1856
46 *1375:CK *83:33 18.1983719
47 *1399:CK *83:43 10.3085
48 *83:31 *83:30 3.35721
49 *83:30 *83:37 5.51344
50 *1325:CK *83:31 4.14445
51 *1394:CK *83:32 11.2157
52 *1323:CK *83:30 7.30256
53 *83:29 *83:28 3.35721
54 *83:28 *83:34 2.47945
55 *1395:CK *83:29 7.44446
56 *1376:CK *83:33 12.395
57 *1383:CK *83:28 10.5959
*END

*D_NET *84 0.00536215

*CONN
*I *1402:CK I *C 12.075 53.61 *L 0.00021 *D DFFHQX1
*I *1250:Y O *C 13.96 47.4 *L 0 *D CLKBUFX4
*I *1401:CK I *C 11.075 50.19 *L 0.00021 *D DFFHQX1
*I *1398:CK I *C 12.675 52.41 *L 0.00021 *D DFFHQX1
*I *1393:CK I *C 12.675 48.99 *L 0.00021 *D DFFHQX1
*I *1372:CK I *C 8.875 52.41 *L 0.00021 *D DFFHQX1
*I *1367:CK I *C 9.475 48.99 *L 0.00021 *D DFFHQX1
*I *1350:CK I *C 12.285 59.325 *L 0.00021 *D DFFQXL
*I *1349:CK I *C 9.285 60.375 *L 0.00021 *D DFFQXL
*I *1348:CK I *C 12.485 62.745 *L 0.00021 *D DFFQXL
*I *1347:CK I *C 9.285 63.795 *L 0.00021 *D DFFQXL
*I *1346:CK I *C 5.885 63.795 *L 0.00021 *D DFFQXL
*I *1345:CK I *C 5.885 62.745 *L 0.00021 *D DFFQXL
*I *1344:CK I *C 5.685 60.375 *L 0.00021 *D DFFQXL
*I *1343:CK I *C 5.485 55.905 *L 0.00021 *D DFFQXL
*I *1342:CK I *C 5.685 59.325 *L 0.00021 *D DFFQXL
*I *1341:CK I *C 9.085 59.325 *L 0.00021 *D DFFQXL
*I *1340:CK I *C 8.885 56.955 *L 0.00021 *D DFFQXL
*I *1339:CK I *C 12.085 56.955 *L 0.00021 *D DFFQXL
*I *1338:CK I *C 11.875 55.83 *L 0.00021 *D DFFHQX1
*I *1337:CK I *C 8.875 53.61 *L 0.00021 *D DFFHQX1
*I *1336:CK I *C 5.485 53.535 *L 0.00021 *D DFFQXL
*I *1335:CK I *C 5.485 52.485 *L 0.00021 *D DFFQXL
*I *1334:CK I *C 7.875 50.19 *L 0.00021 *D DFFHQX1
*I *1333:CK I *C 5.685 49.065 *L 0.00021 *D DFFQXL

*CAP
1 *1250:Y 2.28279e-05
2 *1393:CK 0.000109972
3 *1348:CK 0.000129996
4 *1350:CK 7.33046e-06
5 *1339:CK 5.36319e-06
6 *1402:CK 1.33507e-05
7 *1338:CK 4.48804e-05
8 *1401:CK 0.00012076
9 *1367:CK 4.39293e-05
10 *1347:CK 0.000124156
11 *1349:CK 7.15092e-06
12 *1341:CK 8.21363e-05
13 *1340:CK 3.48073e-05
14 *1337:CK 6.08134e-06
15 *1372:CK 3.15909e-05
16 *1334:CK 0.000112654
17 *1346:CK 4.69699e-05
18 *1344:CK 7.15092e-06
19 *1342:CK 7.15092e-06
20 *1333:CK 5.87124e-05
21 *1343:CK 3.39745e-05
22 *1336:CK 4.53044e-06
23 *1335:CK 3.98152e-05
24 *84:25 0.000158608
25 *84:26 0.000184595
26 *84:27 0.000159444
27 *84:28 9.9899e-05
28 *84:29 0.000204325
29 *84:30 0.000132502
30 *84:31 5.56106e-05
31 *84:32 0.000124694
32 *84:33 0.000102699
33 *84:34 0.000186921
34 *84:35 5.21536e-05
35 *84:36 0.000250339512
36 *84:37 0.000226499
37 *84:38 0.00023192
38 *84:39 8.68424e-05
39 *84:40 4.29743e-05
40 *84:41 0.000149726
41 *84:42 0.000121951
42 *84:43 0.000120817
43 *84:44 0.00015402
44 *84:45 0.000126363
45 *84:46 0.000149669
46 *84:47 0.000134645
47 *84:48 0.000139416
48 *84:49 0.000218928
49 *84:50 0.000200092
50 *84:51 6.62797e-05
51 *84:50 *278:2 5.126e-06
52 *84:44 *278:2 7.34329e-05
53 *1372:CK *278:3 1.82986e-05
54 *1401:CK *278:2 2.08620681e-06
55 *84:41 *1393:D 9.32813e-05
56 *1367:CK *1393:D 3.99348271e-06
57 *1341:CK *1211:A 8.99434e-05
58 *84:36 *1211:A 3.51668071e-06
59 *84:30 *384:8 5.13196e-05
60 *84:26 *384:8 4.39286235e-05

*RES
1 *84:51 *84:50 3.6991
2 *1335:CK *84:51 4.14434
3 *1336:CK *84:51 3.43153
4 *1343:CK *84:49 10.4331
5 *84:48 *84:47 5.07299
6 *1333:CK *84:48 4.40785
7 *1342:CK *84:46 3.3519
8 *1344:CK *84:45 3.3519
9 *84:50 *84:44 2.32831
10 *84:49 *84:50 5.1999
11 *84:46 *84:49 2.50211
12 *84:45 *84:46 1.06583
13 *84:43 *84:45 1.64049
14 *1345:CK *84:43 3.29998
15 *1346:CK *84:43 4.366
16 *84:42 *84:47 3.34938
17 *84:47 *84:41 1.26985
18 *1334:CK *84:42 8.73625
19 *84:40 *84:44 3.3364
20 *84:44 *84:39 2.47963
21 *1372:CK *84:40 7.44451
22 *1337:CK *84:40 6.73151
23 *1340:CK *84:38 7.30269
24 *1341:CK *84:37 12.6976967
25 *1349:CK *84:36 3.3519
26 *1347:CK *84:36 6.18765
27 *84:35 *84:41 3.34686
28 *84:41 *84:34 3.44064
29 *84:38 *84:33 2.02587
30 *84:36 *84:38 6.05686
31 *1367:CK *84:35 7.73127
32 *1401:CK *84:32 12.4253
33 *1338:CK *84:31 7.65531
34 *84:39 *84:30 0.362897
35 *84:31 *84:33 3.3364
36 *84:33 *84:29 3.64466
37 *1402:CK *84:39 10.0782
38 *1339:CK *84:31 3.43153
39 *1350:CK *84:28 3.3519
40 *84:27 *84:30 3.3364
41 *84:30 *84:26 6.9706
42 *84:29 *84:27 2.57011
43 *84:28 *84:29 1.78406
44 *84:37 *84:28 0.20402
45 *1348:CK *84:37 5.77999
46 *84:25 *84:27 1.08481
47 *1393:CK *84:25 9.24582
48 *1398:CK *84:25 6.59995
49 *84:34 *1250:Y 6.84989
50 *84:32 *84:26 3.3364
51 *84:26 *84:34 5.49344
*END

*D_NET *85 0.00513399

*CONN
*I *1537:CK I *C 12.875 22.83 *L 0.00021 *D DFFHQX1
*I *1251:Y O *C 5.76 9.78 *L 0 *D CLKBUFX4
*I *1368:CK I *C 12.075 18.21 *L 0.00021 *D DFFHQX1
*I *1332:CK I *C 5.485 21.705 *L 0.00021 *D DFFQXL
*I *1311:CK I *C 5.475 26.25 *L 0.00021 *D DFFHQX1
*I *1310:CK I *C 5.485 25.125 *L 0.00021 *D DFFQXL
*I *1309:CK I *C 8.885 25.125 *L 0.00021 *D DFFQXL
*I *1308:CK I *C 5.485 19.335 *L 0.00021 *D DFFQXL
*I *1307:CK I *C 8.885 21.705 *L 0.00021 *D DFFQXL
*I *1306:CK I *C 12.685 21.705 *L 0.00021 *D DFFQXL
*I *1305:CK I *C 9.085 19.335 *L 0.00021 *D DFFQXL
*I *1304:CK I *C 5.475 18.21 *L 0.00021 *D DFFHQX1
*I *1303:CK I *C 10.885 15.915 *L 0.00021 *D DFFQXL
*I *1302:CK I *C 8.685 18.285 *L 0.00021 *D DFFQXL
*I *1301:CK I *C 5.485 15.915 *L 0.00021 *D DFFQXL
*I *1300:CK I *C 10.885 12.495 *L 0.00021 *D DFFQXL
*I *1299:CK I *C 5.485 12.495 *L 0.00021 *D DFFQXL
*I *1298:CK I *C 8.485 14.865 *L 0.00021 *D DFFQXL
*I *1297:CK I *C 13.085 14.865 *L 0.00021 *D DFFQXL
*I *1296:CK I *C 10.285 11.445 *L 0.00021 *D DFFQXL
*I *1295:CK I *C 11.875 9.15 *L 0.00021 *D DFFHQX1
*I *1294:CK I *C 9.285 8.025 *L 0.00021 *D DFFQXL
*I *1293:CK I *C 5.485 8.025 *L 0.00021 *D DFFQXL
*I *1292:CK I *C 8.285 9.075 *L 0.00021 *D DFFQXL
*I *1291:CK I *C 5.485 11.445 *L 0.00021 *D DFFQXL

*CAP
1 *1297:CK 6.01991e-05
2 *1537:CK 4.59537e-05
3 *1306:CK 6.31948e-06
4 *1368:CK 0.00010693
5 *1295:CK 7.02717e-05
6 *1303:CK 3.83848e-05
7 *1300:CK 5.57321e-05
8 *1296:CK 9.34608e-05
9 *1294:CK 6.83662e-05
10 *1305:CK 1.48436e-05
11 *1309:CK 7.54575e-05
12 *1307:CK 1.52584e-05
13 *1302:CK 3.47475e-05
14 *1298:CK 1.37099e-05
15 *1292:CK 2.73571e-05
16 *1251:Y 1.81191e-05
17 *1332:CK 3.1472e-05
18 *1308:CK 6.14099e-06
19 *1293:CK 0.000105439
20 *1311:CK 4.57174e-05
21 *85:25 0.000141503
22 *85:26 0.000114976
23 *85:27 9.91821e-05
24 *85:28 0.000194134
25 *85:29 6.58625e-05
26 *85:30 7.63548e-05
27 *85:31 0.000137924
28 *85:32 0.000178933
29 *85:33 8.47004e-05
30 *85:34 4.2437e-05
31 *85:35 0.000143529
32 *85:36 9.48887e-05
33 *85:37 0.000100253
34 *85:38 0.000141142
35 *85:39 0.000169097
36 *85:40 0.000316143027
37 *85:41 0.00019026
38 *85:42 0.000109969
39 *85:43 0.000144543
40 *85:44 8.89889e-05
41 *85:45 8.60077e-05
42 *85:46 5.88918e-05
43 *85:47 0.00011486
44 *85:48 0.000195918
45 *85:49 0.000164451
46 *85:50 0.000156699
47 *85:46 *1305:D 1.24574e-05
48 *85:33 *1305:D 7.10487e-05
49 *85:31 *1305:D 9.29832e-06
50 *1368:CK *1305:D 6.54459089e-05
51 *85:44 *305:2 7.62939e-06
52 *1311:CK *305:3 1.37091e-05
53 *85:37 *305:2 8.46386e-06
54 *1309:CK *305:2 5.93661989e-05
55 *1293:CK *1251:A 2.92063e-06
56 *85:41 *1251:A 5.36442e-07
57 *85:36 *123:26 2.36034e-05
58 *85:36 *123:29 9.41753e-06
59 *85:35 *123:18 3.99947e-05
60 *85:26 *123:18 6.1214e-05
61 *1297:CK *123:18 5.34653967e-05
62 *1332:CK *172:2 7.7486e-06
63 *85:32 *1307:D 5.9545e-05
64 *85:32 *172:2 8.82149e-06
65 *85:25 *1307:D 6.14524272e-05
66 *85:40 *182:4 6.55651e-07
67 *85:36 *182:3 4.04119e-05
68 *85:29 *182:3 1.66297e-05
69 *85:28 *182:3 1.40071e-05
70 *1295:CK *182:3 2.77758022e-05
71 *1296:CK *181:2 1.19209e-05
72 *1296:CK *1298:D 0
73 *1300:CK *1298:D 0.000100910693

*RES
1 *85:50 *85:49 1.06594
2 *85:49 *85:48 2.64581
3 *85:48 *85:47 1.6405
4 *85:47 *85:46 0.844408
5 *85:46 *85:45 3.69921
6 *85:44 *85:43 3.87493
7 *1304:CK *85:47 6.60005
8 *1311:CK *85:44 7.66576
9 *1293:CK *85:50 5.94572
10 *1291:CK *85:50 3.29991
11 *1299:CK *85:49 3.29991
12 *1301:CK *85:48 3.29991
13 *1308:CK *85:46 3.43142
14 *1332:CK *85:42 7.1516
15 *1310:CK *85:44 3.29991
16 *85:41 *1251:Y 6.84984
17 *85:40 *85:41 7.2063
18 *85:45 *85:39 3.33638
19 *85:39 *85:40 3.2051
20 *85:42 *85:38 3.33638
21 *85:38 *85:39 1.76904
22 *85:43 *85:38 5.55691
23 *85:37 *85:43 0.688061
24 *85:36 *85:41 1.7834
25 *1292:CK *85:36 7.0365
26 *85:35 *85:40 5.36227
27 *1298:CK *85:35 6.78854
28 *85:34 *85:33 3.35712
29 *85:33 *85:45 2.17723
30 *1302:CK *85:34 4.14432
31 *85:32 *85:42 2.32833
32 *1307:CK *85:32 6.78854
33 *1309:CK *85:37 8.67974
34 *85:31 *85:33 0.362833
35 *1305:CK *85:31 6.77828
36 *85:30 *85:29 3.35712
37 *85:29 *85:36 0.816375
38 *1294:CK *85:30 4.71843
39 *85:28 *85:29 0.816375
40 *1296:CK *85:28 14.9363279
41 *85:27 *85:26 3.33638
42 *85:26 *85:35 1.87479
43 *1300:CK *85:27 5.00992
44 *1303:CK *85:27 4.14432
45 *1295:CK *85:28 11.6421
46 *1368:CK *85:31 13.1889
47 *85:25 *85:32 6.26936
48 *1306:CK *85:25 3.43142
49 *1537:CK *85:25 7.65459
50 *1297:CK *85:26 8.50538
*END

*D_NET *86 0.00503773

*CONN
*I *1568:CK I *C 55.475 52.41 *L 0.00021 *D DFFHQX1
*I *1252:Y O *C 40.16 51.78 *L 0 *D CLKBUFX4
*I *1567:CK I *C 50.275 52.41 *L 0.00021 *D DFFHQX1
*I *1566:CK I *C 45.675 52.41 *L 0.00021 *D DFFHQX1
*I *1565:CK I *C 44.275 55.83 *L 0.00021 *D DFFHQX1
*I *1563:CK I *C 43.675 53.61 *L 0.00021 *D DFFHQX1
*I *1561:CK I *C 52.075 53.61 *L 0.00021 *D DFFHQX1
*I *1560:CK I *C 51.275 57.03 *L 0.00021 *D DFFHQX1
*I *1559:CK I *C 48.075 57.03 *L 0.00021 *D DFFHQX1
*I *1500:CK I *C 42.275 52.41 *L 0.00021 *D DFFHQX1
*I *1499:CK I *C 58.675 53.61 *L 0.00021 *D DFFHQX1
*I *1498:CK I *C 58.675 52.41 *L 0.00021 *D DFFHQX1
*I *1497:CK I *C 57.875 59.25 *L 0.00021 *D DFFHQX1
*I *1496:CK I *C 53.075 50.19 *L 0.00021 *D DFFHQX1
*I *1495:CK I *C 47.875 53.61 *L 0.00021 *D DFFHQX1
*I *1494:CK I *C 43.875 60.45 *L 0.00021 *D DFFHQX1
*I *1492:CK I *C 43.275 59.25 *L 0.00021 *D DFFHQX1
*I *1490:CK I *C 56.275 57.03 *L 0.00021 *D DFFHQX1
*I *1489:CK I *C 52.075 60.45 *L 0.00021 *D DFFHQX1
*I *1488:CK I *C 48.875 60.45 *L 0.00021 *D DFFHQX1
*I *1487:CK I *C 47.675 55.83 *L 0.00021 *D DFFHQX1

*CAP
1 *1499:CK 2.99191e-05
2 *1498:CK 1.25154e-05
3 *1497:CK 7.49848e-05
4 *1490:CK 8.57706e-05
5 *1568:CK 2.00859e-05
6 *1496:CK 0.000114618
7 *1489:CK 8.86344e-05
8 *1561:CK 3.46882e-05
9 *1560:CK 7.86538e-06
10 *1567:CK 2.12201e-05
11 *1488:CK 2.73899e-06
12 *1559:CK 0.000120402
13 *1495:CK 1.22205e-05
14 *1487:CK 0.00010377
15 *1566:CK 2.14583e-05
16 *1565:CK 1.62128e-05
17 *1494:CK 5.44792e-05
18 *1563:CK 6.46696e-05
19 *1492:CK 3.6775e-05
20 *1500:CK 2.36018e-05
21 *1252:Y 8.35647e-05
22 *86:21 0.000113665
23 *86:22 0.000367524
24 *86:23 0.000137505
25 *86:24 0.000179055
26 *86:25 7.21834e-05
27 *86:26 0.000202475
28 *86:27 0.000371634961
29 *86:28 0.000124752
30 *86:29 0.000297308
31 *86:30 0.000125767
32 *86:31 0.000258446
33 *86:32 0.000177802
34 *86:33 0.000141265
35 *86:34 0.000138225
36 *86:35 6.52651e-05
37 *86:36 0.0002023
38 *86:37 0.000252305
39 *86:38 0.000152527
40 *86:39 0.00016147
41 *86:39 *439:5 6.55651e-07
42 *1500:CK *439:5 9.53674e-07
43 *86:37 *439:4 7.15256e-07
44 *86:37 *439:5 1.84774e-06
45 *86:32 *439:4 2.74181e-06
46 *86:28 *439:4 4.94719e-06
47 *86:26 *439:4 6.49691e-06
48 *86:25 *439:4 8.52346e-06
49 *86:24 *439:4 1.29342e-05
50 *86:23 *439:4 4.92334e-05
51 *86:21 *439:4 7.65920174e-05
52 *1495:CK *452:5 2.02656e-06
53 *1495:CK *452:7 5.48363e-06
54 *1495:CK *452:8 5.1856e-06
55 *1559:CK *452:5 4.35114e-06
56 *86:29 *452:5 9.66191e-05
57 *86:29 *452:6 4.76866349e-07
58 *86:29 *451:4 1.00136e-05
59 *1488:CK *451:4 1.06096e-05
60 *1489:CK *1484:B 8.23736291e-05
61 *86:27 *1561:D 1.66893e-05
62 *86:25 *1561:D 1.12653e-05
63 *1561:CK *1561:D 7.98702e-06
64 *86:24 *1561:D 1.58548e-05
65 *86:23 *1561:D 3.14712702e-05

*RES
1 *86:39 *1252:Y 8.6574
2 *1500:CK *86:39 10.2296
3 *1492:CK *86:38 10.5864
4 *1563:CK *86:37 11.0088
5 *86:38 *86:36 6.0558
6 *86:35 *86:38 3.44015
7 *1494:CK *86:35 7.52225
8 *86:37 *86:39 1.42117
9 *86:36 *86:37 5.54654
10 *86:34 *86:36 3.54791
11 *1565:CK *86:34 10.0969
12 *86:33 *86:37 1.26985
13 *1566:CK *86:33 10.2296
14 *1487:CK *86:34 12.7278
15 *86:32 *86:33 1.72351
16 *86:31 *86:32 7.39472
17 *1495:CK *86:31 10.0969
18 *1559:CK *86:30 12.7031
19 *86:29 *86:31 8.99815
20 *1488:CK *86:29 6.73156
21 *86:28 *86:32 1.87454
22 *1567:CK *86:28 10.2296
23 *1560:CK *86:27 6.73987
24 *86:26 *86:28 0.967506
25 *86:27 *86:26 6.55187
26 *86:30 *86:27 3.33641
27 *86:25 *86:26 0.514131
28 *1561:CK *86:25 10.648
29 *1489:CK *86:29 15.8939
30 *86:24 *86:25 0.665161
31 *1496:CK *86:24 18.7815437
32 *86:23 *86:24 2.02586
33 *1568:CK *86:23 10.2296
34 *86:22 *86:27 8.22552
35 *1490:CK *86:22 18.4907
36 *1497:CK *86:22 11.6694
37 *86:21 *86:23 5.81593
38 *1498:CK *86:21 6.87227
39 *1499:CK *86:21 7.301
*END

*D_NET *87 0.00513518

*CONN
*I *1576:CK I *C 24.675 46.77 *L 0.00021 *D DFFHQX1
*I *1253:Y O *C 15.76 50.82 *L 0 *D CLKBUFX4
*I *1505:CK I *C 24.275 50.19 *L 0.00021 *D DFFHQX1
*I *1413:CK I *C 20.475 59.25 *L 0.00021 *D DFFHQX1
*I *1411:CK I *C 21.075 57.03 *L 0.00021 *D DFFHQX1
*I *1410:CK I *C 20.875 55.83 *L 0.00021 *D DFFHQX1
*I *1409:CK I *C 17.275 59.25 *L 0.00021 *D DFFHQX1
*I *1408:CK I *C 21.875 52.41 *L 0.00021 *D DFFHQX1
*I *1407:CK I *C 18.675 53.61 *L 0.00021 *D DFFHQX1
*I *1406:CK I *C 15.475 57.03 *L 0.00021 *D DFFHQX1
*I *1405:CK I *C 17.675 55.83 *L 0.00021 *D DFFHQX1
*I *1404:CK I *C 15.875 52.41 *L 0.00021 *D DFFHQX1
*I *1403:CK I *C 15.275 53.61 *L 0.00021 *D DFFHQX1
*I *1400:CK I *C 15.875 48.99 *L 0.00021 *D DFFHQX1
*I *1371:CK I *C 15.075 46.77 *L 0.00021 *D DFFHQX1
*I *1370:CK I *C 21.075 50.19 *L 0.00021 *D DFFHQX1
*I *1369:CK I *C 18.275 46.77 *L 0.00021 *D DFFHQX1
*I *1366:CK I *C 17.875 50.19 *L 0.00021 *D DFFHQX1
*I *1365:CK I *C 21.475 46.77 *L 0.00021 *D DFFHQX1
*I *1364:CK I *C 19.275 48.99 *L 0.00021 *D DFFHQX1
*I *1354:CK I *C 15.485 60.375 *L 0.00021 *D DFFQXL
*I *1353:CK I *C 24.075 62.67 *L 0.00021 *D DFFHQX1
*I *1352:CK I *C 17.685 62.745 *L 0.00021 *D DFFQXL
*I *1351:CK I *C 20.885 62.745 *L 0.00021 *D DFFQXL

*CAP
1 *1576:CK 9.76919e-05
2 *1505:CK 8.21364e-05
3 *1353:CK 8.52337e-05
4 *1408:CK 6.38956e-05
5 *1365:CK 2.03265e-05
6 *1370:CK 3.35589e-05
7 *1351:CK 6.4976e-06
8 *1410:CK 1.52589e-05
9 *1413:CK 4.20205e-05
10 *1364:CK 9.31613e-05
11 *1407:CK 0.000125646
12 *1369:CK 1.69887e-05
13 *1366:CK 3.06364e-05
14 *1352:CK 6.86041e-05
15 *1405:CK 1.59739e-05
16 *1409:CK 7.3016e-05
17 *1404:CK 4.86367e-05
18 *1400:CK 4.14241e-05
19 *1253:Y 2.28275e-05
20 *1354:CK 6.42547e-05
21 *1406:CK 4.01721e-05
22 *1403:CK 5.07818e-05
23 *1371:CK 4.23796e-05
24 *87:24 0.000116707
25 *87:25 7.25976e-05
26 *87:26 0.000198544
27 *87:27 0.000133396
28 *87:28 0.000105797
29 *87:29 0.00019139
30 *87:30 0.000178098
31 *87:31 0.000204622754
32 *87:32 0.0001871
33 *87:33 0.000166355
34 *87:34 0.000140549
35 *87:35 0.000170945
36 *87:36 0.000146091
37 *87:37 0.000145614
38 *87:38 0.000143291
39 *87:39 0.000129402
40 *87:40 5.71014e-05
41 *87:41 9.38764e-05
42 *87:42 0.000128984
43 *87:43 0.00013733
44 *87:44 0.000141739
45 *87:45 0.000134408
46 *87:46 0.000189067
47 *87:47 0.000161947
48 *1371:CK *1250:A 4.62532e-05
49 *87:47 *123:23 4.14252e-05
50 *87:47 *123:20 3.57628e-06
51 *87:43 *1253:A 3.54052e-05
52 *87:41 *1253:A 4.76837e-07
53 *87:34 *1253:A 6.91414e-06
54 *87:33 *1250:A 2.41995e-05
55 *1364:CK *123:17 5.18557879e-06
56 *1366:CK *279:2 0
57 *87:32 *279:2 2.57492e-05
58 *87:28 *279:2 4.071e-05
59 *87:24 *279:2 1.8537e-05
60 *1505:CK *279:2 5.56111556e-05
61 *87:33 *374:5 4.23193e-06
62 *1369:CK *374:6 2.38419e-07
63 *87:26 *374:5 4.51803e-05
64 *1576:CK *374:5 4.36306237e-05
65 *87:29 *1182:A 5.78165e-06
66 *1353:CK *1182:A 7.59959232e-05

*RES
1 *1371:CK *87:47 10.7623
2 *1403:CK *87:46 10.6111
3 *1406:CK *87:45 13.7962
4 *1354:CK *87:44 7.56757
5 *87:47 *87:43 4.90797
6 *87:43 *87:42 1.49686
7 *87:41 *1253:Y 6.84977
8 *87:42 *87:41 3.35709
9 *87:40 *87:46 3.35709
10 *87:46 *87:39 3.3362
11 *87:39 *87:42 2.13559
12 *87:38 *87:39 1.48155
13 *87:45 *87:38 0.90714
14 *87:44 *87:37 3.3362
15 *87:37 *87:45 1.91257
16 *87:36 *87:37 5.41332
17 *1400:CK *87:43 13.6469
18 *1404:CK *87:40 7.5879
19 *1409:CK *87:44 11.4907
20 *87:35 *87:38 4.75761
21 *1405:CK *87:35 10.0724
22 *1352:CK *87:36 8.22607
23 *87:34 *87:41 1.48239
24 *1366:CK *87:34 10.372
25 *87:33 *87:47 1.8747
26 *1369:CK *87:33 10.0971
27 *1407:CK *87:46 12.2742
28 *87:32 *87:34 1.11875
29 *1364:CK *87:32 18.2474861
30 *1413:CK *87:31 13.9473
31 *87:30 *87:35 2.47946
32 *1410:CK *87:30 10.0971
33 *1351:CK *87:29 3.35179
34 *87:28 *87:32 1.42113
35 *87:27 *87:30 4.55547
36 *87:31 *87:27 1.56118
37 *87:29 *87:31 2.56633
38 *1370:CK *87:28 10.372
39 *1411:CK *87:27 6.60001
40 *87:26 *87:33 2.47946
41 *1365:CK *87:26 10.0971
42 *87:25 *87:24 3.34678
43 *87:24 *87:28 0.66518
44 *1408:CK *87:25 7.73129
45 *1353:CK *87:29 15.8989
46 *1505:CK *87:24 12.2469
47 *1576:CK *87:26 12.5763
*END

*D_NET *88 0.00432909

*CONN
*I *1581:CK I *C 37.075 50.19 *L 0.00021 *D DFFHQX1
*I *1254:Y O *C 35.085 52.74 *L 0 *D CLKBUFX3
*I *1574:CK I *C 27.475 50.19 *L 0.00021 *D DFFHQX1
*I *1573:CK I *C 33.875 50.19 *L 0.00021 *D DFFHQX1
*I *1572:CK I *C 39.075 53.61 *L 0.00021 *D DFFHQX1
*I *1564:CK I *C 40.275 55.83 *L 0.00021 *D DFFHQX1
*I *1557:CK I *C 37.075 55.83 *L 0.00021 *D DFFHQX1
*I *1504:CK I *C 30.675 50.19 *L 0.00021 *D DFFHQX1
*I *1503:CK I *C 30.475 55.83 *L 0.00021 *D DFFHQX1
*I *1502:CK I *C 33.675 55.83 *L 0.00021 *D DFFHQX1
*I *1501:CK I *C 35.475 53.61 *L 0.00021 *D DFFHQX1
*I *1493:CK I *C 39.675 59.25 *L 0.00021 *D DFFHQX1
*I *1486:CK I *C 36.475 59.25 *L 0.00021 *D DFFHQX1
*I *1418:CK I *C 26.875 59.25 *L 0.00021 *D DFFHQX1
*I *1417:CK I *C 23.675 59.25 *L 0.00021 *D DFFHQX1
*I *1416:CK I *C 33.275 59.25 *L 0.00021 *D DFFHQX1
*I *1415:CK I *C 29.675 57.03 *L 0.00021 *D DFFHQX1
*I *1414:CK I *C 26.475 57.03 *L 0.00021 *D DFFHQX1
*I *1412:CK I *C 30.075 59.25 *L 0.00021 *D DFFHQX1
*I *1363:CK I *C 27.275 55.83 *L 0.00021 *D DFFHQX1
*I *1362:CK I *C 24.075 55.83 *L 0.00021 *D DFFHQX1

*CAP
1 *1564:CK 8.04053e-05
2 *1493:CK 0.000107347
3 *1572:CK 0.00013095
4 *1557:CK 1.47226e-05
5 *1581:CK 6.77094e-05
6 *1486:CK 1.806e-05
7 *1501:CK 3.99934e-05
8 *1254:Y 1.05516e-05
9 *1573:CK 1.65694e-05
10 *1502:CK 1.19801e-05
11 *1416:CK 1.78802e-05
12 *1504:CK 1.42453e-05
13 *1503:CK 1.5141e-05
14 *1412:CK 1.77037e-05
15 *1415:CK 4.79823e-05
16 *1574:CK 0.000103653
17 *1363:CK 1.53796e-05
18 *1418:CK 1.74651e-05
19 *1414:CK 4.8221e-05
20 *1362:CK 9.02999e-05
21 *1417:CK 0.000111936
22 *88:21 0.000137985
23 *88:22 0.000163435
24 *88:23 0.00014311
25 *88:24 0.000118317
26 *88:25 0.000163854
27 *88:26 8.76195e-05
28 *88:27 3.95783e-05
29 *88:28 0.000159264
30 *88:29 9.01822e-05
31 *88:30 0.000178933
32 *88:31 9.10157e-05
33 *88:32 0.000146032
34 *88:33 0.000157179
35 *88:34 0.000134765
36 *88:35 5.62654e-05
37 *88:36 0.000161827
38 *88:37 0.000112652
39 *88:38 0.00018412
40 *88:39 0.000120997
41 *88:40 5.63863e-05
42 *88:41 0.000128329
43 *88:42 0.000214219102
44 *1574:CK *686:5 4.12464e-05
45 *88:36 *686:5 7.52807e-05
46 *88:31 *686:5 2.3663e-05
47 *88:28 *686:5 9.41755601e-06
48 *1574:CK *435:6 2.26498e-06
49 *88:36 *435:5 8.40425e-06
50 *88:36 *435:6 7.05123e-05
51 *88:31 *435:5 3.39746e-05
52 *1504:CK *435:6 6.49691e-06
53 *1504:CK *435:8 2.5034e-06
54 *1581:CK *435:5 1.66297293e-05
55 *88:32 *437:5 1.91927e-05
56 *1502:CK *437:6 5.66244e-06
57 *1502:CK *437:7 1.19209e-07
58 *88:21 *437:5 2.8491e-05
59 *1564:CK *437:5 5.00083141e-05
60 *1572:CK *2073:B0 1.90735e-05
61 *1572:CK *502:3 1.69873e-05
62 *1572:CK *502:4 5.48958885e-05

*RES
1 *1417:CK *88:42 12.5765
2 *1362:CK *88:41 11.9463
3 *88:40 *88:41 3.35721
4 *88:41 *88:39 0.665197
5 *1414:CK *88:40 7.44454
6 *88:42 *88:38 2.4795
7 *1418:CK *88:42 10.097
8 *88:39 *88:37 1.87466
9 *1363:CK *88:39 10.0885
10 *1574:CK *88:36 12.5765
11 *88:35 *88:37 3.35721
12 *88:37 *88:34 0.665197
13 *1415:CK *88:35 7.44454
14 *88:38 *88:33 2.4795
15 *1412:CK *88:38 10.097
16 *88:34 *88:32 2.4795
17 *1503:CK *88:34 10.0885
18 *88:36 *88:31 2.4795
19 *1504:CK *88:36 10.097
20 *88:33 *88:30 1.57245
21 *1416:CK *88:33 10.097
22 *88:32 *88:29 1.27004
23 *1502:CK *88:32 10.0885
24 *88:31 *88:28 1.11872
25 *1573:CK *88:31 10.097
26 *88:27 *1254:Y 3.56846
27 *88:28 *88:26 5.12614
28 *88:25 *88:27 3.71998
29 *88:26 *88:25 3.33639
30 *88:24 *88:26 0.619824
31 *88:29 *88:23 3.33639
32 *88:23 *88:24 1.62532
33 *88:30 *88:23 5.70059
34 *1501:CK *88:24 13.6402845
35 *88:22 *88:30 0.967616
36 *1486:CK *88:22 10.097
37 *88:21 *88:29 1.42114
38 *1581:CK *88:28 11.5181
39 *1557:CK *88:21 10.0885
40 *1572:CK *88:25 13.5895
41 *1493:CK *88:22 12.5765
42 *1564:CK *88:21 12.5682
*END

*D_NET *89 0.00532669

*CONN
*I *1588:CK I *C 35.875 36.51 *L 0.00021 *D DFFHQX1
*I *1255:Y O *C 16.56 43.98 *L 0 *D CLKBUFX4
*I *1587:CK I *C 34.075 38.73 *L 0.00021 *D DFFHQX1
*I *1585:CK I *C 37.275 38.73 *L 0.00021 *D DFFHQX1
*I *1579:CK I *C 27.675 38.73 *L 0.00021 *D DFFHQX1
*I *1578:CK I *C 24.475 38.73 *L 0.00021 *D DFFHQX1
*I *1577:CK I *C 30.875 38.73 *L 0.00021 *D DFFHQX1
*I *1575:CK I *C 28.275 45.57 *L 0.00021 *D DFFHQX1
*I *1511:CK I *C 22.075 36.51 *L 0.00021 *D DFFHQX1
*I *1509:CK I *C 24.075 43.35 *L 0.00021 *D DFFHQX1
*I *1508:CK I *C 30.475 43.35 *L 0.00021 *D DFFHQX1
*I *1507:CK I *C 27.275 43.35 *L 0.00021 *D DFFHQX1
*I *1397:CK I *C 19.075 42.15 *L 0.00021 *D DFFHQX1
*I *1392:CK I *C 20.875 43.35 *L 0.00021 *D DFFHQX1
*I *1391:CK I *C 18.875 39.93 *L 0.00021 *D DFFHQX1
*I *1390:CK I *C 15.875 42.15 *L 0.00021 *D DFFHQX1
*I *1389:CK I *C 18.675 35.31 *L 0.00021 *D DFFHQX1
*I *1388:CK I *C 22.075 39.93 *L 0.00021 *D DFFHQX1
*I *1387:CK I *C 16.275 38.73 *L 0.00021 *D DFFHQX1
*I *1386:CK I *C 19.475 38.73 *L 0.00021 *D DFFHQX1
*I *1385:CK I *C 15.675 39.93 *L 0.00021 *D DFFHQX1
*I *1381:CK I *C 16.475 45.57 *L 0.00021 *D DFFHQX1
*I *1379:CK I *C 19.675 45.57 *L 0.00021 *D DFFHQX1

*CAP
1 *1585:CK 5.79338e-05
2 *1588:CK 0.000116527
3 *1587:CK 1.50797e-05
4 *1577:CK 1.46644e-05
5 *1508:CK 0.000102281
6 *1575:CK 5.65051e-05
7 *1579:CK 1.52588e-05
8 *1507:CK 2.9325e-05
9 *1578:CK 1.47216e-05
10 *1509:CK 2.74772e-05
11 *1388:CK 4.13644e-05
12 *1511:CK 7.94523e-05
13 *1392:CK 2.84297e-05
14 *1379:CK 7.80807e-05
15 *1386:CK 1.51978e-05
16 *1397:CK 4.2736e-05
17 *1391:CK 4.78032e-05
18 *1389:CK 0.000120939
19 *1255:Y 2.09813e-05
20 *1381:CK 5.54307e-05
21 *1387:CK 0.00012505
22 *1390:CK 5.34648e-05
23 *1385:CK 5.96635e-05
24 *89:23 0.000249683848
25 *89:24 0.000190378
26 *89:25 0.000218153
27 *89:26 6.78892e-05
28 *89:27 0.000147223
29 *89:28 0.000225784
30 *89:29 0.000166418
31 *89:30 0.000216008
32 *89:31 0.000237763
33 *89:32 0.000194192
34 *89:33 0.000125469
35 *89:34 0.000197949
36 *89:35 0.000134171
37 *89:36 0.000163317
38 *89:37 0.000122428
39 *89:38 0.000125945
40 *89:39 0.000116466
41 *89:40 5.25123e-05
42 *89:41 0.000151037
43 *89:42 0.000125648
44 *89:43 9.97173e-05
45 *89:44 0.000149845
46 *89:45 0.000120581
47 *89:46 9.04211e-05
48 *89:46 *123:21 4.67896e-05
49 *89:45 *123:20 1.15633e-05
50 *89:45 *123:21 2.95639e-05
51 *1381:CK *123:20 3.37958e-05
52 *89:42 *1255:A 4.11280584e-06
53 *89:46 *317:4 3.26633e-05
54 *89:45 *317:4 2.76566e-05
55 *1381:CK *317:4 2.05636011e-05
56 *1389:CK *338:4 7.16448e-05
57 *89:41 *338:4 2.13385e-05
58 *89:39 *338:4 4.55976e-05
59 *89:38 *338:4 4.1008e-05
60 *1379:CK *338:4 3.30208764e-05

*RES
1 *1385:CK *89:46 10.9133
2 *1390:CK *89:45 14.0987
3 *1387:CK *89:44 12.1231
4 *1381:CK *89:43 14.7912
5 *89:46 *89:45 4.82849
6 *89:45 *89:43 1.42361
7 *89:42 *1255:Y 6.82526
8 *89:43 *89:42 3.34677
9 *1389:CK *89:41 16.2854
10 *89:44 *89:40 0.385591
11 *1391:CK *89:39 13.6638
12 *89:40 *89:41 3.33633
13 *89:41 *89:39 0.763565
14 *89:39 *89:38 1.56098
15 *89:38 *89:37 1.41825
16 *89:36 *89:42 1.78353
17 *89:37 *89:36 3.33633
18 *1397:CK *89:38 13.6469
19 *89:35 *89:40 0.362743
20 *1386:CK *89:35 10.0885
21 *1379:CK *89:37 15.0189
22 *89:34 *89:36 1.42135
23 *1392:CK *89:34 10.372
24 *89:33 *89:32 3.33633
25 *89:32 *89:35 2.02583
26 *1511:CK *89:33 8.30557
27 *1388:CK *89:33 7.44441
28 *89:31 *89:34 2.47968
29 *1509:CK *89:31 10.372
30 *89:30 *89:32 1.87464
31 *1578:CK *89:30 10.0885
32 *89:29 *89:31 2.47968
33 *1507:CK *89:29 10.372
34 *89:28 *89:30 2.47968
35 *1579:CK *89:28 10.0885
36 *89:27 *89:29 0.816595
37 *89:26 *89:27 3.44013
38 *1575:CK *89:26 7.66583
39 *1508:CK *89:27 12.0958
40 *89:25 *89:28 2.47968
41 *1577:CK *89:25 10.0885
42 *89:24 *89:25 2.47968
43 *1587:CK *89:24 10.0885
44 *1588:CK *89:23 18.4857845
45 *89:23 *89:24 1.57226
46 *1585:CK *89:23 11.0563
*END

*D_NET *90 0.00579059

*CONN
*I *1596:CK I *C 58.275 45.57 *L 0.00021 *D DFFHQX1
*I *1256:Y O *C 32.16 48.36 *L 0 *D CLKBUFX4
*I *1595:CK I *C 47.475 39.93 *L 0.00021 *D DFFHQX1
*I *1594:CK I *C 58.275 42.15 *L 0.00021 *D DFFHQX1
*I *1592:CK I *C 49.675 42.15 *L 0.00021 *D DFFHQX1
*I *1590:CK I *C 50.875 39.93 *L 0.00021 *D DFFHQX1
*I *1583:CK I *C 31.875 45.57 *L 0.00021 *D DFFHQX1
*I *1571:CK I *C 43.075 45.57 *L 0.00021 *D DFFHQX1
*I *1570:CK I *C 54.675 46.77 *L 0.00021 *D DFFHQX1
*I *1569:CK I *C 57.875 46.77 *L 0.00021 *D DFFHQX1
*I *1562:CK I *C 49.875 45.57 *L 0.00021 *D DFFHQX1
*I *1558:CK I *C 46.675 45.57 *L 0.00021 *D DFFHQX1
*I *1524:CK I *C 46.275 42.15 *L 0.00021 *D DFFHQX1
*I *1521:CK I *C 55.075 42.15 *L 0.00021 *D DFFHQX1
*I *1517:CK I *C 41.675 42.15 *L 0.00021 *D DFFHQX1
*I *1516:CK I *C 35.675 43.35 *L 0.00021 *D DFFHQX1
*I *1514:CK I *C 38.875 43.35 *L 0.00021 *D DFFHQX1
*I *1512:CK I *C 39.675 45.57 *L 0.00021 *D DFFHQX1
*I *1510:CK I *C 39.475 46.77 *L 0.00021 *D DFFHQX1
*I *1506:CK I *C 33.075 42.15 *L 0.00021 *D DFFHQX1
*I *1491:CK I *C 54.875 43.35 *L 0.00021 *D DFFHQX1

*CAP
1 *1596:CK 3.81495e-05
2 *1594:CK 0.000133335
3 *1569:CK 1.43032e-05
4 *1521:CK 1.7761e-05
5 *1491:CK 1.63335e-05
6 *1570:CK 2.77761e-05
7 *1590:CK 0.000145017
8 *1562:CK 7.61169e-05
9 *1592:CK 9.76314e-05
10 *1595:CK 1.87733e-05
11 *1558:CK 1.65098e-05
12 *1524:CK 3.79106e-05
13 *1571:CK 1.99107e-05
14 *1517:CK 4.50594e-05
15 *1512:CK 3.69551e-05
16 *1510:CK 8.31462e-05
17 *1514:CK 1.1562e-05
18 *1516:CK 1.78804e-05
19 *1506:CK 8.77983e-05
20 *1256:Y 0.000126181
21 *1583:CK 3.82689e-05
22 *90:21 5.23901e-05
23 *90:22 0.000103353
24 *90:23 0.0002144
25 *90:24 0.000165997
26 *90:25 0.000219763
27 *90:26 0.00020087
28 *90:27 0.000243843
29 *90:28 0.000372707852
30 *90:29 0.000118913
31 *90:30 0.000184298
32 *90:31 0.000140786
33 *90:32 0.00021523
34 *90:33 0.000202656
35 *90:34 5.27484e-05
36 *90:35 0.000149669
37 *90:36 0.000159024
38 *90:37 0.000169398
39 *90:38 0.000132022
40 *90:39 0.000214457
41 *90:40 0.000243723
42 *90:41 0.000217318
43 *90:41 *327:5 2.71201e-05
44 *90:41 *327:7 1.38879e-05
45 *90:40 *327:5 2.34842e-05
46 *1506:CK *327:5 1.63316975e-05
47 *90:39 *1074:12 9.31620605e-05
48 *90:38 *425:6 6.4373e-06
49 *1514:CK *425:6 6.79493e-06
50 *1514:CK *425:8 8.76188e-06
51 *90:36 *425:6 1.01924e-05
52 *90:33 *425:6 2.64645e-05
53 *90:28 *425:5 3.15905e-06
54 *90:28 *425:6 1.94907e-05
55 *90:25 *425:5 9.5248198e-05
56 *1524:CK *692:10 1.78814e-07
57 *90:28 *692:10 2.26498e-05
58 *90:28 *1746:A0 2.21133e-05
59 *1592:CK *692:10 7.15256e-07
60 *1562:CK *692:10 4.54187e-05
61 *90:25 *692:10 8.52349417e-06
62 *1524:CK *711:7 7.56979e-06
63 *1592:CK *1899:A0 7.80821e-06
64 *1592:CK *711:7 2.01464e-05
65 *90:25 *711:6 5.52534731e-05
66 *90:30 *729:8 4.30346e-05
67 *1562:CK *729:8 5.8710531e-05
68 *90:30 *727:9 1.41263e-05
69 *90:29 *727:7 5.68628e-05
70 *90:27 *727:7 9.68575e-05
71 *1562:CK *727:9 7.39106298e-06
72 *1570:CK *1569:D 8.04663e-06
73 *90:22 *1569:D 7.71284e-05
74 *90:21 *1569:D 7.5697926e-06

*RES
1 *1583:CK *90:41 13.7717
2 *90:40 *90:41 1.48177
3 *90:41 *1256:Y 12.3768
4 *1506:CK *90:40 15.0160789
5 *90:39 *90:40 5.96693
6 *1516:CK *90:39 10.0969
7 *90:38 *90:39 2.47961
8 *1514:CK *90:38 10.0969
9 *1510:CK *90:37 14.6525
10 *90:36 *90:38 0.665156
11 *90:35 *90:37 3.34686
12 *90:37 *90:36 4.9134
13 *1512:CK *90:35 10.1886
14 *90:34 *90:33 3.35717
15 *90:33 *90:36 1.57227
16 *1517:CK *90:34 7.58801
17 *90:32 *90:35 2.555
18 *1571:CK *90:32 10.0969
19 *1524:CK *90:31 10.6111
20 *90:30 *90:32 2.78183
21 *1558:CK *90:30 10.0724
22 *90:31 *90:29 3.33632
23 *90:29 *90:28 4.26429
24 *90:28 *90:33 3.9914
25 *90:27 *90:29 5.35883
26 *1595:CK *90:27 10.0969
27 *1592:CK *90:31 12.2741
28 *1562:CK *90:30 12.5766
29 *1590:CK *90:27 12.7505
30 *1570:CK *90:26 10.2899
31 *90:25 *90:28 6.10807
32 *90:24 *90:25 3.33632
33 *90:26 *90:24 5.70068
34 *1491:CK *90:25 10.0969
35 *90:23 *90:24 4.46569
36 *1521:CK *90:23 10.0724
37 *90:22 *90:26 2.32839
38 *1569:CK *90:22 10.0782
39 *90:21 *90:22 3.6406
40 *1594:CK *90:23 12.5766
41 *1596:CK *90:21 7.52225
*END

*D_NET *91 0.00465936

*CONN
*I *1603:CK I *C 57.075 26.25 *L 0.00021 *D DFFHQX1
*I *1257:Y O *C 56.56 21 *L 0 *D CLKBUFX4
*I *1602:CK I *C 57.275 22.83 *L 0.00021 *D DFFHQX1
*I *1601:CK I *C 56.675 28.47 *L 0.00021 *D DFFHQX1
*I *1600:CK I *C 56.675 29.67 *L 0.00021 *D DFFHQX1
*I *1599:CK I *C 58.475 31.89 *L 0.00021 *D DFFHQX1
*I *1593:CK I *C 55.875 35.31 *L 0.00021 *D DFFHQX1
*I *1591:CK I *C 55.875 33.09 *L 0.00021 *D DFFHQX1
*I *1589:CK I *C 55.875 36.51 *L 0.00021 *D DFFHQX1
*I *1533:CK I *C 64.075 22.83 *L 0.00021 *D DFFHQX1
*I *1532:CK I *C 63.875 26.25 *L 0.00021 *D DFFHQX1
*I *1531:CK I *C 64.075 25.05 *L 0.00021 *D DFFHQX1
*I *1530:CK I *C 63.675 28.47 *L 0.00021 *D DFFHQX1
*I *1529:CK I *C 63.875 29.67 *L 0.00021 *D DFFHQX1
*I *1528:CK I *C 63.875 33.09 *L 0.00021 *D DFFHQX1
*I *1527:CK I *C 61.875 21.63 *L 0.00021 *D DFFHQX1
*I *1525:CK I *C 63.875 42.15 *L 0.00021 *D DFFHQX1
*I *1523:CK I *C 62.875 39.93 *L 0.00021 *D DFFHQX1
*I *1522:CK I *C 63.675 36.51 *L 0.00021 *D DFFHQX1
*I *1520:CK I *C 63.875 35.31 *L 0.00021 *D DFFHQX1
*I *1519:CK I *C 63.675 38.73 *L 0.00021 *D DFFHQX1
*I *1518:CK I *C 60.075 38.73 *L 0.00021 *D DFFHQX1

*CAP
1 *1533:CK 7.36702e-05
2 *1525:CK 0.000115576
3 *1520:CK 2.75365e-05
4 *1528:CK 2.70014e-05
5 *1529:CK 1.37079e-05
6 *1532:CK 1.62103e-05
7 *1522:CK 6.10377e-05
8 *1530:CK 3.63603e-05
9 *1523:CK 4.14228e-05
10 *1527:CK 2.06852e-05
11 *1518:CK 7.56375e-05
12 *1599:CK 8.63656e-05
13 *1602:CK 4.14857e-05
14 *1603:CK 3.57623e-05
15 *1600:CK 4.61914e-05
16 *1257:Y 4.04103e-05
17 *1589:CK 9.77496e-05
18 *1593:CK 2.24111e-05
19 *1591:CK 4.3752e-05
20 *91:22 0.000232458
21 *91:23 0.000102639
22 *91:24 0.000184299
23 *91:25 0.0001145
24 *91:26 0.000253977
25 *91:27 5.81157e-05
26 *91:28 0.000159322
27 *91:29 0.000257313
28 *91:30 7.34341e-05
29 *91:31 5.03673e-05
30 *91:32 4.8699e-05
31 *91:33 0.000343799609
32 *91:34 0.000104963
33 *91:35 0.000210938
34 *91:36 0.000136969
35 *91:37 0.000269411
36 *91:38 0.000134944
37 *91:39 0.000194371
38 *91:40 0.000322999
39 *91:41 0.000209333
40 *91:42 7.665e-05
41 *91:40 *99:9 5.69224e-05
42 *91:40 *99:11 2.21133e-05
43 *91:37 *99:9 7.92747793e-06
44 *1518:CK *1426:B 6.89626e-05
45 *1518:CK *421:4 1.04308e-05
46 *91:34 *1426:B 2.01464e-05
47 *91:31 *1426:B 1.03711603e-05

*RES
1 *91:42 *91:41 0.241795
2 *1591:CK *91:42 7.63618
3 *1593:CK *91:42 7.20555
4 *1589:CK *91:41 15.2221918
5 *91:41 *91:40 5.56826
6 *91:39 *1257:Y 7.15143
7 *91:38 *91:37 3.34681
8 *91:37 *91:39 6.63416
9 *91:36 *91:38 4.98712
10 *91:40 *91:37 7.6471
11 *1601:CK *91:36 6.60002
12 *1600:CK *91:36 7.66591
13 *1603:CK *91:38 10.4007
14 *91:35 *91:39 0.514018
15 *1602:CK *91:35 10.6583
16 *1599:CK *91:40 11.503
17 *1518:CK *91:34 12.2656
18 *91:33 *91:35 3.53774
19 *1527:CK *91:33 10.2295
20 *91:32 *91:34 3.34937
21 *91:34 *91:31 0.665228
22 *1523:CK *91:32 7.44456
23 *91:30 *91:31 3.48873
24 *91:31 *91:29 3.64458
25 *1530:CK *91:28 13.7417
26 *1522:CK *91:30 8.24032
27 *1519:CK *91:30 6.60002
28 *91:27 *91:26 0.0908184
29 *1532:CK *91:25 6.9252
30 *1529:CK *91:24 6.92752
31 *1528:CK *91:27 7.49264
32 *1520:CK *91:27 7.34909
33 *1525:CK *91:29 9.31644
34 *91:23 *91:22 0.491488
35 *91:22 *91:33 14.586
36 *91:25 *91:22 0.491488
37 *91:28 *91:25 1.78408
38 *91:24 *91:28 1.20944
39 *91:26 *91:24 3.364
40 *91:29 *91:26 3.50754
41 *1533:CK *91:23 8.24032
42 *1531:CK *91:23 6.60002
*END

*D_NET *92 0.00713372

*CONN
*I *1612:CK I *C 23.875 28.47 *L 0.00021 *D DFFHQX1
*I *1258:Y O *C 15.96 31.26 *L 0 *D CLKBUFX4
*I *1611:CK I *C 23.075 22.83 *L 0.00021 *D DFFHQX1
*I *1610:CK I *C 27.875 25.05 *L 0.00021 *D DFFHQX1
*I *1609:CK I *C 31.475 26.25 *L 0.00021 *D DFFHQX1
*I *1608:CK I *C 20.475 25.05 *L 0.00021 *D DFFHQX1
*I *1607:CK I *C 19.875 22.83 *L 0.00021 *D DFFHQX1
*I *1606:CK I *C 30.675 22.83 *L 0.00021 *D DFFHQX1
*I *1605:CK I *C 24.075 26.25 *L 0.00021 *D DFFHQX1
*I *1597:CK I *C 30.675 29.67 *L 0.00021 *D DFFHQX1
*I *1586:CK I *C 31.075 33.09 *L 0.00021 *D DFFHQX1
*I *1584:CK I *C 24.075 29.67 *L 0.00021 *D DFFHQX1
*I *1582:CK I *C 20.475 33.09 *L 0.00021 *D DFFHQX1
*I *1580:CK I *C 23.675 33.09 *L 0.00021 *D DFFHQX1
*I *1541:CK I *C 20.875 26.25 *L 0.00021 *D DFFHQX1
*I *1538:CK I *C 28.275 26.25 *L 0.00021 *D DFFHQX1
*I *1534:CK I *C 16.275 26.25 *L 0.00021 *D DFFHQX1
*I *1526:CK I *C 27.475 29.67 *L 0.00021 *D DFFHQX1
*I *1515:CK I *C 27.875 33.09 *L 0.00021 *D DFFHQX1
*I *1513:CK I *C 17.275 33.09 *L 0.00021 *D DFFHQX1
*I *1382:CK I *C 11.875 31.89 *L 0.00021 *D DFFHQX1
*I *1380:CK I *C 14.075 33.09 *L 0.00021 *D DFFHQX1
*I *1378:CK I *C 17.075 31.89 *L 0.00021 *D DFFHQX1
*I *1377:CK I *C 17.075 28.47 *L 0.00021 *D DFFHQX1
*I *1374:CK I *C 12.075 25.05 *L 0.00021 *D DFFHQX1
*I *1373:CK I *C 13.075 26.25 *L 0.00021 *D DFFHQX1

*CAP
1 *1609:CK 8.45802e-05
2 *1586:CK 9.59651e-05
3 *1597:CK 6.66965e-05
4 *1606:CK 0.000206413
5 *1538:CK 1.96715e-05
6 *1515:CK 1.93108e-05
7 *1610:CK 4.3688e-05
8 *1526:CK 4.02927e-05
9 *1584:CK 6.23463e-05
10 *1605:CK 1.71675e-05
11 *1612:CK 3.04569e-05
12 *1580:CK 1.66317e-05
13 *1611:CK 1.80004e-05
14 *1541:CK 1.96079e-05
15 *1582:CK 0.000135839
16 *1608:CK 3.99373e-05
17 *1607:CK 5.91897e-05
18 *1513:CK 4.29135e-05
19 *1377:CK 5.96035e-05
20 *1534:CK 1.7523e-05
21 *1258:Y 2.21703e-05
22 *1380:CK 8.30311e-05
23 *1373:CK 1.59155e-05
24 *1374:CK 5.47758e-05
25 *1382:CK 5.59695e-05
26 *92:26 0.000159738
27 *92:27 0.000115037
28 *92:28 0.00021523
29 *92:29 0.000121414
30 *92:30 5.34071e-05
31 *92:31 0.000237703
32 *92:32 4.79215e-05
33 *92:33 0.000246584
34 *92:34 0.000127971
35 *92:35 0.000133335
36 *92:36 0.000347673906
37 *92:37 0.000309647
38 *92:38 0.000127674
39 *92:39 0.000182392
40 *92:40 0.00019914
41 *92:41 0.000117897
42 *92:42 0.000192047
43 *92:43 6.16301e-05
44 *92:44 4.63141e-05
45 *92:45 0.00022191
46 *92:46 0.00017029
47 *92:47 6.33596e-05
48 *92:48 0.000178991
49 *92:49 0.000204445
50 *92:50 0.000181018
51 *92:51 0.00015229
52 *92:52 9.20287e-05
53 *92:53 0.00018227
54 *1382:CK *361:3 4.79221e-05
55 *1382:CK *361:4 4.76837e-07
56 *1382:CK *361:5 1.12653e-05
57 *92:53 *361:3 5.51343e-05
58 *92:45 *361:3 2.13385e-05
59 *92:36 *2087:A0 3.49283e-05
60 *92:36 *361:3 0.000102043147
61 *1382:CK *300:2 2.95639e-05
62 *92:53 *300:2 3.11136e-05
63 *92:45 *300:2 9.29832e-06
64 *92:36 *1236:A 1.19209e-07
65 *92:36 *300:2 4.50015436e-05
66 *92:42 *387:7 4.88162e-05
67 *92:41 *387:6 5.36442e-07
68 *92:41 *387:7 3.09944195e-05
69 *1582:CK *1582:D 1.69873e-05
70 *1580:CK *1582:D 0
71 *92:28 *1582:D 8.67844e-05
72 *1515:CK *1582:D 1.13247842e-06
73 *92:40 *375:7 8.80361e-05
74 *92:34 *375:7 7.7486e-07
75 *1584:CK *375:7 0
76 *92:40 *330:6 1.3113e-06
77 *92:34 *330:6 4.01139e-05
78 *92:34 *330:7 1.06692e-05
79 *1584:CK *330:6 5.17368899e-05
80 *92:39 *737:6 1.26362e-05
81 *92:33 *737:6 4.00543e-05
82 *92:29 *737:5 3.8743e-06
83 *92:29 *1653:B0 1.47223e-05
84 *92:29 *737:6 4.02927e-05
85 *92:27 *737:5 2.68221e-06
86 *1538:CK *1653:B0 1.3113e-06
87 *1609:CK *737:5 4.27366237e-05
88 *92:31 *413:8 9.59635e-06
89 *1526:CK *413:8 4.46439e-05
90 *92:26 *413:7 4.43459e-05
91 *92:26 *413:8 2.32457399e-05
92 *92:28 *1669:A0 2.68221e-05
93 *1586:CK *1669:A0 7.00950541e-05
94 *1606:CK *726:5 7.40886e-05
95 *1606:CK *726:7 9.13739e-05
96 *1609:CK *726:5 8.04661626e-06

*RES
1 *1382:CK *92:53 11.9366
2 *92:52 *92:51 4.1735
3 *1374:CK *92:52 7.58796
4 *92:51 *92:50 2.3282
5 *1373:CK *92:51 10.0971
6 *92:53 *92:49 1.72346
7 *1380:CK *92:53 18.1882381
8 *92:50 *92:48 4.82848
9 *92:47 *92:48 3.33619
10 *92:48 *92:49 5.41323
11 *92:49 *1258:Y 6.80505
12 *92:46 *92:50 0.211756
13 *1534:CK *92:46 10.0971
14 *92:45 *92:49 0.816495
15 *92:44 *92:45 3.76165
16 *1377:CK *92:47 10.9133
17 *1378:CK *92:44 6.59995
18 *92:43 *92:44 0.392983
19 *1513:CK *92:43 7.52219
20 *1607:CK *92:42 10.7377
21 *1608:CK *92:41 13.6451
22 *1582:CK *92:40 12.4253
23 *92:42 *92:41 4.83097
24 *92:41 *92:39 4.26426
25 *92:39 *92:46 3.3867
26 *92:38 *92:39 0.211756
27 *1541:CK *92:38 10.0971
28 *92:37 *92:42 1.87472
29 *1611:CK *92:37 10.0724
30 *92:36 *92:45 4.89841
31 *92:40 *92:36 8.042
32 *92:35 *92:40 0.211756
33 *1580:CK *92:35 10.0971
34 *1612:CK *92:34 13.6262
35 *92:33 *92:38 2.47946
36 *92:34 *92:33 4.68471
37 *1605:CK *92:33 10.0724
38 *1584:CK *92:34 14.7782
39 *92:32 *92:31 3.35729
40 *92:31 *92:36 3.0842
41 *1526:CK *92:32 7.73144
42 *92:30 *92:29 3.35729
43 *92:29 *92:33 2.93294
44 *92:28 *92:35 3.23545
45 *1610:CK *92:30 7.58796
46 *1515:CK *92:28 10.0971
47 *92:27 *92:29 0.283359
48 *1538:CK *92:27 10.1784
49 *92:26 *92:31 5.75737
50 *1606:CK *92:37 15.8781
51 *1597:CK *92:26 7.80943
52 *1586:CK *92:28 12.5766
53 *1609:CK *92:27 12.4978
*END

*D_NET *93 0.00458801

*CONN
*I *1619:CK I *C 27.475 14.79 *L 0.00021 *D DFFHQX1
*I *1259:Y O *C 22.76 14.16 *L 0 *D CLKBUFX4
*I *1617:CK I *C 30.675 12.57 *L 0.00021 *D DFFHQX1
*I *1615:CK I *C 25.275 15.99 *L 0.00021 *D DFFHQX1
*I *1614:CK I *C 29.675 18.21 *L 0.00021 *D DFFHQX1
*I *1613:CK I *C 24.075 18.21 *L 0.00021 *D DFFHQX1
*I *1548:CK I *C 26.275 11.37 *L 0.00021 *D DFFHQX1
*I *1546:CK I *C 30.675 11.37 *L 0.00021 *D DFFHQX1
*I *1544:CK I *C 22.675 12.57 *L 0.00021 *D DFFHQX1
*I *1543:CK I *C 30.675 14.79 *L 0.00021 *D DFFHQX1
*I *1542:CK I *C 22.075 15.99 *L 0.00021 *D DFFHQX1
*I *1540:CK I *C 18.875 15.99 *L 0.00021 *D DFFHQX1
*I *1539:CK I *C 27.075 19.41 *L 0.00021 *D DFFHQX1
*I *1536:CK I *C 17.075 19.41 *L 0.00021 *D DFFHQX1
*I *1535:CK I *C 30.275 19.41 *L 0.00021 *D DFFHQX1
*I *1396:CK I *C 15.275 18.21 *L 0.00021 *D DFFHQX1
*I *1361:CK I *C 19.275 14.79 *L 0.00021 *D DFFHQX1
*I *1360:CK I *C 15.675 15.99 *L 0.00021 *D DFFHQX1
*I *1359:CK I *C 13.475 11.37 *L 0.00021 *D DFFHQX1
*I *1358:CK I *C 16.675 12.57 *L 0.00021 *D DFFHQX1
*I *1357:CK I *C 23.075 11.37 *L 0.00021 *D DFFHQX1
*I *1356:CK I *C 16.675 11.37 *L 0.00021 *D DFFHQX1
*I *1355:CK I *C 19.875 11.37 *L 0.00021 *D DFFHQX1

*CAP
1 *1546:CK 5.33454e-05
2 *1535:CK 4.20806e-05
3 *1614:CK 2.13382e-05
4 *1619:CK 2.00257e-05
5 *1539:CK 3.3737e-05
6 *1548:CK 9.32214e-05
7 *1615:CK 3.12331e-05
8 *1613:CK 1.59159e-05
9 *1357:CK 1.49603e-05
10 *1544:CK 4.53587e-05
11 *1259:Y 1.42466e-05
12 *1542:CK 3.17683e-05
13 *1355:CK 1.53776e-05
14 *1361:CK 2.24117e-05
15 *1540:CK 5.84138e-05
16 *1536:CK 8.77387e-05
17 *1358:CK 3.99939e-05
18 *1356:CK 6.02102e-06
19 *1360:CK 2.62856e-05
20 *1396:CK 4.73849e-05
21 *1359:CK 8.64262e-05
22 *93:23 0.00017196
23 *93:24 0.000123441
24 *93:25 7.18832e-05
25 *93:26 0.000115155
26 *93:27 0.000198185449
27 *93:28 0.00015527
28 *93:29 4.09496e-05
29 *93:30 0.000181734
30 *93:31 0.000194012
31 *93:32 0.00013578
32 *93:33 0.000102282
33 *93:34 6.35972e-05
34 *93:35 0.000115334
35 *93:36 0.000142871
36 *93:37 0.000110029
37 *93:38 7.83216e-05
38 *93:39 0.000134945
39 *93:40 5.12013e-05
40 *93:41 0.000151814
41 *93:42 0.000126481
42 *93:43 8.88697e-05
43 *93:44 0.000187338
44 *93:45 0.000157357
45 *1359:CK *324:2 5.26309e-05
46 *93:45 *324:2 5.31673e-05
47 *93:39 *1355:D 1.68681e-05
48 *93:39 *324:2 2.7835429e-05
49 *1360:CK *314:4 4.11272e-06
50 *1540:CK *314:4 4.81606e-05
51 *93:31 *314:2 3.81469244e-05
52 *1360:CK *318:2 7.39098e-06
53 *93:42 *318:2 5.87106e-05
54 *93:41 *318:2 2.80738e-05
55 *1540:CK *318:2 7.48037858e-05
56 *93:42 *123:18 6.1214e-05
57 *93:41 *123:18 4.33922e-05
58 *93:38 *123:18 3.33786e-06
59 *93:30 *123:16 3.06964e-05
60 *93:30 *123:18 1.10269e-05
61 *93:27 *123:16 1.22786e-05
62 *93:23 *123:16 4.51801845e-05
63 *93:37 *386:9 8.58307e-06
64 *93:36 *386:9 1.25766e-05
65 *93:35 *386:9 3.82662e-05
66 *93:32 *386:10 3.03984e-06
67 *93:31 *386:9 3.4272628e-05
68 *93:31 *397:7 4.2975e-05
69 *93:28 *397:7 3.8266133e-05
70 *1615:CK *728:7 1.86563e-05
71 *93:29 *728:8 4.58956e-06
72 *93:28 *728:6 4.52995e-06
73 *93:28 *728:7 1.72853e-06
74 *1539:CK *728:6 2.70605e-05
75 *93:26 *728:6 3.03387326e-05

*RES
1 *1359:CK *93:45 12.5681
2 *1396:CK *93:44 13.9229
3 *1360:CK *93:43 10.284
4 *93:43 *93:42 3.33642
5 *93:42 *93:41 6.59717
6 *93:44 *93:42 1.48157
7 *93:40 *93:45 3.33642
8 *93:45 *93:39 2.47946
9 *1356:CK *93:40 6.73162
10 *1358:CK *93:40 7.44441
11 *1536:CK *93:44 15.1665211
12 *1540:CK *93:43 12.4253
13 *93:41 *93:38 2.32834
14 *1361:CK *93:41 10.2296
15 *93:39 *93:37 1.87476
16 *1355:CK *93:39 10.0886
17 *1542:CK *93:36 13.6204
18 *93:37 *93:35 4.1103
19 *93:35 *93:34 1.769
20 *93:38 *93:33 0.211752
21 *93:34 *93:38 3.33642
22 *93:36 *93:34 0.619982
23 *93:33 *1259:Y 6.78855
24 *1544:CK *93:35 13.7963
25 *93:32 *93:37 0.665109
26 *1357:CK *93:32 10.0886
27 *93:31 *93:36 6.40347
28 *1613:CK *93:31 10.0886
29 *93:30 *93:33 2.17723
30 *1615:CK *93:30 10.657
31 *1548:CK *93:32 12.5614
32 *93:29 *93:28 3.35586
33 *93:28 *93:31 2.32834
34 *1539:CK *93:29 7.44441
35 *93:27 *93:30 1.72364
36 *1619:CK *93:27 10.2296
37 *93:26 *93:28 1.9465
38 *1614:CK *93:26 10.1405
39 *93:25 *93:26 3.78422
40 *1535:CK *93:25 7.44441
41 *93:24 *93:23 1.64032
42 *93:23 *93:27 6.10516
43 *1546:CK *93:24 7.66588
44 *1617:CK *93:24 6.59995
45 *1543:CK *93:23 6.59995
*END

*D_NET *94 0.00395066

*CONN
*I *1620:CK I *C 34.475 11.37 *L 0.00021 *D DFFHQX1
*I *1260:Y O *C 34.685 15.12 *L 0 *D CLKBUFX3
*I *1618:CK I *C 37.875 5.73 *L 0.00021 *D DFFHQX1
*I *1616:CK I *C 34.675 15.99 *L 0.00021 *D DFFHQX1
*I *1604:CK I *C 58.675 19.41 *L 0.00021 *D DFFHQX1
*I *1598:CK I *C 58.275 18.21 *L 0.00021 *D DFFHQX1
*I *1556:CK I *C 58.875 11.37 *L 0.00021 *D DFFHQX1
*I *1555:CK I *C 52.275 5.73 *L 0.00021 *D DFFHQX1
*I *1554:CK I *C 48.875 5.73 *L 0.00021 *D DFFHQX1
*I *1553:CK I *C 54.675 9.15 *L 0.00021 *D DFFHQX1
*I *1552:CK I *C 59.875 14.79 *L 0.00021 *D DFFHQX1
*I *1551:CK I *C 57.675 12.57 *L 0.00021 *D DFFHQX1
*I *1550:CK I *C 57.875 15.99 *L 0.00021 *D DFFHQX1
*I *1549:CK I *C 34.875 7.95 *L 0.00021 *D DFFHQX1
*I *1547:CK I *C 41.875 5.73 *L 0.00021 *D DFFHQX1
*I *1545:CK I *C 34.475 12.57 *L 0.00021 *D DFFHQX1
*I *1420:CK I *C 58.5 7.695 *L 0.00021 *D DFFRX1
*I *1419:CK I *C 55.7 5.985 *L 0.00021 *D DFFRHQX1

*CAP
1 *1552:CK 8.81551e-05
2 *1556:CK 4.09479e-05
3 *1604:CK 4.10093e-05
4 *1420:CK 2.46769e-05
5 *1598:CK 7.09091e-06
6 *1550:CK 6.34782e-05
7 *1551:CK 4.95913e-05
8 *1419:CK 4.50607e-05
9 *1553:CK 4.68508e-05
10 *1555:CK 1.47226e-05
11 *1554:CK 1.69264e-05
12 *1547:CK 1.47226e-05
13 *1618:CK 1.45423e-05
14 *1549:CK 3.85638e-05
15 *1616:CK 5.33478e-05
16 *1545:CK 6.31669e-06
17 *1620:CK 3.37955e-05
18 *1260:Y 1.58532e-05
19 *94:18 5.57319e-05
20 *94:19 0.000171304
21 *94:20 0.000178219
22 *94:21 0.000205694
23 *94:22 0.000115335
24 *94:23 0.000157237
25 *94:24 0.00015557
26 *94:25 0.00018674
27 *94:26 0.000195264
28 *94:27 0.000173451
29 *94:28 0.000268459316
30 *94:29 0.000262499
31 *94:30 0.000209213
32 *94:31 0.000263753
33 *94:32 0.00015539
34 *94:33 2.52709e-05
35 *94:34 0.000235139
36 *94:35 6.79474e-05
37 *94:30 *76:5 5.21541e-05
38 *94:29 *76:3 2.563e-06
39 *94:29 *76:5 6.16908e-05
40 *94:28 *76:3 1.55568e-05
41 *94:27 *76:3 7.27177e-06
42 *94:25 *76:3 5.24521e-06
43 *1419:CK *76:3 1.84771979e-06
44 *1553:CK *255:7 7.7486e-06
45 *1553:CK *255:8 2.17557e-05
46 *94:21 *255:7 7.69495931e-05

*RES
1 *94:35 *94:34 7.03555
2 *94:33 *1260:Y 3.64771
3 *1620:CK *94:35 7.44451
4 *1545:CK *94:35 6.73158
5 *94:32 *94:33 3.39967
6 *1616:CK *94:32 10.7151
7 *94:31 *94:34 3.4285
8 *94:34 *94:32 5.40854
9 *1549:CK *94:31 13.6469
10 *94:30 *94:31 7.09256
11 *1618:CK *94:30 10.0887
12 *94:29 *94:30 3.08429
13 *1547:CK *94:29 10.0887
14 *94:28 *94:29 5.35218
15 *1554:CK *94:28 10.0887
16 *94:27 *94:28 2.6308
17 *1555:CK *94:27 10.0887
18 *1553:CK *94:26 10.87
19 *94:25 *94:27 2.02586
20 *94:26 *94:25 8.32912
21 *1419:CK *94:25 10.9135
22 *1551:CK *94:24 14.0986443
23 *1550:CK *94:23 11.0187
24 *1598:CK *94:22 6.73975
25 *94:21 *94:26 6.11825
26 *94:20 *94:21 2.19969
27 *94:24 *94:20 0.907196
28 *94:19 *94:24 1.91249
29 *94:23 *94:19 3.33621
30 *94:22 *94:19 2.13558
31 *94:18 *94:22 0.38551
32 *1420:CK *94:21 3.84047
33 *1604:CK *94:18 7.52217
34 *1556:CK *94:20 13.7962
35 *1552:CK *94:23 11.4881
*END

*D_NET *95 0.0115662

*CONN
*I *1452:A I *C 68.5 28.405 *L 0.000211 *D AND2XL
*I *1445:A I *C 68.3 29.735 *L 0.000211 *D AND2XL
*I *1458:A I *C 67.5 29.735 *L 0.000211 *D AND2XL
*I *1449:A I *C 67.9 31.825 *L 0.000211 *D AND2XL
*I *1480:A I *C 67.5 35.245 *L 0.000211 *D AND2XL
*I *1473:A I *C 68.3 35.245 *L 0.000211 *D AND2XL
*I *1426:A I *C 67.9 38.665 *L 0.000211 *D AND2XL
*I *1432:A I *C 66.5 39.995 *L 0.000211 *D AND2XL
*I *1465:A I *C 67.3 36.575 *L 0.000211 *D AND2XL
*I *1483:A I *C 67.1 38.665 *L 0.000211 *D AND2XL
*I *1429:A I *C 67.3 39.995 *L 0.000211 *D AND2XL
*I *1476:A I *C 68.5 39.995 *L 0.000211 *D AND2XL
*I *1435:A I *C 68.1 43.415 *L 0.000211 *D AND2XL
*I *1431:A I *C 68.5 42.085 *L 0.000211 *D AND2XL
*I *1439:A I *C 65.7 45.505 *L 0.000211 *D AND2XL
*I *1461:A I *C 67.3 42.085 *L 0.000211 *D AND2XL
*I *1436:A I *C 67.3 43.415 *L 0.000211 *D AND2XL
*I *1444:A I *C 64.3 45.505 *L 0.000211 *D AND2XL
*I *1446:A I *C 63.9 46.835 *L 0.000211 *D AND2XL
*I *1447:A I *C 63.5 45.505 *L 0.000211 *D AND2XL
*I *1450:A I *C 63.1 46.835 *L 0.000211 *D AND2XL
*I *1451:A I *C 63.3 52.345 *L 0.000211 *D AND2XL
*I *2022:C0 I *C 59.985 48.735 *L 0.000392 *D OAI211X1
*I *1469:A I *C 62.5 52.345 *L 0.000211 *D AND2XL
*I *1961:C0 I *C 62.985 43.605 *L 0.000392 *D OAI211X1
*I *1454:A I *C 62.9 53.675 *L 0.000211 *D AND2XL
*I *1459:A I *C 62.9 55.765 *L 0.000211 *D AND2XL
*I *1460:A I *C 60.9 55.765 *L 0.000211 *D AND2XL
*I *1462:A I *C 61.9 55.765 *L 0.000211 *D AND2XL
*I *1463:A I *C 62.3 57.095 *L 0.000211 *D AND2XL
*I *1466:A I *C 61.5 57.095 *L 0.000211 *D AND2XL
*I *1467:A I *C 64.5 59.185 *L 0.000211 *D AND2XL
*I *1428:A I *C 63.7 57.095 *L 0.000211 *D AND2XL
*I *1481:A I *C 62.7 59.185 *L 0.000211 *D AND2XL
*I *1470:A I *C 63.7 59.185 *L 0.000211 *D AND2XL
*I *1485:A I *C 63.1 60.515 *L 0.000211 *D AND2XL
*I *1427:A I *C 62.3 60.515 *L 0.000211 *D AND2XL
*I *1475:A I *C 61.1 60.515 *L 0.000211 *D AND2XL
*I *2014:C0 I *C 58.185 55.575 *L 0.000392 *D OAI211X1
*I *1474:A I *C 60.3 60.515 *L 0.000211 *D AND2XL
*I *1965:C0 I *C 54.785 55.575 *L 0.000392 *D OAI211X1
*I *1477:A I *C 58.1 60.515 *L 0.000211 *D AND2XL
*I *1484:A I *C 56.9 60.515 *L 0.000211 *D AND2XL
*I *1482:A I *C 56.1 60.515 *L 0.000211 *D AND2XL
*I *2012:C0 I *C 58.585 50.445 *L 0.000392 *D OAI211X1
*I *2007:C0 I *C 53.785 48.735 *L 0.000392 *D OAI211X1
*I *1941:C0 I *C 54.185 45.315 *L 0.000392 *D OAI211X1
*I *1949:C0 I *C 55.185 58.995 *L 0.000392 *D OAI211X1
*I *1944:C0 I *C 47.585 60.705 *L 0.000392 *D OAI211X1
*I *2002:C0 I *C 46.185 57.285 *L 0.000392 *D OAI211X1
*I *2004:C0 I *C 47.185 48.735 *L 0.000392 *D OAI211X1
*I *1962:C0 I *C 42.385 57.285 *L 0.000392 *D OAI211X1
*I *1952:C0 I *C 40.185 57.285 *L 0.000392 *D OAI211X1
*I *1951:C0 I *C 36.185 57.285 *L 0.000392 *D OAI211X1
*I *1940:C0 I *C 49.185 48.735 *L 0.000392 *D OAI211X1
*I *2001:C0 I *C 43.585 48.735 *L 0.000392 *D OAI211X1
*I *1261:Y O *C 67.14 28.8 *L 0 *D BUFX3

*CAP
1 *1431:A 4.61944e-05
2 *1476:A 7.61727e-05
3 *1452:A 5.26898e-05
4 *1473:A 8.4401e-05
5 *1435:A 1.79434e-05
6 *1426:A 3.46291e-05
7 *1458:A 1.83011e-05
8 *1436:A 1.66913e-05
9 *1261:Y 2.01458e-05
10 *1432:A 3.8268e-05
11 *1439:A 2.43773e-05
12 *1467:A 7.36126e-05
13 *1446:A 5.42382e-05
14 *1451:A 5.83523e-05
15 *1485:A 4.66081e-05
16 *1961:C0 5.46575e-05
17 *1459:A 1.848e-05
18 *1481:A 3.34384e-05
19 *1463:A 2.73567e-05
20 *1462:A 2.68815e-05
21 *1466:A 5.60102e-06
22 *1475:A 2.10402e-05
23 *1474:A 2.11016e-05
24 *2012:C0 5.93641e-05
25 *1482:A 2.06209e-05
26 *1949:C0 1.4187e-05
27 *1965:C0 0.000137387
28 *1941:C0 7.76652e-05
29 *1940:C0 2.6943e-05
30 *2004:C0 1.83011e-05
31 *2002:C0 3.99953e-05
32 *2001:C0 8.714e-05
33 *1962:C0 2.63449e-05
34 *1952:C0 3.23652e-05
35 *1951:C0 0.000127079
36 *95:57 8.27296e-05
37 *95:58 8.92306e-05
38 *95:59 0.000104843
39 *95:60 7.99906e-05
40 *95:61 9.88843e-05
41 *95:62 7.05717e-05
42 *95:63 0.000203727
43 *95:64 6.99736e-05
44 *95:65 0.000190077
45 *95:66 0.000118376
46 *95:67 0.000117839
47 *95:68 9.62626e-05
48 *95:69 0.000107526
49 *95:70 8.76207e-05
50 *95:71 5.41823e-05
51 *95:72 9.76321e-05
52 *95:73 0.000182212
53 *95:74 0.000182452
54 *95:75 7.55802e-05
55 *95:76 0.000139416
56 *95:77 9.47142e-05
57 *95:78 9.23889e-05
58 *95:79 8.8694e-05
59 *95:80 0.000119147
60 *95:81 0.000130534
61 *95:82 5.87716e-05
62 *95:83 0.000117364
63 *95:84 0.000229178
64 *95:85 9.5726e-05
65 *95:86 7.03314e-05
66 *95:87 8.1539e-05
67 *95:88 9.82303e-05
68 *95:89 7.92751e-05
69 *95:90 7.66535e-05
70 *95:91 8.74419e-05
71 *95:92 7.62957e-05
72 *95:93 0.000100019
73 *95:94 0.000324965
74 *95:95 0.000268877
75 *95:96 0.000132563
76 *95:97 0.000245869
77 *95:98 0.000172553
78 *95:99 9.44739e-05
79 *95:100 6.99736e-05
80 *95:101 8.33892e-05
81 *95:102 0.000216366
82 *95:103 0.000136973
83 *95:104 0.00023389
84 *95:105 6.82464e-05
85 *95:106 0.000226914
86 *95:107 0.000291885
87 *95:108 0.000150741
88 *95:109 0.000366330156
89 *95:110 0.00015348
90 *95:111 0.000317397
91 *95:112 0.000194549
92 *95:113 0.000215231
93 *95:112 *2078:A0 0.000138401982
94 *2004:C0 *2004:B0 0.000114798545
95 *95:106 *1664:A0 0.000422835352
96 *95:106 *1663:A1 0.000177025801
97 *95:98 *1477:B 0.000158309941
98 *95:94 *2048:B0 0.000116229053
99 *1474:A *1474:B 0.000205516816
100 *1466:A *440:4 0.000100374219
101 *95:83 *1427:B 0.000161051748
102 *1485:A *1485:B 0.000159859658
103 *95:77 *237 0.000168561934
104 *95:76 *1428:B 0.000104427334
105 *95:75 *231:2 9.01222266e-05

*RES
1 *1951:C0 *95:113 10.6251
2 *95:113 *95:112 1.51629
3 *1952:C0 *95:113 7.0722
4 *95:112 *95:111 6.91193
5 *1962:C0 *95:112 7.31779
6 *2001:C0 *95:110 9.541
7 *95:111 *95:109 9.87002
8 *2002:C0 *95:111 4.12774
9 *95:110 *95:108 1.49397
10 *2004:C0 *95:110 6.75447
11 *95:109 *95:107 15.401721
12 *1944:C0 *95:109 3.30003
13 *95:108 *95:106 3.81377
14 *1940:C0 *95:108 6.84048
15 *95:105 *95:106 3.35714
16 *95:106 *95:104 8.58262
17 *2007:C0 *95:105 3.30003
18 *95:103 *95:105 1.45284
19 *1941:C0 *95:103 4.79682
20 *1965:C0 *95:102 6.53544
21 *95:102 *95:107 1.56494
22 *1949:C0 *95:102 3.64762
23 *95:107 *95:101 0.687879
24 *1482:A *95:101 3.64762
25 *95:101 *95:100 0.850037
26 *1484:A *95:100 3.30003
27 *95:100 *95:99 4.304
28 *1477:A *95:98 3.30003
29 *95:97 *95:96 5.51361
30 *95:98 *95:97 3.89673
31 *95:99 *95:98 3.33622
32 *2014:C0 *95:97 3.30003
33 *2012:C0 *95:95 7.81743
34 *95:95 *95:94 5.93592
35 *95:104 *95:95 5.3954
36 *2022:C0 *95:104 3.30003
37 *1474:A *95:93 6.82544
38 *95:93 *95:99 2.13179
39 *1460:A *95:92 3.30003
40 *95:96 *95:91 0.81643
41 *95:92 *95:96 3.7616
42 *1475:A *95:90 6.84988
43 *95:90 *95:93 0.665083
44 *1466:A *95:89 3.36701
45 *95:89 *95:92 1.48927
46 *1462:A *95:91 7.06163
47 *95:91 *95:88 4.15289
48 *1463:A *95:87 6.84988
49 *1427:A *95:86 3.30003
50 *95:87 *95:89 4.02246
51 *95:86 *95:90 4.304
52 *1469:A *95:85 3.30003
53 *95:94 *95:84 4.59612
54 *95:85 *95:94 0.778593
55 *1481:A *95:83 3.79144
56 *95:83 *95:86 0.825126
57 *1454:A *95:82 3.30003
58 *1459:A *95:88 3.71483
59 *95:81 *95:85 1.19433
60 *95:82 *95:81 0.20399
61 *95:88 *95:82 1.13017
62 *1961:C0 *95:80 4.46029
63 *1450:A *95:84 3.30003
64 *1485:A *95:83 4.33573
65 *95:84 *95:79 1.46318
66 *1451:A *95:81 4.61539
67 *1447:A *95:79 3.30003
68 *95:80 *95:78 0.778593
69 *95:79 *95:80 0.635001
70 *1428:A *95:77 3.30003
71 *1470:A *95:76 3.30003
72 *95:77 *95:87 4.55641
73 *95:76 *95:77 1.44838
74 *1446:A *95:75 4.7893
75 *1444:A *95:75 3.30003
76 *95:78 *95:74 0.997859
77 *95:75 *95:78 0.491409
78 *1467:A *95:76 10.9327
79 *1439:A *95:74 3.79144
80 *95:74 *95:73 9.37062
81 *1432:A *95:72 4.1315
82 *95:71 *1261:Y 3.58487
83 *1483:A *95:70 3.30003
84 *95:70 *95:69 1.074
85 *95:72 *95:70 0.718195
86 *1465:A *95:68 3.30003
87 *1429:A *95:67 3.30003
88 *1461:A *95:66 3.30003
89 *1436:A *95:73 3.58933
90 *95:68 *95:65 1.30784
91 *95:69 *95:68 0.718195
92 *95:67 *95:72 0.536767
93 *95:66 *95:67 1.64038
94 *95:73 *95:66 0.699395
95 *1458:A *95:64 3.62552
96 *1480:A *95:65 3.30003
97 *95:64 *95:71 0.839226
98 *95:65 *95:63 3.03941
99 *1449:A *95:63 3.30003
100 *1426:A *95:62 4.163
101 *95:63 *95:61 2.01193
102 *95:62 *95:69 0.491409
103 *1435:A *95:60 3.64762
104 *95:60 *95:73 0.438532
105 *1445:A *95:61 3.30003
106 *1473:A *95:59 5.50726
107 *95:58 *95:64 0.544287
108 *95:61 *95:58 0.347817
109 *95:59 *95:62 0.340297
110 *1452:A *95:58 4.29037
111 *1476:A *95:57 5.2276
112 *1431:A *95:60 4.50188
113 *95:57 *95:59 0.211745
*END

*D_NET *96 0.0041033

*CONN
*I *1904:A1 I *C 36.925 29.8775 *L 0.000212 *D OA22X1
*I *1903:A1 I *C 46.9 24.795 *L 0.000391 *D OAI22X1
*I *1900:A1 I *C 37.9 35.055 *L 0.000391 *D OAI22X1
*I *1898:A1 I *C 40.925 35.1025 *L 0.000212 *D OA22X1
*I *1892:A1 I *C 39.1 28.215 *L 0.000391 *D OAI22X1
*I *1889:A1 I *C 37.3 31.635 *L 0.000391 *D OAI22X1
*I *1887:A1 I *C 39.5 35.055 *L 0.000391 *D OAI22X1
*I *1799:A0 I *C 44.345 11.345 *L 0.000392 *D OAI22X1
*I *1803:B0 I *C 39.95 12.75 *L 0.000391 *D OAI222X1
*I *1263:Y O *C 39.93 11.55 *L 0 *D INVX1

*CAP
1 *1903:A1 0.000207663
2 *1799:A0 8.15969e-05
3 *1898:A1 6.53838e-05
4 *1803:B0 3.24818e-05
5 *1892:A1 2.43792e-05
6 *1900:A1 5.56083e-05
7 *1889:A1 2.44347e-05
8 *96:10 0.000204983
9 *96:11 0.000247597
10 *96:12 4.11869e-05
11 *96:13 0.00033116
12 *96:14 0.00016975
13 *96:15 0.000519573672
14 *96:16 0.000357506
15 *96:17 0.000258982
16 *96:18 0.000243007
17 *96:19 0.00015938
18 *96:18 *1730:C 0.000142574307
19 *96:15 *928:4 0.000105381016
20 *96:13 *97:19 8.2492832e-05
21 *96:13 *1803:C1 8.01086426e-05
22 *1803:B0 *677:12 0.000282645234
23 *1898:A1 *670:16 0.000142097471
24 *1903:A1 *106:16 0.000163257119
25 *1903:A1 *78:4 8.00490381e-05

*RES
1 *96:19 *96:18 5.93407
2 *96:17 *96:19 1.13001
3 *1904:A1 *96:19 3.29995
4 *1889:A1 *96:17 3.82924
5 *96:16 *96:17 13.2104
6 *1900:A1 *96:16 7.22562
7 *96:18 *96:15 5.92739
8 *1892:A1 *96:18 6.92965
9 *96:14 *96:16 5.14507
10 *1887:A1 *96:14 3.29995
11 *96:15 *96:13 7.75209
12 *96:12 *1263:Y 3.29995
13 *96:11 *96:12 3.34676
14 *96:13 *96:11 7.7162
15 *1803:B0 *96:12 4.36592
16 *1898:A1 *96:14 11.3825
17 *96:10 *96:11 2.80832
18 *1799:A0 *96:10 7.84007
19 *1903:A1 *96:15 23.0634212
*END

*D_NET *97 0.00361639

*CONN
*I *1831:A0 I *C 40.225 9.54 *L 0.000391 *D OAI21X1
*I *1808:B1 I *C 39.5 14.345 *L 0.000392 *D AOI221X1
*I *1884:A1 I *C 40.325 29.8775 *L 0.000212 *D OA22X1
*I *1875:A1 I *C 42.025 36.51 *L 0.000391 *D OAI221X1
*I *1895:A1 I *C 47.3 35.055 *L 0.000391 *D OAI22X1
*I *1885:A1 I *C 48.725 35.1025 *L 0.000212 *D OA22X1
*I *1899:A1 I *C 48.3 36.765 *L 0.000391 *D OAI22X1
*I *1891:A1 I *C 50.125 35.1025 *L 0.000212 *D OA22X1
*I *1888:A1 I *C 49.925 36.7175 *L 0.000212 *D OA22X1
*I *1265:Y O *C 41.33 8.97 *L 0 *D INVX1

*CAP
1 *1891:A1 4.46799e-06
2 *1888:A1 2.3424e-05
3 *1885:A1 1.09061e-05
4 *1899:A1 4.85164e-05
5 *1895:A1 2.37256e-05
6 *1875:A1 9.3941e-05
7 *1265:Y 4.26816e-05
8 *1884:A1 3.62435e-05
9 *1831:A0 3.94013e-05
10 *1808:B1 9.43557e-05
11 *97:10 5.67454e-05
12 *97:11 3.45751e-05
13 *97:12 6.324e-05
14 *97:13 5.07221e-05
15 *97:14 5.64438e-05
16 *97:15 0.000180002
17 *97:16 0.000320253
18 *97:17 0.000535905
19 *97:18 0.000207422
20 *97:19 0.000617742539
21 *97:19 *96:13 8.2492832e-05
22 *1831:A0 *929:7 0.000124454502
23 *1875:A1 *707:8 0.000218868262
24 *1875:A1 *1730:D 0.000111579893
25 *97:15 *428:4 0.000112533574
26 *97:15 *354:4 0.000172555449
27 *1888:A1 *1742:B0 0.000125288965
28 *1891:A1 *1891:B1 0.000127911572

*RES
1 *1808:B1 *97:19 14.5862
2 *1831:A0 *97:18 7.58607
3 *1884:A1 *97:17 10.33
4 *97:17 *97:19 12.3521
5 *97:16 *97:17 4.06705
6 *97:18 *1265:Y 7.319
7 *97:19 *97:18 6.98269
8 *1875:A1 *97:16 12.0271
9 *97:15 *97:16 15.4345036
10 *1895:A1 *97:15 6.84515
11 *97:14 *97:13 3.35722
12 *97:13 *97:15 0.816519
13 *1899:A1 *97:14 4.28773
14 *97:12 *97:13 0.283556
15 *1885:A1 *97:12 6.84044
16 *97:11 *97:10 0.479973
17 *1888:A1 *97:11 4.22226
18 *97:10 *97:12 4.37722
19 *1891:A1 *97:10 3.42481
*END

*D_NET *98 0.000632286

*CONN
*I *1812:B0 I *C 42.465 23.045 *L 0.00039 *D OAI2BB1X1
*I *1840:C I *C 43.3 21.185 *L 0.00021 *D AND3XL
*I *1269:Y O *C 45.93 21.81 *L 0 *D INVX1

*CAP
1 *1269:Y 5.54329e-05
2 *1840:C 7.92775e-06
3 *1812:B0 5.13789e-05
4 *98:3 6.30028e-05
5 *98:4 4.97097e-05
6 *98:5 8.55922656e-05
7 *98:3 *1814:A0 0.000193834297
8 *98:3 *1814:A1 0.000125408174

*RES
1 *98:5 *98:4 0.755941
2 *1812:B0 *98:5 7.66587
3 *1840:C *98:4 3.45483
4 *98:4 *98:3 3.35713
5 *98:3 *1269:Y 8.83090496
*END

*D_NET *99 0.00492853

*CONN
*I *1647:A0 I *C 54.36 36.93 *L 0.000211 *D AOI21XL
*I *1629:A0 I *C 52.76 38.31 *L 0.000211 *D AOI21XL
*I *1621:A0 I *C 46.76 47.19 *L 0.000211 *D AOI21XL
*I *1672:A1 I *C 47.9 48.165 *L 0.000212 *D AOI21XL
*I *1637:A0 I *C 44.76 48.57 *L 0.000211 *D AOI21XL
*I *1638:A0 I *C 39.36 48.57 *L 0.000211 *D AOI21XL
*I *1651:A0 I *C 34.16 30.09 *L 0.000211 *D AOI21XL
*I *1273:Y O *C 55.93 25.23 *L 0 *D INVX1

*CAP
1 *1273:Y 3.12914e-05
2 *1647:A0 5.76377e-05
3 *1629:A0 2.62266e-05
4 *1621:A0 0.00010347
5 *1637:A0 2.93852e-05
6 *1638:A0 0.000217198
7 *1651:A0 4.86407e-05
8 *99:8 0.000155684
9 *99:9 0.000483212
10 *99:10 6.59256e-05
11 *99:11 0.000428199
12 *99:12 0.00059485
13 *99:13 0.000130479
14 *99:14 0.000603497031
15 *99:15 0.000320198
16 *99:16 0.000490662
17 *99:17 0.000534652
18 *99:17 *743:7 0.000260233887
19 *99:15 *2098:A1 8.04662695e-05
20 *99:14 *730:7 9.60826855e-05
21 *99:14 *1672:B0 8.35657129e-05
22 *99:11 *91:40 2.21133e-05
23 *99:9 *91:40 5.69224e-05
24 *99:9 *91:37 7.92747793e-06

*RES
1 *99:17 *99:16 16.6913
2 *1651:A0 *99:17 13.7683
3 *1638:A0 *99:15 11.2066
4 *99:15 *99:14 2.6309
5 *1637:A0 *99:15 7.03661
6 *1621:A0 *99:13 5.44267
7 *1672:A1 *99:13 3.29991
8 *99:13 *99:14 3.91523
9 *99:14 *99:12 25.4906425
10 *99:12 *99:11 1.26994
11 *1629:A0 *99:12 6.80518
12 *99:10 *99:11 3.35708
13 *99:11 *99:9 11.34
14 *1647:A0 *99:10 4.43138
15 *99:8 *1273:Y 3.93507
16 *99:9 *99:8 10.0899
17 *99:16 *99:9 3.33647
*END

*D_NET *100 0.00119817

*CONN
*I *1860:A2 I *C 43.985 23.11 *L 0.000391 *D OAI32X1
*I *1275:Y O *C 52.335 28.68 *L 0 *D BUFX2

*CAP
1 *1275:Y 0.00011629
2 *1860:A2 0.000429748
3 *100:2 0.000546038164
4 *100:2 *1027:2 0.00010609627

*RES
1 *1860:A2 *100:2 21.7477074
2 *100:2 *1275:Y 9.32945
*END

*D_NET *101 0.000589728

*CONN
*I *1723:C I *C 41.7 19.855 *L 0.00021 *D AND3XL
*I *1719:B0 I *C 42.265 24.835 *L 0.00039 *D OAI2BB1X1
*I *1276:Y O *C 43.135 25.26 *L 0 *D BUFX2

*CAP
1 *1276:Y 1.94928e-05
2 *1719:B0 5.12005e-05
3 *1723:C 0.000182809
4 *101:3 6.08565e-05
5 *101:4 0.000275373457

*RES
1 *1723:C *101:4 16.7415142
2 *1719:B0 *101:4 10.9286
3 *101:4 *101:3 4.0224
4 *101:3 *1276:Y 3.71483
*END

*D_NET *102 0.000491142

*CONN
*I *1269:A I *C 45.7 21.185 *L 0.000395 *D INVX1
*I *1270:Y O *C 48.53 21.81 *L 0 *D INVX1
*I *1814:B0 I *C 46.94 21.63 *L 0.000392 *D AOI31X1

*CAP
1 *1270:Y 6.43725e-05
2 *1814:B0 2.56898e-05
3 *1269:A 4.00546e-05
4 *102:3 0.000130116943
5 *1269:A *123:13 6.31809e-05
6 *102:3 *123:13 5.19752702e-05
7 *102:3 *1243:A 0.000115752217

*RES
1 *1269:A *102:3 7.81752
2 *1814:B0 *102:3 10.104
3 *102:3 *1270:Y 11.7822886
*END

*D_NET *103 0.000255704

*CONN
*I *1864:A2 I *C 40.3 21.185 *L 0.000391 *D OAI31X1
*I *1277:Y O *C 41.135 21.84 *L 0 *D BUFX2

*CAP
1 *1277:Y 5.31668e-05
2 *1864:A2 5.14388e-05
3 *103:2 7.64131543e-05
4 *103:3 7.46852e-05

*RES
1 *103:3 *103:2 0.635009
2 *1864:A2 *103:3 4.36592102
3 *103:2 *1277:Y 4.22229
*END

*D_NET *104 0.00199521

*CONN
*I *1842:B I *C 39.775 18.185 *L 0.000392 *D NOR2X1
*I *1841:A I *C 38.5 17.765 *L 0.000392 *D NOR2X1
*I *1808:C0 I *C 39.9 14.345 *L 0.000392 *D AOI221X1
*I *1278:Y O *C 33.935 28.68 *L 0 *D BUFX2

*CAP
1 *1808:C0 0.000325328
2 *1842:B 7.11654e-05
3 *1841:A 3.80904e-05
4 *1278:Y 0.000398689
5 *104:4 0.000273587
6 *104:5 0.000888347656

*RES
1 *104:5 *1278:Y 25.3185043
2 *104:4 *104:5 6.04258
3 *1841:A *104:4 7.07679
4 *1842:B *104:4 7.89735
5 *1808:C0 *104:5 16.5697
*END

*D_NET *105 0.00406617

*CONN
*I *1639:A0 I *C 50.9 50.825 *L 0.000391 *D AOI21X1
*I *1659:A1 I *C 49.5 51.015 *L 0.000212 *D AOI21XL
*I *1640:A1 I *C 43.1 51.015 *L 0.000212 *D AOI21XL
*I *1638:A1 I *C 39.5 48.165 *L 0.000212 *D AOI21XL
*I *1642:A1 I *C 34.3 48.165 *L 0.000212 *D AOI21XL
*I *1643:A1 I *C 34.3 44.175 *L 0.000212 *D AOI21XL
*I *1644:A0 I *C 32.3 37.145 *L 0.000391 *D AOI21X1
*I *1645:A1 I *C 30.5 37.335 *L 0.000212 *D AOI21XL
*I *1279:Y O *C 50.735 38.94 *L 0 *D BUFX2

*CAP
1 *1639:A0 4.98295e-05
2 *1279:Y 5.30506e-05
3 *1659:A1 2.99838e-05
4 *1638:A1 5.45948e-05
5 *1642:A1 4.12483e-05
6 *1644:A0 1.68651e-05
7 *1645:A1 6.80109e-05
8 *105:9 0.000263513
9 *105:10 0.000103235
10 *105:11 0.000307381
11 *105:12 8.21358e-05
12 *105:13 0.000187459
13 *105:14 0.000391662
14 *105:15 0.000400838
15 *105:16 0.000259577
16 *105:17 0.000414729102
17 *105:18 0.000367342
18 *105:18 *1644:A1 8.36849219e-05
19 *105:16 *374:3 0.000180304043
20 *105:16 *429:8 0.000147581104
21 *1659:A1 *1659:B0 9.28640332e-05
22 *105:9 *1096:14 8.53538477e-05
23 *105:9 *1080:16 0.000119805332
24 *105:9 *692:7 0.000110983848
25 *1639:A0 *698:6 0.000154137607

*RES
1 *1645:A1 *105:18 8.22615
2 *105:18 *105:17 9.90701
3 *1644:A0 *105:18 6.75964
4 *105:17 *105:16 2.64585
5 *1643:A1 *105:17 3.29994
6 *105:16 *105:15 7.58379
7 *1642:A1 *105:16 4.05655
8 *105:15 *105:14 15.6964064
9 *1638:A1 *105:15 7.35961
10 *105:14 *105:13 8.58445
11 *1640:A1 *105:14 3.29994
12 *105:13 *105:12 0.747505
13 *1659:A1 *105:13 6.93113
14 *105:11 *105:10 4.55521
15 *105:12 *105:9 3.35719
16 *105:9 *105:11 8.51571
17 *105:10 *1279:Y 7.08034
18 *1639:A0 *105:12 7.2353
*END

*D_NET *106 0.00393194

*CONN
*I *1648:A1 I *C 54.5 33.915 *L 0.000212 *D AOI21XL
*I *1656:A1 I *C 27.3 23.655 *L 0.000212 *D AOI21XL
*I *1649:A0 I *C 54.5 34.675 *L 0.000391 *D AOI21X1
*I *1654:A1 I *C 26.3 23.655 *L 0.000212 *D AOI21XL
*I *1647:A1 I *C 54.5 37.335 *L 0.000212 *D AOI21XL
*I *1653:A1 I *C 27.3 27.075 *L 0.000212 *D AOI21XL
*I *1650:A1 I *C 49.7 37.905 *L 0.000212 *D AOI21XL
*I *1655:A0 I *C 34.3 26.885 *L 0.000391 *D AOI21X1
*I *1280:Y O *C 54.935 25.26 *L 0 *D BUFX2

*CAP
1 *1280:Y 2.69996e-05
2 *1648:A1 8.3449e-06
3 *1650:A1 7.02151e-05
4 *1655:A0 0.000110749
5 *1653:A1 4.89367e-05
6 *1656:A1 1.94291e-05
7 *1654:A1 5.07282e-05
8 *106:9 4.54809e-05
9 *106:10 9.70991e-05
10 *106:11 0.000192881
11 *106:12 0.000204508
12 *106:13 0.000280201
13 *106:14 0.0002839
14 *106:15 0.000416344
15 *106:16 0.000757455859
16 *106:17 0.000351723
17 *106:18 0.00013375
18 *106:16 *1903:A1 0.000163257119
19 *106:16 *1095:15 0.000217080117
20 *106:15 *1075:10 9.57250586e-05
21 *106:14 *721:8 0.000172019004
22 *106:13 *1649:A1 0.000185132031

*RES
1 *1654:A1 *106:18 4.37108
2 *1656:A1 *106:18 3.61522
3 *106:18 *106:17 1.20938
4 *106:17 *106:16 16.1503
5 *1653:A1 *106:17 4.26287
6 *1655:A0 *106:16 14.7968
7 *106:16 *106:15 15.0281
8 *1650:A1 *106:14 7.62129
9 *106:14 *106:13 21.1693039
10 *1648:A1 *106:12 3.34679
11 *106:12 *106:11 13.0002
12 *106:10 *106:12 0.568512
13 *106:13 *106:10 1.6868
14 *1647:A1 *106:13 3.29995
15 *1649:A0 *106:10 3.29995
16 *106:15 *106:11 3.39201
17 *106:11 *106:9 6.90515
18 *106:9 *1280:Y 3.71503
*END

*D_NET *107 0.000774622

*CONN
*I *1716:B I *C 54.3 16.435 *L 0.00021 *D OR2X1
*I *1713:A1N I *C 53.7 16.435 *L 0.00021 *D OAI2BB1X1
*I *1281:Y O *C 45.935 18.42 *L 0 *D BUFX2

*CAP
1 *1716:B 1.19201e-05
2 *1281:Y 0.000201938
3 *107:3 0.000185372
4 *107:4 0.000375390039

*RES
1 *107:4 *1281:Y 10.6619596
2 *1713:A1N *107:3 0.499942
3 *107:3 *107:4 10.0551
4 *1716:B *107:3 0.454715
*END

*D_NET *108 0.000125647

*CONN
*I *1273:A I *C 55.7 24.605 *L 0.000395 *D INVX1
*I *1274:Y O *C 56.1 23.465 *L 0 *D INVXL

*CAP
1 *1274:Y 1.61528e-05
2 *1273:A 4.66705e-05
3 *108:2 6.28232959e-05

*RES
1 *1273:A *108:2 4.26757336
2 *108:2 *1274:Y 3.64772
*END

*D_NET *109 0.00507134

*CONN
*I *1626:A0 I *C 33.96 23.25 *L 0.000211 *D AOI21XL
*I *1680:A1 I *C 34.1 20.235 *L 0.000212 *D AOI21XL
*I *1657:A0 I *C 26.16 21.21 *L 0.000211 *D AOI21XL
*I *1669:A1 I *C 26.9 33.915 *L 0.000212 *D AOI21XL
*I *1653:A0 I *C 27.16 26.67 *L 0.000211 *D AOI21XL
*I *1667:A0 I *C 35.96 48.57 *L 0.000211 *D AOI21XL
*I *1633:A0 I *C 29.56 48.57 *L 0.000211 *D AOI21XL
*I *1642:A0 I *C 34.16 48.57 *L 0.000211 *D AOI21XL
*I *1282:Y O *C 37.735 18.42 *L 0 *D BUFX2

*CAP
1 *1282:Y 4.22026e-05
2 *1667:A0 6.0264e-05
3 *1680:A1 1.90731e-05
4 *1642:A0 2.09842e-05
5 *1626:A0 7.39692e-05
6 *1633:A0 9.85226e-05
7 *1653:A0 7.14024e-05
8 *1669:A1 8.17821e-05
9 *1657:A0 7.92528e-06
10 *109:9 0.000481372
11 *109:10 0.000228943
12 *109:11 0.000613927852
13 *109:12 0.000262733
14 *109:13 0.000135123
15 *109:14 0.000333367
16 *109:15 0.000341836
17 *109:16 0.000234779
18 *109:17 0.000369069
19 *109:18 0.000483095
20 *1633:A0 *123:14 3.56436e-05
21 *1633:A0 *123:17 7.21812e-05
22 *109:14 *123:14 2.38419e-06
23 *109:12 *123:15 3.87430155e-05
24 *109:12 *400:7 0.000129103662
25 *109:11 *715:6 0.000179767617
26 *109:11 *1083:13 0.00015377998
27 *109:9 *404:7 0.000104784961
28 *1667:A0 *703:5 0.000241875645
29 *1667:A0 *379:3 0.0001527071

*RES
1 *109:18 *109:17 3.32238
2 *109:17 *109:16 9.31406
3 *1657:A0 *109:17 3.35728
4 *109:15 *109:18 12.2948
5 *1669:A1 *109:15 4.65325
6 *1653:A0 *109:18 4.98572
7 *1633:A0 *109:14 10.3427
8 *109:13 *109:12 1.18306
9 *109:16 *109:13 3.33621
10 *1626:A0 *109:13 4.5749
11 *109:14 *109:11 7.82849
12 *1642:A0 *109:14 6.80508
13 *1680:A1 *109:12 3.50179
14 *109:12 *109:10 21.5729485
15 *109:9 *109:16 3.70983
16 *109:11 *109:9 16.2113
17 *1667:A0 *109:14 8.22614
18 *109:10 *1282:Y 7.2126
*END

*D_NET *110 0.00134027

*CONN
*I *1720:A0 I *C 43.9 19.665 *L 0.000391 *D AOI32X1
*I *1722:B0 I *C 44.1 28.025 *L 0.00039 *D OAI211X1
*I *1719:A0N I *C 42.445 25.06 *L 0.000209 *D OAI2BB1X1
*I *1283:Y O *C 44.735 32.1 *L 0 *D BUFX2

*CAP
1 *1722:B0 5.12593e-05
2 *1283:Y 0.000147996
3 *1720:A0 0.000122369
4 *1719:A0N 9.3223e-05
5 *110:4 0.000248074
6 *110:5 0.000264406211
7 *110:5 *987:13 0.000170350078
8 *110:4 *929:6 0.000242590898

*RES
1 *1719:A0N *110:5 14.9872
2 *1720:A0 *110:5 14.7176
3 *110:5 *110:4 1.99196
4 *110:4 *1283:Y 16.2551403
5 *1722:B0 *110:4 10.3998
*END

*D_NET *111 0.00134397

*CONN
*I *1720:A1 I *C 44.1 19.855 *L 0.000391 *D AOI32X1
*I *1721:B0 I *C 42.665 26.465 *L 0.00039 *D OAI2BB1X1
*I *1722:C0 I *C 44.385 28.215 *L 0.000392 *D OAI211X1
*I *1284:Y O *C 44.935 28.68 *L 0 *D BUFX2

*CAP
1 *1284:Y 1.44866e-05
2 *1722:C0 2.21146e-05
3 *1720:A1 0.000268223
4 *1721:B0 4.88746e-05
5 *111:4 9.08401e-05
6 *111:5 0.000149489
7 *111:6 0.000368118281
8 *1720:A1 *929:6 0.000203609473
9 *111:4 *1056:3 9.25064063e-05
10 *1722:C0 *522:3 8.57114746e-05

*RES
1 *1721:B0 *111:6 10.8855
2 *111:6 *111:5 1.04319
3 *1720:A1 *111:6 19.7763443
4 *111:5 *111:4 4.58318
5 *1722:C0 *111:5 7.07212
6 *111:4 *1284:Y 3.55326
*END

*D_NET *112 0.00151473

*CONN
*I *1271:A I *C 46.7 19.855 *L 0.000395 *D INVX1
*I *1272:Y O *C 43.13 19.23 *L 0 *D INVX1
*I *1795:A I *C 51.7 16.435 *L 0.000392 *D NOR2X1
*I *1723:A I *C 42.54 19.4 *L 0.000212 *D AND3XL
*I *1791:A I *C 51.1 16.245 *L 0.00039 *D NAND2X1
*I *1707:A0 I *C 41.9 21.375 *L 0.000391 *D AOI32X1
*I *1787:A0 I *C 51.9 17.765 *L 0.000391 *D AOI22X1

*CAP
1 *1787:A0 1.81825e-05
2 *1791:A 3.44482e-05
3 *1271:A 3.03371e-05
4 *1272:Y 4.59552e-05
5 *1723:A 3.08725e-05
6 *1707:A0 8.69004e-05
7 *112:7 0.000348388
8 *112:8 8.13617e-05
9 *112:9 0.000433146953
10 *112:10 0.000221494
11 *112:9 *1240:A 8.65459473e-05
12 *112:7 *598:5 9.70959668e-05

*RES
1 *1707:A0 *112:10 11.578
2 *1723:A *1272:Y 6.95631
3 *112:10 *1272:Y 3.57243
4 *112:9 *112:10 6.1183
5 *1271:A *112:9 7.07199
6 *1791:A *112:8 3.91283
7 *112:8 *112:7 0.857882
8 *112:7 *112:9 16.6980019
9 *1795:A *112:8 6.60011
10 *1787:A0 *112:7 3.86518
*END

*D_NET *113 0.00204909

*CONN
*I *1782:B I *C 51.7 13.205 *L 0.000392 *D NAND2X1
*I *1781:A1 I *C 50.5 14.535 *L 0.000391 *D OAI22X1
*I *1774:A I *C 49.9 26.695 *L 0.000392 *D NOR2X1
*I *2254:AN I *C 44.5 26.505 *L 0.00021 *D NOR2BX1
*I *1775:A I *C 43.3 26.695 *L 0.000211 *D NAND2XL
*I *2253:B I *C 48.565 26.625 *L 0.000392 *D NOR2BX1
*I *1285:Y O *C 49.335 15 *L 0 *D BUFX2

*CAP
1 *1782:B 0.000108481
2 *1781:A1 2.61667e-05
3 *1774:A 4.97729e-05
4 *1285:Y 2.12786e-05
5 *2253:B 2.1576e-05
6 *2254:AN 2.43175e-05
7 *1775:A 5.5133e-05
8 *113:7 0.000184835
9 *113:8 0.000407339
10 *113:9 9.5369e-05
11 *113:10 0.000423729414
12 *113:11 8.44614e-05
13 *113:12 0.000192225
14 *113:13 0.000222924
15 *113:13 *986:7 0.000131487842

*RES
1 *1775:A *113:13 11.0717
2 *2254:AN *113:13 6.80503
3 *113:13 *113:12 3.31858
4 *2253:B *113:12 6.75908
5 *113:12 *113:11 0.51414
6 *113:10 *113:9 3.55842
7 *113:11 *113:8 3.35727
8 *113:8 *113:10 9.43434
9 *113:9 *1285:Y 6.83011
10 *1774:A *113:11 7.35527
11 *113:7 *113:9 0.967558
12 *1781:A1 *113:7 6.84981
13 *1782:B *113:7 15.3646469
*END

*D_NET *114 0.00243664

*CONN
*I *1833:B I *C 44.975 18.185 *L 0.000392 *D NOR2X1
*I *1838:AN I *C 40.7 17.955 *L 0.00021 *D NAND2BX1
*I *1841:B I *C 38.775 18.185 *L 0.000392 *D NOR2X1
*I *1286:Y O *C 44.935 42.36 *L 0 *D BUFX2

*CAP
1 *1833:B 4.23782e-05
2 *1286:Y 4.97682e-05
3 *1838:AN 3.06379e-05
4 *1841:B 0.0001238
5 *114:4 0.000508189219
6 *114:5 0.00019884
7 *114:6 0.000374673
8 *114:7 0.000160393
9 *114:8 0.000256898
10 *114:8 *929:8 8.97645996e-05
11 *114:7 *987:13 0.000149965283
12 *114:4 *117:15 0.000319123262
13 *114:4 *1734:B0 0.000132203105

*RES
1 *1841:B *114:8 12.6936436
2 *1838:AN *114:8 7.44446
3 *114:8 *114:7 6.59261
4 *114:7 *114:6 3.55847
5 *114:5 *1286:Y 4.50948
6 *1833:B *114:7 7.35827
7 *114:6 *114:4 12.3332
8 *114:4 *114:5 10.5431
*END

*D_NET *115 0.00095892

*CONN
*I *1245:A I *C 42.3 9.595 *L 0.000395 *D INVX1
*I *1246:Y O *C 41.13 18.39 *L 0 *D INVX1
*I *1807:B1 I *C 42.5 10.925 *L 0.000392 *D AOI221X1
*I *1828:A I *C 42.1 12.825 *L 0.00039 *D NAND2X1

*CAP
1 *1807:B1 4.81007e-05
2 *1245:A 0.000105442
3 *1828:A 2.09222e-05
4 *1246:Y 0.000275614
5 *115:4 0.000325918203
6 *115:5 0.000182929

*RES
1 *115:5 *115:4 0.491553
2 *115:4 *1246:Y 24.8568058
3 *1828:A *115:4 3.50421
4 *1245:A *115:5 5.67638
5 *1807:B1 *115:5 4.38112
*END

*D_NET *116 0.000907958

*CONN
*I *1861:A1 I *C 48.9 21.375 *L 0.000391 *D OAI211X1
*I *1287:Y O *C 38.735 21.84 *L 0 *D BUFX2

*CAP
1 *1287:Y 0.00030058623
2 *1861:A1 0.00030058623
3 *1861:A1 *402:5 0.000169396406
4 *1861:A1 *404:6 0.000137388711

*RES
1 *1861:A1 *1287:Y 35.6008
*END

*D_NET *117 0.00511825

*CONN
*I *1831:B0 I *C 40.595 9.23 *L 0.000393 *D OAI21X1
*I *1808:B0 I *C 39.7 14.345 *L 0.00039 *D AOI221X1
*I *1902:A1 I *C 40.9 23.085 *L 0.000391 *D OAI22X1
*I *1875:B1 I *C 42.3 36.765 *L 0.00039 *D OAI221X1
*I *1885:B1 I *C 48.9 35.245 *L 0.00021 *D OA22X1
*I *1895:B1 I *C 47.7 35.245 *L 0.000392 *D OAI22X1
*I *1891:B1 I *C 50.3 35.245 *L 0.00021 *D OA22X1
*I *1888:B1 I *C 50.1 36.575 *L 0.00021 *D OA22X1
*I *1899:B1 I *C 48.7 36.575 *L 0.000392 *D OAI22X1
*I *1288:Y O *C 46.935 8.16 *L 0 *D BUFX2

*CAP
1 *1891:B1 4.54197e-05
2 *1885:B1 6.78296e-05
3 *1895:B1 5.42394e-05
4 *1875:B1 0.000124868
5 *1288:Y 0.000160811
6 *1902:A1 0.000111343
7 *1831:B0 5.23898e-05
8 *1808:B0 0.0001083
9 *117:10 0.000118848
10 *117:11 0.000150921
11 *117:12 0.000102937
12 *117:13 0.000103237
13 *117:14 6.16879e-05
14 *117:15 0.000354109
15 *117:16 0.000453354
16 *117:17 0.000185907
17 *117:18 0.000195919
18 *117:19 0.000392795
19 *117:20 0.00020963
20 *117:21 0.000259578
21 *117:22 0.000468015664
22 *117:19 *932:7 0.000147461895
23 *117:19 *1833:A 0.000122189521
24 *117:19 *943:4 0.000107884404
25 *117:15 *698:8 0.000104069707
26 *117:15 *1718:A1 0.000168085098
27 *117:15 *114:4 0.000319123262
28 *117:13 *1015:9 0.000142455098
29 *117:10 *700:8 9.69171484e-05
30 *1891:B1 *1891:A1 0.000127911572

*RES
1 *1808:B0 *117:22 8.93965
2 *1831:B0 *117:21 14.3489838
3 *117:20 *117:19 8.58255
4 *1902:A1 *117:20 5.37124
5 *117:18 *1288:Y 10.8412
6 *117:21 *117:18 4.25394
7 *117:22 *117:21 8.30864
8 *1875:B1 *117:17 9.3828
9 *117:19 *117:22 8.29813
10 *117:16 *117:19 8.57861
11 *117:17 *117:15 3.35713
12 *117:15 *117:16 13.3197
13 *1895:B1 *117:14 4.57492
14 *117:14 *117:13 3.35713
15 *117:13 *117:17 1.72356
16 *1899:B1 *117:12 3.29999
17 *117:12 *117:11 3.78518
18 *117:11 *117:13 0.816458
19 *1885:B1 *117:12 4.63798
20 *117:10 *117:11 4.88802
21 *1888:B1 *117:10 3.29999
22 *1891:B1 *117:10 4.63798
*END

*D_NET *118 0.000349164

*CONN
*I *1267:A I *C 43.7 10.925 *L 0.000395 *D INVX1
*I *1268:Y O *C 43.53 8.97 *L 0 *D INVX1
*I *1821:A0N I *C 43.645 12.56 *L 0.000209 *D OAI2BB1X1
*I *1807:C0 I *C 42.9 10.925 *L 0.000392 *D AOI221X1

*CAP
1 *1267:A 1.16233e-05
2 *1821:A0N 5.86514e-05
3 *1268:Y 1.72857e-05
4 *118:4 7.42081e-05
5 *118:5 3.64179e-05
6 *118:6 7.14661e-05
7 *118:7 7.95125977e-05

*RES
1 *118:7 *1268:Y 0.485317
2 *118:6 *118:7 4.19918
3 *1807:C0 *118:6 3.2999
4 *118:5 *118:6 0.241898
5 *118:4 *118:5 0.45736
6 *1821:A0N *118:4 7.66587257
7 *1267:A *118:5 3.58636
*END

*D_NET *119 0.000774384

*CONN
*I *1263:A I *C 39.7 10.925 *L 0.000395 *D INVX1
*I *1264:Y O *C 45.13 8.13 *L 0 *D INVX1
*I *1820:B0 I *C 39.2 10.92 *L 0.000392 *D AOI21X1
*I *1807:B0 I *C 42.7 10.925 *L 0.00039 *D AOI221X1

*CAP
1 *1264:Y 2.05632e-05
2 *1263:A 8.82156e-06
3 *1820:B0 2.32434e-05
4 *119:4 0.000215771
5 *119:5 0.000334560859
6 *119:6 0.000171423

*RES
1 *1820:B0 *119:6 3.68934
2 *119:6 *119:5 8.96728039
3 *1263:A *119:6 3.35712
4 *119:5 *119:4 8.06065
5 *1807:B0 *119:5 3.29993
6 *119:4 *1264:Y 0.774183
*END

*D_NET *120 0.00431454

*CONN
*I *1174:A I *C 30.365 53.635 *L 0.00021 *D CLKBUFX2
*I *1289:Y O *C 6.335 15 *L 0 *D BUFX2

*CAP
1 *1174:A 5.47757e-05
2 *1289:Y 0.000115633
3 *120:2 0.000264467
4 *120:3 0.000498655
5 *120:4 0.000216308
6 *120:5 0.000701665859
7 *120:6 0.000215527
8 *120:7 0.000178513
9 *120:8 0.000288247
10 *120:7 *375:9 9.77516211e-05
11 *120:7 *314:4 0.000268220898
12 *120:5 *11:2 0.000184178359
13 *120:3 *367:4 0.000235676758
14 *120:3 *317:4 0.000185608867
15 *120:2 *384:5 0.000270485879
16 *120:2 *382:4 0.000156879424
17 *120:2 *338:3 0.000381946563

*RES
1 *120:8 *1289:Y 9.64032
2 *120:7 *120:8 7.87692
3 *120:6 *120:7 3.34694
4 *120:5 *120:6 9.82344
5 *120:4 *120:3 3.35706
6 *120:3 *120:5 19.514679
7 *1174:A *120:2 14.1902
8 *120:2 *120:4 9.58553
*END

*D_NET *121 0.0074594

*CONN
*I *1943:C0 I *C 29.785 35.055 *L 0.000392 *D OAI211X1
*I *1963:C0 I *C 29.385 31.635 *L 0.000392 *D OAI211X1
*I *2010:C0 I *C 29.985 28.215 *L 0.000392 *D OAI211X1
*I *2015:C0 I *C 20.785 29.925 *L 0.000392 *D OAI211X1
*I *2011:C0 I *C 27.585 21.375 *L 0.000392 *D OAI211X1
*I *1959:C0 I *C 17.585 24.795 *L 0.000392 *D OAI211X1
*I *1945:C0 I *C 21.185 31.635 *L 0.000392 *D OAI211X1
*I *1937:C0 I *C 22.785 35.055 *L 0.000392 *D OAI211X1
*I *2009:C0 I *C 16.785 23.085 *L 0.000392 *D OAI211X1
*I *1948:C0 I *C 18.585 21.375 *L 0.000392 *D OAI211X1
*I *2008:C0 I *C 30.585 21.375 *L 0.000392 *D OAI211X1
*I *2018:C0 I *C 32.385 16.245 *L 0.000392 *D OAI211X1
*I *2019:C0 I *C 35.985 14.535 *L 0.000392 *D OAI211X1
*I *2021:C0 I *C 31.785 9.405 *L 0.000392 *D OAI211X1
*I *2025:C0 I *C 27.385 12.825 *L 0.000392 *D OAI211X1
*I *2027:C0 I *C 37.585 9.405 *L 0.000392 *D OAI211X1
*I *2024:C0 I *C 40.785 7.695 *L 0.000392 *D OAI211X1
*I *1960:C0 I *C 25.985 14.535 *L 0.000392 *D OAI211X1
*I *2016:C0 I *C 22.785 19.665 *L 0.000392 *D OAI211X1
*I *2013:C0 I *C 21.185 19.665 *L 0.000392 *D OAI211X1
*I *1262:Y O *C 26.335 35.52 *L 0 *D BUFX2

*CAP
1 *2024:C0 6.19315e-05
2 *2019:C0 0.000142994
3 *2018:C0 0.000129222
4 *2021:C0 5.77596e-05
5 *2008:C0 5.17972e-05
6 *2010:C0 5.5254e-05
7 *2011:C0 8.41587e-05
8 *2025:C0 2.36013e-05
9 *1262:Y 1.91931e-05
10 *1937:C0 1.99703e-05
11 *2016:C0 2.04428e-05
12 *2013:C0 2.34831e-05
13 *2015:C0 2.14003e-05
14 *1959:C0 6.19875e-06
15 *2009:C0 8.06459e-05
16 *121:21 0.000228402
17 *121:22 0.000243902
18 *121:23 0.000316261
19 *121:24 0.00034529
20 *121:25 0.000230554
21 *121:26 0.000156162
22 *121:27 0.000173627
23 *121:28 0.000303446
24 *121:29 0.000263873
25 *121:30 0.000160216
26 *121:31 8.89896e-05
27 *121:32 0.000259042
28 *121:33 0.000407457344
29 *121:34 0.000281275
30 *121:35 0.000312922
31 *121:36 0.00024384
32 *121:37 0.000330449
33 *121:38 0.000197353
34 *121:39 0.000212846
35 *121:40 0.000285565
36 *121:41 0.000401078
37 *121:42 0.000385585
38 *121:43 0.000251115
39 *121:38 *333:4 0.000183701523
40 *121:37 *2081:A0 8.70227832e-05
41 *121:33 *2034:A0 0.000105261807
42 *121:26 *728:6 9.69171484e-05
43 *121:24 *455:3 0.000109195713

*RES
1 *2009:C0 *121:43 11.0271
2 *121:43 *121:42 0.415025
3 *121:42 *121:41 15.0022507
4 *1959:C0 *121:42 3.43145
5 *121:40 *121:43 2.91799
6 *1948:C0 *121:40 3.30006
7 *2015:C0 *121:41 3.77872
8 *121:39 *121:40 6.1013
9 *121:41 *121:38 0.635013
10 *121:38 *121:37 7.19346
11 *2013:C0 *121:39 6.75921
12 *1945:C0 *121:38 3.30006
13 *121:36 *121:39 1.27003
14 *121:37 *121:35 3.04642
15 *2016:C0 *121:36 6.82536
16 *1937:C0 *121:37 6.75921
17 *121:34 *121:33 3.86159
18 *121:33 *121:36 7.35599
19 *1960:C0 *121:34 3.30006
20 *121:35 *1262:Y 6.81209
21 *121:32 *121:34 5.16481
22 *2025:C0 *121:32 6.82536
23 *121:31 *121:30 3.33622
24 *121:30 *121:33 4.52819
25 *2011:C0 *121:31 4.65318
26 *121:29 *121:28 3.00201
27 *1963:C0 *121:29 3.30006
28 *121:28 *121:35 6.22217
29 *1943:C0 *121:28 3.30006
30 *121:27 *121:29 2.60049
31 *2010:C0 *121:27 4.22236
32 *121:26 *121:30 5.9841
33 *2008:C0 *121:26 4.28783
34 *2021:C0 *121:25 7.72913
35 *121:25 *121:24 5.11559
36 *121:24 *121:32 7.41093
37 *2018:C0 *121:24 6.0134
38 *121:23 *121:25 2.6307
39 *2019:C0 *121:23 12.8685
40 *121:22 *121:23 5.33627
41 *2027:C0 *121:22 3.30006
42 *121:21 *121:22 10.0366
43 *2024:C0 *121:21 4.29493
*END

*D_NET *122 0.0146965

*CONN
*I *1261:A I *C 67.545 28.22 *L 0.000389 *D BUFX3
*I *1262:A I *C 26.7 35.055 *L 0.00021 *D BUFX2
*I *2033:C0 I *C 25.585 40.185 *L 0.000392 *D OAI211X1
*I *2032:C0 I *C 30.985 41.895 *L 0.000392 *D OAI211X1
*I *2031:C0 I *C 26.985 41.895 *L 0.000392 *D OAI211X1
*I *2030:C0 I *C 32.785 40.185 *L 0.000392 *D OAI211X1
*I *2029:C0 I *C 26.385 48.735 *L 0.000392 *D OAI211X1
*I *2028:C0 I *C 31.185 48.735 *L 0.000392 *D OAI211X1
*I *2026:C0 I *C 31.385 53.865 *L 0.000392 *D OAI211X1
*I *2023:C0 I *C 33.385 53.865 *L 0.000392 *D OAI211X1
*I *2020:C0 I *C 37.585 52.155 *L 0.000392 *D OAI211X1
*I *2017:C0 I *C 62.785 31.635 *L 0.000392 *D OAI211X1
*I *2006:C0 I *C 62.785 23.085 *L 0.000392 *D OAI211X1
*I *2005:C0 I *C 62.585 24.795 *L 0.000392 *D OAI211X1
*I *2003:C0 I *C 62.585 29.925 *L 0.000392 *D OAI211X1
*I *1966:C0 I *C 62.585 26.505 *L 0.000392 *D OAI211X1
*I *1964:C0 I *C 63.985 17.955 *L 0.000392 *D OAI211X1
*I *1958:C0 I *C 47.185 38.475 *L 0.000392 *D OAI211X1
*I *1957:C0 I *C 61.785 40.185 *L 0.000392 *D OAI211X1
*I *1956:C0 I *C 62.185 36.765 *L 0.000392 *D OAI211X1
*I *1955:C0 I *C 41.985 40.185 *L 0.000392 *D OAI211X1
*I *1954:C0 I *C 62.585 35.055 *L 0.000392 *D OAI211X1
*I *1953:C0 I *C 37.385 41.895 *L 0.000392 *D OAI211X1
*I *1950:C0 I *C 55.185 38.475 *L 0.000392 *D OAI211X1
*I *1947:C0 I *C 58.985 38.475 *L 0.000392 *D OAI211X1
*I *1946:C0 I *C 53.785 41.895 *L 0.000392 *D OAI211X1
*I *1942:C0 I *C 39.385 40.185 *L 0.000392 *D OAI211X1
*I *1939:C0 I *C 37.785 47.025 *L 0.000392 *D OAI211X1
*I *1938:C0 I *C 38.385 45.315 *L 0.000392 *D OAI211X1
*I *1936:C0 I *C 62.585 33.345 *L 0.000392 *D OAI211X1
*I *1801:A I *C 54.7 12.635 *L 0.000392 *D NAND3X1
*I *1800:A0 I *C 57.265 10.97 *L 0.000788 *D AOI21X2
*I *1784:C0 I *C 53.15 11.18 *L 0.000393 *D OAI221X1
*I *1778:B0 I *C 51.7 9.595 *L 0.00039 *D OAI211X1
*I *1762:B0 I *C 53.5 9.595 *L 0.00039 *D OAI211X1
*I *1706:B0 I *C 56.5 16.435 *L 0.00039 *D OAI211X1
*I *1705:B0 I *C 56.9 14.345 *L 0.00039 *D OAI211X1
*I *1686:B0 I *C 57.1 17.765 *L 0.00039 *D OAI211X1
*I *1479:A I *C 67.5 21.565 *L 0.000211 *D AND2XL
*I *1472:A I *C 67.5 19.475 *L 0.000211 *D AND2XL
*I *1464:A I *C 66.7 19.475 *L 0.000211 *D AND2XL
*I *1457:A I *C 66.7 18.145 *L 0.000211 *D AND2XL
*I *1456:A I *C 63.7 12.635 *L 0.000211 *D AND2XL
*I *1455:A I *C 63.1 7.885 *L 0.000211 *D AND2XL
*I *1441:A I *C 63.9 16.055 *L 0.000211 *D AND2XL
*I *1440:A I *C 63.5 11.305 *L 0.000211 *D AND2XL
*I *1437:A I *C 63.9 7.885 *L 0.000211 *D AND2XL
*I *1434:A I *C 67.5 24.985 *L 0.000211 *D AND2XL
*I *1433:A I *C 65.3 16.055 *L 0.000211 *D AND2XL
*I *1430:A I *C 67.5 22.895 *L 0.000211 *D AND2XL
*I *1425:A I *C 68.3 22.895 *L 0.000211 *D AND2XL
*I *1424:A I *C 63.7 14.725 *L 0.000211 *D AND2XL
*I *1422:A I *C 63.1 9.215 *L 0.000211 *D AND2XL
*I *1421:A I *C 68.3 24.985 *L 0.000211 *D AND2XL
*I *1290:Y O *C 58.765 9.735 *L 0 *D CLKINVX6

*CAP
1 *1434:A 4.98319e-05
2 *1430:A 2.15171e-05
3 *1261:A 5.58539e-05
4 *1464:A 3.31428e-05
5 *1433:A 2.05672e-05
6 *1964:C0 3.95221e-05
7 *1437:A 8.16587e-05
8 *1455:A 3.51037e-05
9 *2006:C0 1.77e-05
10 *1957:C0 0.000102165
11 *1947:C0 2.17524e-05
12 *1290:Y 2.05672e-05
13 *1686:B0 3.54087e-05
14 *1800:A0 2.42623e-05
15 *1705:B0 3.85025e-05
16 *1706:B0 3.82062e-05
17 *1801:A 4.70257e-05
18 *1946:C0 2.3844e-05
19 *1784:C0 8.42209e-05
20 *1778:B0 8.85696e-05
21 *1958:C0 0.000177444
22 *1942:C0 5.88256e-05
23 *1939:C0 1.84756e-05
24 *2020:C0 0.000145914
25 *2023:C0 0.00011963
26 *2030:C0 6.94404e-05
27 *2028:C0 3.94001e-05
28 *2032:C0 2.16391e-05
29 *2031:C0 2.17524e-05
30 *1262:A 0.000136014
31 *2029:C0 3.54087e-05
32 *2033:C0 6.09782e-05
33 *122:55 0.000111995
34 *122:56 0.000123142
35 *122:57 0.000137809
36 *122:58 8.9232e-05
37 *122:59 9.75111e-05
38 *122:60 0.000123978
39 *122:61 9.29794e-05
40 *122:62 0.000106453
41 *122:63 0.000121172
42 *122:64 0.000179466
43 *122:65 0.000109668
44 *122:66 8.17197e-05
45 *122:67 0.00014377
46 *122:68 0.000126602
47 *122:69 0.000103716
48 *122:70 0.000230492
49 *122:71 4.7383e-05
50 *122:72 0.000133338
51 *122:73 0.000157714
52 *122:74 0.0001418
53 *122:75 0.000188887
54 *122:76 0.000237107
55 *122:77 0.000117895
56 *122:78 0.000474091
57 *122:79 0.000150088
58 *122:80 0.000158908
59 *122:81 0.000184059
60 *122:82 0.000501927
61 *122:83 7.57587e-05
62 *122:84 0.000208618
63 *122:85 0.000231625
64 *122:86 0.000263992
65 *122:87 0.000112239
66 *122:88 0.000221132
67 *122:89 0.000161174
68 *122:90 0.000211354
69 *122:91 0.000251948
70 *122:92 9.88881e-05
71 *122:93 0.000146271
72 *122:94 0.000435528
73 *122:95 0.000571131719
74 *122:96 0.000260297
75 *122:97 0.000289858
76 *122:98 0.000169217
77 *122:99 0.000177619
78 *122:100 0.000245455
79 *122:101 0.000174995
80 *122:102 0.000232218
81 *122:103 0.000255704
82 *122:104 0.000305597
83 *122:105 0.000531915
84 *122:106 0.000371037
85 *122:107 0.000207964
86 *122:108 0.000292716
87 *122:109 0.000221254
88 *122:110 7.67086e-05
89 *122:111 0.000291165
90 *122:109 *1400:D 0.000105738643
91 *1262:A *326:5 0.000207662578
92 *1262:A *369:3 0.000198721895
93 *122:94 *420:6 0.000231504434
94 *1946:C0 *2065:A0 8.8810918e-05
95 *122:87 *1919:A 0.000300049785
96 *1800:A0 *1686:A1 0.000127315518
97 *122:70 *1163:7 8.60691113e-05

*RES
1 *2033:C0 *122:111 4.40368
2 *122:111 *122:110 4.15282
3 *122:109 *122:111 4.32782
4 *2029:C0 *122:109 4.94047
5 *1262:A *122:108 18.4918
6 *122:110 *122:108 0.21157
7 *2031:C0 *122:110 6.75907
8 *122:108 *122:107 3.16751
9 *122:107 *122:106 0.967481
10 *2032:C0 *122:107 6.81196
11 *2028:C0 *122:105 3.85934
12 *122:105 *122:106 10.3355
13 *122:104 *122:105 4.16703
14 *2026:C0 *122:104 3.29989
15 *122:106 *122:103 0.514116
16 *122:103 *122:102 3.772
17 *2030:C0 *122:103 7.51891
18 *2023:C0 *122:104 12.207
19 *122:101 *122:102 3.33616
20 *122:102 *122:100 1.27003
21 *1953:C0 *122:101 3.29989
22 *122:99 *122:98 0.703018
23 *2020:C0 *122:99 5.94573
24 *122:98 *122:97 2.75918
25 *1939:C0 *122:98 3.64777
26 *122:97 *122:101 3.91163
27 *1938:C0 *122:97 3.29989
28 *122:100 *122:96 6.29059
29 *1942:C0 *122:100 7.69118
30 *122:96 *122:95 6.59253
31 *1955:C0 *122:96 3.29989
32 *122:95 *122:94 9.28763
33 *1958:C0 *122:95 9.85857
34 *1778:B0 *122:93 8.27119
35 *1784:C0 *122:92 4.93775
36 *122:92 *122:93 3.43741
37 *122:93 *122:91 0.967481
38 *1762:B0 *122:92 3.29989
39 *122:94 *122:90 3.3413
40 *1946:C0 *122:94 3.93491
41 *122:91 *122:89 5.39807
42 *122:88 *122:91 9.20754
43 *1801:A *122:88 6.94162
44 *122:90 *122:87 6.20052
45 *1950:C0 *122:90 3.29989
46 *122:86 *122:88 1.33259
47 *122:85 *122:86 10.4316
48 *1706:B0 *122:85 7.13808
49 *122:89 *122:84 4.30394
50 *122:83 *122:86 4.01863
51 *1705:B0 *122:83 4.3659
52 *1800:A0 *122:89 3.85572
53 *122:82 *122:85 0.45004
54 *1686:B0 *122:82 7.22573
55 *122:84 *1290:Y 6.81196
56 *122:87 *122:81 5.66464
57 *1947:C0 *122:87 6.75907
58 *1957:C0 *122:81 5.39021
59 *122:81 *122:80 0.941186
60 *122:80 *122:79 2.4116
61 *1956:C0 *122:80 3.29989
62 *122:78 *122:82 19.8078156
63 *122:77 *122:78 0.41498
64 *122:76 *122:77 1.92771
65 *122:75 *122:76 2.64584
66 *122:74 *122:73 2.1695
67 *122:79 *122:74 0.778579
68 *2005:C0 *122:77 3.29989
69 *1966:C0 *122:76 3.29989
70 *2003:C0 *122:75 3.29989
71 *1936:C0 *122:74 3.29989
72 *1954:C0 *122:79 3.29989
73 *122:73 *122:75 1.02068
74 *2006:C0 *122:78 3.69311
75 *2017:C0 *122:73 3.29989
76 *1455:A *122:72 3.86871
77 *1422:A *122:71 3.29989
78 *122:72 *122:71 0.411958
79 *122:71 *122:70 0.701204
80 *122:70 *122:84 7.73592
81 *1440:A *122:69 3.29989
82 *122:69 *122:70 1.20565
83 *1456:A *122:68 3.29989
84 *1424:A *122:67 3.29989
85 *122:68 *122:69 1.27758
86 *122:67 *122:68 1.64058
87 *1437:A *122:72 11.2165
88 *1441:A *122:66 3.29989
89 *122:66 *122:67 1.31536
90 *122:65 *122:66 0.268392
91 *1964:C0 *122:65 4.14436
92 *1433:A *122:64 6.92953
93 *122:64 *122:65 4.45507
94 *1457:A *122:63 3.29989
95 *1464:A *122:62 7.23963
96 *122:63 *122:64 5.74051
97 *122:62 *122:63 0.461223
98 *1261:A *122:61 4.48741
99 *1472:A *122:60 3.29989
100 *1479:A *122:59 3.29989
101 *1430:A *122:58 3.62541
102 *1434:A *122:57 4.26767
103 *122:60 *122:62 1.20958
104 *122:59 *122:60 1.64058
105 *122:58 *122:59 0.748354
106 *122:61 *122:57 0.786135
107 *122:57 *122:56 1.27003
108 *1425:A *122:55 3.29989
109 *1421:A *122:56 3.29989
110 *122:55 *122:58 0.922144
111 *122:56 *122:55 1.64058
*END

*D_NET *123 0.0106661

*CONN
*P *123 I *C 0 0.095 *L 0
*I *1260:A I *C 34.9 14.535 *L 0.000389 *D CLKBUFX3
*I *1259:A I *C 23.03 14.54 *L 0.000389 *D CLKBUFX4
*I *1258:A I *C 16.23 31.64 *L 0.000389 *D CLKBUFX4
*I *1257:A I *C 56.83 21.38 *L 0.000389 *D CLKBUFX4
*I *1256:A I *C 32.43 48.74 *L 0.000389 *D CLKBUFX4
*I *1255:A I *C 16.83 43.6 *L 0.000389 *D CLKBUFX4
*I *1254:A I *C 35.3 52.155 *L 0.000389 *D CLKBUFX3
*I *1253:A I *C 16.03 50.44 *L 0.000389 *D CLKBUFX4
*I *1252:A I *C 40.43 52.16 *L 0.000389 *D CLKBUFX4
*I *1251:A I *C 6.03 9.4 *L 0.000389 *D CLKBUFX4
*I *1250:A I *C 14.23 47.02 *L 0.000389 *D CLKBUFX4
*I *1249:A I *C 6.83 29.92 *L 0.000389 *D CLKBUFX4

*CAP
1 *1257:A 2.68198e-05
2 *1252:A 0.00016719
3 *1254:A 2.10351e-05
4 *1260:A 2.65831e-05
5 *1256:A 1.50138e-05
6 *1259:A 2.26522e-05
7 *1255:A 6.93238e-05
8 *1258:A 4.59617e-05
9 *1253:A 5.71629e-05
10 *1250:A 7.08752e-05
11 *1249:A 2.89627e-05
12 *1251:A 1.61576e-05
13 *123 0.00031245
14 *123:13 0.000663816
15 *123:14 0.000362816
16 *123:15 0.000861585156
17 *123:16 0.000594742
18 *123:17 0.000538644
19 *123:18 0.000678593
20 *123:19 0.000353456
21 *123:20 0.000103348
22 *123:21 0.000441317
23 *123:22 0.00058425
24 *123:23 9.51839e-05
25 *123:24 7.46221e-05
26 *123:25 0.000384325
27 *123:26 0.000525352
28 *123:27 0.000316565
29 *123:28 0.000267803
30 *123:29 0.000472015
31 *123:29 *85:36 9.41753e-06
32 *1251:A *85:41 5.36442e-07
33 *1251:A *1293:CK 2.92063e-06
34 *123:26 *85:36 2.36034e-05
35 *123:18 *1297:CK 5.34654e-05
36 *123:18 *85:26 6.1214e-05
37 *123:18 *85:35 3.99946961e-05
38 *123:29 *182:3 5.36442e-07
39 *123:29 *182:4 9.47117772e-05
40 *123:29 *183:2 0.000101268
41 *123:26 *183:2 1.63915674e-05
42 *1249:A *83:46 7.62939e-06
43 *1249:A *83:48 4.76837e-07
44 *123:25 *83:55 3.64184e-05
45 *123:22 *1376:CK 6.13332e-05
46 *123:22 *83:33 7.08699e-05
47 *123:22 *83:42 9.17911e-06
48 *123:22 *83:46 3.90410867e-05
49 *1250:A *87:33 2.41995e-05
50 *1250:A *1371:CK 4.62532e-05
51 *1253:A *87:34 6.91414e-06
52 *1253:A *87:41 4.76837e-07
53 *1253:A *87:43 3.54052e-05
54 *123:23 *87:47 4.14252e-05
55 *123:20 *87:47 3.57628e-06
56 *123:17 *1364:CK 5.18557879e-06
57 *123:22 *1376:D 0.000143945215
58 *123:21 *89:45 2.95639e-05
59 *123:21 *89:46 4.67896e-05
60 *123:20 *89:45 1.15633e-05
61 *123:20 *1381:CK 3.37958e-05
62 *1255:A *89:42 4.11280584e-06
63 *123:18 *93:30 1.10269e-05
64 *123:18 *93:38 3.33786e-06
65 *123:18 *93:41 4.33922e-05
66 *123:18 *93:42 6.1214e-05
67 *123:16 *93:23 4.51803e-05
68 *123:16 *93:27 1.22786e-05
69 *123:16 *93:30 3.06962849e-05
70 *123:17 *1633:A0 7.21812e-05
71 *123:15 *109:12 3.8743e-05
72 *123:14 *109:14 2.38419e-06
73 *123:14 *1633:A0 3.5643614e-05
74 *123:17 *373:3 6.86646e-05
75 *123:17 *373:5 0.000101805
76 *123:14 *373:3 2.14573538e-05
77 *123:17 *315:2 0.000151991846
78 *123:13 *673:16 4.00543e-05
79 *123:13 *673:19 3.31998e-05
80 *123:13 *673:20 6.27636991e-05
81 *123:13 *1695:A 3.74317e-05
82 *123:13 *980:7 9.60827031e-05
83 *123:13 *1814:A1 0.000137388711
84 *123:13 *102:3 5.19752e-05
85 *123:13 *1269:A 6.31809726e-05
86 *123:13 *1864:A0 0.000183165078

*RES
1 *123:29 *123 18.1715488
2 *1251:A *123:29 6.75915
3 *1249:A *123:28 6.94631
4 *123:27 *123:26 3.33618
5 *123:26 *123:29 7.94284
6 *123:28 *123:25 3.35726
7 *123:25 *123:26 11.5358
8 *1250:A *123:24 8.30691
9 *1253:A *123:23 11.3788
10 *123:22 *123:28 11.6461
11 *123:21 *123:22 9.02977
12 *123:24 *123:20 3.33618
13 *123:20 *123:21 2.48716
14 *123:19 *123:23 3.33618
15 *123:23 *123:20 1.33813
16 *1258:A *123:22 10.3091
17 *1255:A *123:21 10.6097
18 *123:18 *123:27 12.1558
19 *1259:A *123:18 6.82542
20 *123:17 *123:19 12.3069
21 *1256:A *123:17 6.78854
22 *123:16 *123:18 9.03476
23 *1260:A *123:16 6.84982
24 *123:15 *123:16 11.8455
25 *123:14 *123:17 11.4465
26 *1254:A *123:14 6.82542
27 *1252:A *123:14 10.6901
28 *123:13 *123:15 16.5401
29 *1257:A *123:13 6.84982
*END

*D_NET *124 0.0017193

*CONN
*I *1164:A I *C 32.34 5.9 *L 0.00021 *D DLY1X1
*P *124 I *C 0 1.045 *L 0

*CAP
1 *1164:A 0.000752573
2 *124 4.70229e-05
3 *124:2 0.000799596328
4 *1164:A *1165:A 0.000120103359

*RES
1 *124:2 *124 1.66319
2 *1164:A *124:2 49.6350517
*END

*D_NET *125 0.00142622

*CONN
*P *125 I *C 0 73.435 *L 0
*I *1354:D I *C 17.97 60.635 *L 0.00021 *D DFFQXL

*CAP
1 *125 0.000361442
2 *1354:D 8.97614e-05
3 *125:2 0.000623345391
4 *125:3 0.000351664

*RES
1 *1354:D *125:3 5.33952
2 *125:3 *125:2 7.99418
3 *125:2 *125 16.9187775
*END

*D_NET *126 0.00160563

*CONN
*P *126 I *C 0 72.295 *L 0
*I *1353:D I *C 26.3 62.415 *L 0.000307 *D DFFHQX1

*CAP
1 *126 0.000560102
2 *1353:D 0.000242713
3 *126:2 0.000802814922

*RES
1 *1353:D *126:2 10.7762
2 *126:2 *126 23.2686996
*END

*D_NET *127 0.00124133

*CONN
*P *127 I *C 0 71.155 *L 0
*I *1352:D I *C 20.17 62.485 *L 0.00021 *D DFFQXL

*CAP
1 *127 0.000409959
2 *1352:D 0.000210704
3 *127:2 0.000620663164

*RES
1 *1352:D *127:2 9.74459
2 *127:2 *127 18.5818672
*END

*D_NET *128 0.00137377

*CONN
*P *128 I *C 0 70.015 *L 0
*I *1351:D I *C 23.37 62.485 *L 0.00021 *D DFFQXL

*CAP
1 *128 0.000502289
2 *1351:D 0.000184594
3 *128:2 0.000686883906

*RES
1 *1351:D *128:2 8.88281
2 *128:2 *128 21.0008621
*END

*D_NET *129 0.00123358

*CONN
*P *129 I *C 0 68.875 *L 0
*I *1350:D I *C 14.77 59.065 *L 0.00021 *D DFFQXL

*CAP
1 *129 0.000519332
2 *1350:D 9.74571e-05
3 *129:2 0.000616788867

*RES
1 *1350:D *129:2 5.65837
2 *129:2 *129 19.9917564
*END

*D_NET *130 0.000966668

*CONN
*P *130 I *C 0 67.735 *L 0
*I *1349:D I *C 11.77 60.635 *L 0.00021 *D DFFQXL

*CAP
1 *130 0.000393091
2 *1349:D 9.0243e-05
3 *130:2 0.000483334063

*RES
1 *1349:D *130:2 5.51484
2 *130:2 *130 16.0381794
*END

*D_NET *131 0.000930309

*CONN
*P *131 I *C 0 66.595 *L 0
*I *1348:D I *C 14.97 62.485 *L 0.00021 *D DFFQXL

*CAP
1 *1348:D 0.000101686
2 *131 6.34786e-05
3 *131:2 0.000213681
4 *131:3 0.000108359
5 *131:4 0.000270485879
6 *131:2 *132:2 0.000172615059

*RES
1 *131:4 *131 2.38887
2 *1348:D *131:3 6.01063
3 *131:3 *131:2 3.35716
4 *131:2 *131:4 9.28294659
*END

*D_NET *132 0.00066793

*CONN
*P *132 I *C 0 65.645 *L 0
*I *1347:D I *C 11.77 64.055 *L 0.00021 *D DFFQXL

*CAP
1 *132 0.000198424
2 *1347:D 4.92329e-05
3 *132:2 0.000247657305
4 *132:2 *131:2 0.000172615059

*RES
1 *1347:D *132:2 4.43748
2 *132:2 *132 12.231946
*END

*D_NET *133 0.000433207

*CONN
*P *133 I *C 0 64.505 *L 0
*I *1346:D I *C 8.37 64.055 *L 0.00021 *D DFFQXL

*CAP
1 *133 0.000216603281
2 *1346:D 0.000216603281

*RES
1 *1346:D *133 13.2511
*END

*D_NET *134 0.000451207

*CONN
*P *134 I *C 0 63.365 *L 0
*I *1345:D I *C 8.37 62.485 *L 0.00021 *D DFFQXL

*CAP
1 *134 0.000225603574
2 *1345:D 0.000225603574

*RES
1 *1345:D *134 13.6122
*END

*D_NET *135 0.000486374

*CONN
*P *135 I *C 0 62.225 *L 0
*I *1344:D I *C 8.17 60.635 *L 0.00021 *D DFFQXL

*CAP
1 *135 0.000197529
2 *1344:D 4.56576e-05
3 *135:2 0.000243186953

*RES
1 *1344:D *135:2 4.29491
2 *135:2 *135 9.74488258
*END

*D_NET *136 0.000742793

*CONN
*P *136 I *C 0 61.085 *L 0
*I *1343:D I *C 7.97 55.645 *L 0.00021 *D DFFQXL

*CAP
1 *136 0.000273049
2 *1343:D 9.83477e-05
3 *136:2 0.000371396523

*RES
1 *1343:D *136:2 5.65848
2 *136:2 *136 11.0640526
*END

*D_NET *137 0.000478625

*CONN
*P *137 I *C 0 59.945 *L 0
*I *1342:D I *C 8.17 59.065 *L 0.00021 *D DFFQXL

*CAP
1 *137 0.000239312656
2 *1342:D 0.000239312656

*RES
1 *1342:D *137 13.461
*END

*D_NET *138 0.000782549

*CONN
*P *138 I *C 0 58.805 *L 0
*I *1341:D I *C 11.57 59.065 *L 0.00021 *D DFFQXL

*CAP
1 *138 0.000258326523
2 *1341:D 0.000258326523
3 *1341:D *273:3 0.000145316123
4 *1341:D *1211:A 0.000120580195

*RES
1 *1341:D *138 16.3189
*END

*D_NET *139 0.000677824

*CONN
*P *139 I *C 0 57.855 *L 0
*I *1340:D I *C 11.37 57.215 *L 0.00021 *D DFFQXL

*CAP
1 *139 0.000338911992
2 *1340:D 0.000338911992

*RES
1 *1340:D *139 15.7533
*END

*D_NET *140 0.00102395

*CONN
*P *140 I *C 0 56.715 *L 0
*I *1339:D I *C 14.57 57.215 *L 0.00021 *D DFFQXL

*CAP
1 *140 0.000361025352
2 *1339:D 0.000361025352
3 *1339:D *275:2 0.000130176543
4 *1339:D *40:2 0.000171720977

*RES
1 *1339:D *140 19.341
*END

*D_NET *141 0.000952959

*CONN
*P *141 I *C 0 55.575 *L 0
*I *1338:D I *C 14.1 55.575 *L 0.000307 *D DFFHQX1

*CAP
1 *1338:D 3.62413e-05
2 *141 0.000262736
3 *141:2 0.000298976895
4 *141:2 *40:2 0.000114083291
5 *1338:D *277:2 0.000240921973

*RES
1 *141:2 *141 10.3412867
2 *1338:D *141:2 7.60022
*END

*D_NET *142 0.000597239

*CONN
*P *142 I *C 0 54.435 *L 0
*I *1337:D I *C 11.1 53.865 *L 0.000307 *D DFFHQX1

*CAP
1 *142 0.000250458711
2 *1337:D 0.000250458711
3 *1337:D *272:2 9.63211035e-05

*RES
1 *1337:D *142 15.5169
*END

*D_NET *143 0.000517726

*CONN
*P *143 I *C 0 53.295 *L 0
*I *1336:D I *C 7.97 53.795 *L 0.00021 *D DFFQXL

*CAP
1 *143 0.000258862969
2 *1336:D 0.000258862969

*RES
1 *1336:D *143 13.3106
*END

*D_NET *144 0.000435948

*CONN
*P *144 I *C 0 52.155 *L 0
*I *1335:D I *C 7.97 52.225 *L 0.00021 *D DFFQXL

*CAP
1 *144 0.00021797418
2 *1335:D 0.00021797418

*RES
1 *1335:D *144 13.3208
*END

*D_NET *145 0.000575542

*CONN
*P *145 I *C 0 51.205 *L 0
*I *1334:D I *C 10.1 50.445 *L 0.000307 *D DFFHQX1

*CAP
1 *145 0.00028777123
2 *1334:D 0.00028777123

*RES
1 *1334:D *145 15.3215
*END

*D_NET *146 0.000453472

*CONN
*P *146 I *C 0 50.065 *L 0
*I *1333:D I *C 8.17 48.805 *L 0.00021 *D DFFQXL

*CAP
1 *146 0.000226736074
2 *1333:D 0.000226736074

*RES
1 *1333:D *146 13.746
*END

*D_NET *147 0.00251007

*CONN
*P *147 I *C 0 48.925 *L 0
*I *1332:D I *C 7.97 21.445 *L 0.00021 *D DFFQXL

*CAP
1 *1332:D 4.97124e-05
2 *147 0.000250999
3 *147:2 8.70261e-05
4 *147:3 0.000607013
5 *147:4 0.00070047375
6 *147:5 0.000381763
7 *147:5 *304:2 9.05990625e-05
8 *147:3 *313:6 0.000342488281

*RES
1 *147:5 *147:4 9.75924
2 *147:4 *147:3 9.53254
3 *147:3 *147 11.0337
4 *1332:D *147:2 7.66585
5 *147:2 *147:5 14.0163898
*END

*D_NET *148 0.00091958

*CONN
*P *148 I *C 0 47.785 *L 0
*I *1331:D I *C 8.77 41.965 *L 0.00021 *D DFFQXL

*CAP
1 *1331:D 7.55178e-05
2 *148 8.62491e-05
3 *148:2 0.000308218
4 *148:3 0.000318944453
5 *148:2 *1328:D 0.000130653379

*RES
1 *148:3 *148 5.72769
2 *1331:D *148:2 5.29263
3 *148:2 *148:3 13.7342215
*END

*D_NET *149 0.000477433

*CONN
*P *149 I *C 0 46.645 *L 0
*I *1330:D I *C 7.97 46.955 *L 0.00021 *D DFFQXL

*CAP
1 *1330:D 0.000115215
2 *149 0.000123502
3 *149:2 0.000238716602

*RES
1 *149:2 *149 4.05194
2 *1330:D *149:2 9.08756256
*END

*D_NET *150 0.000788748

*CONN
*P *150 I *C 0 45.505 *L 0
*I *1329:D I *C 11.17 45.385 *L 0.00021 *D DFFQXL

*CAP
1 *150 0.000285446641
2 *1329:D 0.000285446641
3 *1329:D *1329:CK 0.000135242939
4 *1329:D *280:2 8.2612041e-05

*RES
1 *1329:D *150 15.7323
*END

*D_NET *151 0.000589371

*CONN
*P *151 I *C 0 44.365 *L 0
*I *1328:D I *C 8.17 43.535 *L 0.00021 *D DFFQXL

*CAP
1 *151 0.000229358672
2 *1328:D 0.000229358672
3 *1328:D *148:2 0.000130653379

*RES
1 *1328:D *151 13.8478
*END

*D_NET *152 0.00072062

*CONN
*P *152 I *C 0 43.415 *L 0
*I *1327:D I *C 12.37 43.535 *L 0.00021 *D DFFQXL

*CAP
1 *152 0.000360310078
2 *1327:D 0.000360310078

*RES
1 *1327:D *152 16.5788
*END

*D_NET *153 0.000674486

*CONN
*P *153 I *C 0 42.275 *L 0
*I *1326:D I *C 11.97 41.965 *L 0.00021 *D DFFQXL

*CAP
1 *1326:D 0.000193474
2 *153 0.000143769
3 *153:2 0.000337243086

*RES
1 *153:2 *153 4.96667
2 *1326:D *153:2 11.1436844
*END

*D_NET *154 0.00102746

*CONN
*P *154 I *C 0 41.135 *L 0
*I *1325:D I *C 14.97 40.115 *L 0.00021 *D DFFQXL

*CAP
1 *1325:D 0.000100018
2 *154 2.63441e-05
3 *154:2 0.00031924248
4 *154:3 0.000245573
5 *154:2 *1324:D 0.000149607656
6 *154:2 *298:2 8.39233398e-05
7 *1325:D *1381:D 0.000102758408

*RES
1 *154:3 *154 0.718115
2 *154:2 *154:3 9.13181
3 *1325:D *154:2 9.38057899
*END

*D_NET *155 0.000968218

*CONN
*P *155 I *C 0 39.995 *L 0
*I *1324:D I *C 12.37 38.545 *L 0.00021 *D DFFQXL

*CAP
1 *155 0.000346362578
2 *1324:D 0.000346362578
3 *1324:D *154:2 0.000149607656
4 *1324:D *1193:A 0.00012588501

*RES
1 *1324:D *155 24.3185
*END

*D_NET *156 0.00102639

*CONN
*P *156 I *C 0 38.855 *L 0
*I *1323:D I *C 15.57 38.545 *L 0.00021 *D DFFQXL

*CAP
1 *1323:D 2.06229e-05
2 *156 0.000100492
3 *156:2 0.000335217
4 *156:3 0.000415086758
5 *156:2 *1322:D 0.00015497208

*RES
1 *156:3 *156 4.86071
2 *1323:D *156:2 6.80157
3 *156:2 *156:3 8.3758831
*END

*D_NET *157 0.000649929

*CONN
*P *157 I *C 0 37.715 *L 0
*I *1322:D I *C 9.17 38.545 *L 0.00021 *D DFFQXL

*CAP
1 *157 0.000247478477
2 *1322:D 0.000247478477
3 *1322:D *156:2 0.00015497208

*RES
1 *1322:D *157 15.0319
*END

*D_NET *158 0.000502706

*CONN
*P *158 I *C 0 36.575 *L 0
*I *1321:D I *C 7.97 36.695 *L 0.00021 *D DFFQXL

*CAP
1 *1321:D 0.000251352793
2 *158 0.000251352793

*RES
1 *1321:D *158 12.8521
*END

*D_NET *159 0.000707686

*CONN
*P *159 I *C 0 35.625 *L 0
*I *1320:D I *C 10.7 35.055 *L 0.000307 *D DFFHQX1

*CAP
1 *1320:D 1.51377e-05
2 *159 1.9253e-05
3 *159:2 0.00026858
4 *159:3 0.00027269125
5 *159:2 *1319:D 0.000132024287

*RES
1 *159:3 *159 0.718159
2 *1320:D *159:2 6.78378
3 *159:2 *159:3 8.39102268
*END

*D_NET *160 0.000564516

*CONN
*P *160 I *C 0 34.485 *L 0
*I *1319:D I *C 7.97 33.275 *L 0.00021 *D DFFQXL

*CAP
1 *160 0.000216245645
2 *1319:D 0.000216245645
3 *1319:D *159:2 0.000132024287

*RES
1 *1319:D *160 13.593
*END

*D_NET *161 0.000786781

*CONN
*P *161 I *C 0 33.345 *L 0
*I *1318:D I *C 13.1 33.345 *L 0.000307 *D DFFHQX1

*CAP
1 *161 0.000326693066
2 *1318:D 0.000326693066
3 *1318:D *296:2 0.000133395195

*RES
1 *1318:D *161 20.7248
*END

*D_NET *162 0.00112915

*CONN
*P *162 I *C 0 32.205 *L 0
*I *1317:D I *C 7.97 40.115 *L 0.00021 *D DFFQXL

*CAP
1 *162 0.000442861
2 *1317:D 2.98631e-05
3 *162:2 0.000472724453
4 *162:2 *313:4 0.000183701523

*RES
1 *1317:D *162:2 4.22236
2 *162:2 *162 15.692234
*END

*D_NET *163 0.000701308

*CONN
*P *163 I *C 0 31.065 *L 0
*I *1316:D I *C 11.17 31.705 *L 0.00021 *D DFFQXL

*CAP
1 *163 0.000350654141
2 *1316:D 0.000350654141

*RES
1 *1316:D *163 16.1943
*END

*D_NET *164 0.000507712

*CONN
*P *164 I *C 0 29.925 *L 0
*I *1315:D I *C 7.97 31.705 *L 0.00021 *D DFFQXL

*CAP
1 *164 0.000253856191
2 *1315:D 0.000253856191

*RES
1 *1315:D *164 14.0547
*END

*D_NET *165 0.000748038

*CONN
*P *165 I *C 0 28.975 *L 0
*I *1314:D I *C 10.97 29.855 *L 0.00021 *D DFFQXL

*CAP
1 *165 0.000374019141
2 *1314:D 0.000374019141

*RES
1 *1314:D *165 17.2082
*END

*D_NET *166 0.000749707

*CONN
*P *166 I *C 0 27.835 *L 0
*I *1313:D I *C 11.17 28.285 *L 0.00021 *D DFFQXL

*CAP
1 *166 0.000323593613
2 *1313:D 0.000323593613
3 *1313:D *1231:A 0.00010251999

*RES
1 *1313:D *166 16.0507
*END

*D_NET *167 0.000560641

*CONN
*P *167 I *C 0 26.695 *L 0
*I *1312:D I *C 7.97 28.285 *L 0.00021 *D DFFQXL

*CAP
1 *167 0.000227452
2 *1312:D 5.28689e-05
3 *167:2 0.000280320645

*RES
1 *1312:D *167:2 4.29482
2 *167:2 *167 10.0519657
*END

*D_NET *168 0.000492334

*CONN
*P *168 I *C 0 25.555 *L 0
*I *1311:D I *C 7.7 26.505 *L 0.000307 *D DFFHQX1

*CAP
1 *168 0.000246167188
2 *1311:D 0.000246167188

*RES
1 *1311:D *168 16.5679
*END

*D_NET *169 0.000466943

*CONN
*P *169 I *C 0 24.415 *L 0
*I *1310:D I *C 7.97 24.865 *L 0.00021 *D DFFQXL

*CAP
1 *169 0.000233471387
2 *1310:D 0.000233471387

*RES
1 *1310:D *169 13.407
*END

*D_NET *170 0.000771403

*CONN
*P *170 I *C 0 23.275 *L 0
*I *1309:D I *C 11.37 24.865 *L 0.00021 *D DFFQXL

*CAP
1 *170 0.000333963
2 *1309:D 5.17388e-05
3 *170:2 0.000385701641

*RES
1 *1309:D *170:2 4.43751
2 *170:2 *170 12.357831
*END

*D_NET *171 0.000698447

*CONN
*P *171 I *C 0 22.135 *L 0
*I *1308:D I *C 7.97 19.595 *L 0.00021 *D DFFQXL

*CAP
1 *171 0.000286578
2 *1308:D 6.26455e-05
3 *171:2 0.000349223633

*RES
1 *1308:D *171:2 4.65313
2 *171:2 *171 10.8863115
*END

*D_NET *172 0.00067544

*CONN
*P *172 I *C 0 21.185 *L 0
*I *1307:D I *C 11.37 21.445 *L 0.00021 *D DFFQXL

*CAP
1 *1307:D 0.000128327
2 *172 0.000140609
3 *172:2 0.000268936152
4 *172:2 *85:32 8.82149e-06
5 *172:2 *1332:CK 7.7486e-06
6 *1307:D *85:25 6.14524e-05
7 *1307:D *85:32 5.9545024e-05

*RES
1 *172:2 *172 4.96661
2 *1307:D *172:2 10.690093
*END

*D_NET *173 0.000973225

*CONN
*P *173 I *C 0 20.045 *L 0
*I *1306:D I *C 15.17 21.445 *L 0.00021 *D DFFQXL

*CAP
1 *1306:D 4.5122e-05
2 *173 8.91092e-05
3 *173:2 0.000266491
4 *173:3 5.15581e-05
5 *173:4 0.000349164023
6 *173:2 *1305:D 0.000171780586

*RES
1 *173:4 *173 3.58318
2 *1306:D *173:3 4.29489
3 *173:3 *173:2 3.34675
4 *173:2 *173:4 8.33046436
*END

*D_NET *174 0.000750482

*CONN
*P *174 I *C 0 18.905 *L 0
*I *1305:D I *C 11.57 19.595 *L 0.00021 *D DFFQXL

*CAP
1 *1305:D 0.000100315
2 *174 0.00010991
3 *174:2 0.000210225586
4 *1305:D *1368:CK 6.54459e-05
5 *1305:D *85:31 9.29832e-06
6 *1305:D *85:33 7.10487e-05
7 *1305:D *85:46 1.24574088e-05
8 *1305:D *173:2 0.000171780586

*RES
1 *174:2 *174 4.36941
2 *1305:D *174:2 11.8088722
*END

*D_NET *175 0.000522256

*CONN
*P *175 I *C 0 17.765 *L 0
*I *1304:D I *C 7.7 17.955 *L 0.000307 *D DFFHQX1

*CAP
1 *175 0.00020509959
2 *1304:D 0.00020509959
3 *1304:D *1194:A 0.000112056729

*RES
1 *1304:D *175 13.4805
*END

*D_NET *176 0.000866413

*CONN
*P *176 I *C 0 16.625 *L 0
*I *1303:D I *C 13.37 16.175 *L 0.00021 *D DFFQXL

*CAP
1 *1303:D 0.000157119
2 *176 9.67968e-05
3 *176:2 0.000253915781
4 *1303:D *314:4 0.000200629238
5 *1303:D *177:2 0.000157952305

*RES
1 *176:2 *176 3.44696
2 *1303:D *176:2 13.774395
*END

*D_NET *177 0.00082171

*CONN
*P *177 I *C 0 15.485 *L 0
*I *1302:D I *C 11.17 18.025 *L 0.00021 *D DFFQXL

*CAP
1 *177 0.000257193
2 *1302:D 7.4686e-05
3 *177:2 0.000331878672
4 *177:2 *1303:D 0.000157952305

*RES
1 *1302:D *177:2 4.86656
2 *177:2 *177 12.6146078
*END

*D_NET *178 0.000506282

*CONN
*P *178 I *C 0 14.535 *L 0
*I *1301:D I *C 7.97 16.175 *L 0.00021 *D DFFQXL

*CAP
1 *178 0.000253140918
2 *1301:D 0.000253140918

*RES
1 *1301:D *178 13.8721
*END

*D_NET *179 0.00078845

*CONN
*P *179 I *C 0 13.395 *L 0
*I *1300:D I *C 13.37 12.755 *L 0.00021 *D DFFQXL

*CAP
1 *179 0.000352621094
2 *1300:D 0.000352621094
3 *1300:D *321:2 8.32080859e-05

*RES
1 *1300:D *179 17.6826
*END

*D_NET *180 0.0004704

*CONN
*P *180 I *C 0 12.255 *L 0
*I *1299:D I *C 7.97 12.755 *L 0.00021 *D DFFQXL

*CAP
1 *180 0.000235199922
2 *1299:D 0.000235199922

*RES
1 *1299:D *180 13.3703
*END

*D_NET *181 0.000870526

*CONN
*P *181 I *C 0 11.115 *L 0
*I *1298:D I *C 10.97 14.605 *L 0.00021 *D DFFQXL

*CAP
1 *181 0.000297782
2 *1298:D 8.10647e-05
3 *181:2 0.000378847109
4 *1298:D *1300:CK 0.000100911
5 *1298:D *1296:CK 0
6 *181:2 *1296:CK 1.19205947e-05

*RES
1 *1298:D *181:2 5.7266
2 *181:2 *181 12.3198032
*END

*D_NET *182 0.0012117

*CONN
*P *182 I *C 0 9.975 *L 0
*I *1297:D I *C 15.57 14.605 *L 0.00021 *D DFFQXL

*CAP
1 *1297:D 4.09499e-05
2 *182 9.93606e-05
3 *182:2 0.000154198
4 *182:3 0.000368177891
5 *182:4 0.00035429
6 *182:4 *85:40 6.55651e-07
7 *182:3 *1295:CK 2.77758e-05
8 *182:3 *85:28 1.40071e-05
9 *182:3 *85:29 1.66297e-05
10 *182:3 *85:36 4.04118995e-05
11 *182:4 *123:29 9.47118e-05
12 *182:3 *123:29 5.36416771e-07

*RES
1 *182:4 *182 4.21054
2 *182:3 *182:4 8.08858871
3 *1297:D *182:2 4.22227
4 *182:2 *182:3 5.9208
*END

*D_NET *183 0.000931859

*CONN
*P *183 I *C 0 8.835 *L 0
*I *1296:D I *C 12.77 11.185 *L 0.00021 *D DFFQXL

*CAP
1 *183 0.000287533
2 *1296:D 7.85588e-05
3 *183:2 0.000366091719
4 *183:2 *123:26 1.63913e-05
5 *183:2 *123:29 0.000101268269
6 *183:2 *184:2 8.20159961e-05

*RES
1 *1296:D *183:2 5.00991
2 *183:2 *183 13.4462118
*END

*D_NET *184 0.000878394

*CONN
*P *184 I *C 0 7.695 *L 0
*I *1295:D I *C 14.1 9.405 *L 0.000307 *D DFFHQX1

*CAP
1 *1295:D 4.79236e-05
2 *184 0.000110091
3 *184:2 0.000179945
4 *184:3 5.46587e-05
5 *184:4 0.000283300879
6 *184:2 *322:4 0.000120460986
7 *184:2 *183:2 8.20159961e-05

*RES
1 *184:4 *184 3.4471
2 *1295:D *184:3 4.32809
3 *184:3 *184:2 3.34676
4 *184:2 *184:4 7.619977
*END

*D_NET *185 0.000736356

*CONN
*P *185 I *C 0 6.745 *L 0
*I *1294:D I *C 11.77 7.765 *L 0.00021 *D DFFQXL

*CAP
1 *1294:D 3.27823e-05
2 *185 2.46749e-05
3 *185:2 0.000300347813
4 *185:3 0.00029224
5 *185:2 *322:4 8.63075293e-05

*RES
1 *185:3 *185 0.544335
2 *1294:D *185:2 7.07483
3 *185:2 *185:3 9.08648968
*END

*D_NET *186 0.00054872

*CONN
*P *186 I *C 0 5.605 *L 0
*I *1293:D I *C 7.97 7.765 *L 0.00021 *D DFFQXL

*CAP
1 *186 0.000181318
2 *1293:D 4.92926e-05
3 *186:2 0.000230610371
4 *1293:D *1223:A 8.74996191e-05

*RES
1 *1293:D *186:2 4.86665
2 *186:2 *186 9.34898853
*END

*D_NET *187 0.000754714

*CONN
*P *187 I *C 0 4.465 *L 0
*I *1292:D I *C 10.77 9.335 *L 0.00021 *D DFFQXL

*CAP
1 *187 0.000232218
2 *1292:D 0.000145139
3 *187:2 0.000377356992

*RES
1 *1292:D *187:2 6.8723
2 *187:2 *187 11.4656687
*END

*D_NET *188 0.000863552

*CONN
*P *188 I *C 0 3.325 *L 0
*I *1291:D I *C 7.97 11.185 *L 0.00021 *D DFFQXL

*CAP
1 *188 0.000431776055
2 *1291:D 0.000431776055

*RES
1 *1291:D *188 18.9422
*END

*D_NET *189 0.000526428

*CONN
*P *189 O *C 73.8 6.555 *L 0
*I *1437:Y O *C 64.13 8.025 *L 0 *D AND2XL

*CAP
1 *189 0.000224352
2 *1437:Y 3.88626e-05
3 *189:2 0.000263214102

*RES
1 *189:2 *1437:Y 7.346
2 *189 *189:2 7.36296177
*END

*D_NET *190 0.000643373

*CONN
*P *190 O *C 73.8 7.505 *L 0
*I *1422:Y O *C 63.33 9.075 *L 0 *D AND2XL

*CAP
1 *190 0.000203369
2 *1422:Y 0.000118317
3 *190:2 0.00032168627

*RES
1 *190:2 *1422:Y 8.81826878
2 *190 *190:2 7.36291
*END

*D_NET *191 0.000563979

*CONN
*P *191 O *C 73.8 8.645 *L 0
*I *1455:Y O *C 63.33 8.025 *L 0 *D AND2XL

*CAP
1 *191 5.44186e-05
2 *1455:Y 0.000227571
3 *191:2 0.00028198957

*RES
1 *191:2 *1455:Y 13.2058859
2 *191 *191:2 2.07128
*END

*D_NET *192 0.000486255

*CONN
*P *192 O *C 73.8 9.595 *L 0
*I *1423:Y O *C 64.73 9.075 *L 0 *D AND2XL

*CAP
1 *192 0.000101566
2 *1423:Y 0.000141562
3 *192:2 0.000243127344

*RES
1 *192:2 *1423:Y 11.9594336
2 *192 *192:2 3.58312
*END

*D_NET *193 0.000457048

*CONN
*P *193 O *C 73.8 10.735 *L 0
*I *1440:Y O *C 63.73 11.445 *L 0 *D AND2XL

*CAP
1 *193 0.00021428
2 *1440:Y 1.42446e-05
3 *193:2 0.000228524199

*RES
1 *193:2 *1440:Y 6.77145
2 *193 *193:2 7.66527653
*END

*D_NET *194 0.000654578

*CONN
*P *194 O *C 73.8 11.685 *L 0
*I *1456:Y O *C 63.93 12.495 *L 0 *D AND2XL

*CAP
1 *1456:Y 0.000327289102
2 *194 0.000327289102

*RES
1 *194 *1456:Y 19.03
*END

*D_NET *195 0.00050962

*CONN
*P *195 O *C 73.8 12.825 *L 0
*I *1471:Y O *C 64.73 14.865 *L 0 *D AND2XL

*CAP
1 *195 0.000186802
2 *1471:Y 6.80076e-05
3 *195:2 0.000254809863

*RES
1 *195:2 *1471:Y 7.77685642
2 *195 *195:2 6.90941
*END

*D_NET *196 0.000512958

*CONN
*P *196 O *C 73.8 13.775 *L 0
*I *1424:Y O *C 63.93 14.865 *L 0 *D AND2XL

*CAP
1 *196 1.38894e-05
2 *1424:Y 0.000242589
3 *196:2 0.000256478789

*RES
1 *196:2 *1424:Y 14.2326355
2 *196 *196:2 0.432825
*END

*D_NET *197 0.000589013

*CONN
*P *197 O *C 73.8 14.915 *L 0
*I *1433:Y O *C 65.53 15.915 *L 0 *D AND2XL

*CAP
1 *1433:Y 0.000294506543
2 *197 0.000294506543

*RES
1 *197 *1433:Y 17.2796
*END

*D_NET *198 0.000568032

*CONN
*P *198 O *C 73.8 15.865 *L 0
*I *1441:Y O *C 64.13 15.915 *L 0 *D AND2XL

*CAP
1 *198 0.00013596
2 *1441:Y 0.000148056
3 *198:2 0.000284016133

*RES
1 *198:2 *1441:Y 10.471344
2 *198 *198:2 4.30895
*END

*D_NET *199 0.000430822

*CONN
*P *199 O *C 73.8 17.005 *L 0
*I *1448:Y O *C 66.13 18.285 *L 0 *D AND2XL

*CAP
1 *1448:Y 0.000215411191
2 *199 0.000215411191

*RES
1 *199 *1448:Y 13.4332
*END

*D_NET *200 0.000358939

*CONN
*P *200 O *C 73.8 17.955 *L 0
*I *1457:Y O *C 66.93 18.285 *L 0 *D AND2XL

*CAP
1 *200 8.66663e-05
2 *1457:Y 9.28033e-05
3 *200:2 0.00017946959

*RES
1 *200:2 *1457:Y 9.99355316
2 *200 *200:2 3.12954
*END

*D_NET *201 0.00039351

*CONN
*P *201 O *C 73.8 19.095 *L 0
*I *1464:Y O *C 66.93 19.335 *L 0 *D AND2XL

*CAP
1 *201 0.000170053
2 *1464:Y 2.67024e-05
3 *201:2 0.000196754941

*RES
1 *201:2 *1464:Y 6.929636
2 *201 *201:2 5.24629
*END

*D_NET *202 0.00029254

*CONN
*P *202 O *C 73.8 20.045 *L 0
*I *1472:Y O *C 67.73 19.335 *L 0 *D AND2XL

*CAP
1 *202 0.000132322
2 *1472:Y 1.39474e-05
3 *202:2 0.000146269795

*RES
1 *202:2 *1472:Y 6.78193569
2 *202 *202:2 4.64157
*END

*D_NET *203 0.000330806

*CONN
*P *203 O *C 73.8 21.185 *L 0
*I *1479:Y O *C 67.73 21.705 *L 0 *D AND2XL

*CAP
1 *203 7.76045e-05
2 *1479:Y 8.77984e-05
3 *203:2 0.000165402891

*RES
1 *203:2 *1479:Y 9.74774361
2 *203 *203:2 2.67596
*END

*D_NET *204 0.000358462

*CONN
*P *204 O *C 73.8 22.135 *L 0
*I *1425:Y O *C 68.53 22.755 *L 0 *D AND2XL

*CAP
1 *1425:Y 0.000179231172
2 *204 0.000179231172

*RES
1 *204 *1425:Y 13.3061
*END

*D_NET *205 0.000329375

*CONN
*P *205 O *C 73.8 23.275 *L 0
*I *1430:Y O *C 67.73 22.755 *L 0 *D AND2XL

*CAP
1 *205 0.000142395
2 *1430:Y 2.22926e-05
3 *205:2 0.000164687637

*RES
1 *205:2 *1430:Y 6.84988499
2 *205 *205:2 4.64157
*END

*D_NET *206 0.000319123

*CONN
*P *206 O *C 73.8 24.225 *L 0
*I *1434:Y O *C 67.73 25.125 *L 0 *D AND2XL

*CAP
1 *206 0.000141681
2 *1434:Y 1.78808e-05
3 *206:2 0.000159561631

*RES
1 *206:2 *1434:Y 6.92546368
2 *206 *206:2 4.64153
*END

*D_NET *207 0.000289321

*CONN
*P *207 O *C 73.8 25.365 *L 0
*I *1421:Y O *C 68.53 25.125 *L 0 *D AND2XL

*CAP
1 *207 0.000121832
2 *1421:Y 2.28287e-05
3 *207:2 0.000144660469

*RES
1 *207:2 *1421:Y 6.929636
2 *207 *207:2 4.03675
*END

*D_NET *208 0.000327468

*CONN
*P *208 O *C 73.8 26.315 *L 0
*I *1442:Y O *C 67.73 26.175 *L 0 *D AND2XL

*CAP
1 *208 7.43855e-05
2 *1442:Y 8.93485e-05
3 *208:2 0.000163733955

*RES
1 *208:2 *1442:Y 9.74774361
2 *208 *208:2 2.67596
*END

*D_NET *209 0.000470877

*CONN
*P *209 O *C 73.8 27.455 *L 0
*I *1445:Y O *C 68.53 29.595 *L 0 *D AND2XL

*CAP
1 *1445:Y 0.000156643
2 *209 7.87956e-05
3 *209:2 0.00023543834

*RES
1 *209 *209:2 5.4405
2 *209:2 *1445:Y 9.49454308
*END

*D_NET *210 0.000512123

*CONN
*P *210 O *C 73.8 28.405 *L 0
*I *1449:Y O *C 68.13 31.965 *L 0 *D AND2XL

*CAP
1 *210 3.33171e-05
2 *1449:Y 0.000222744
3 *210:2 0.000256061563

*RES
1 *210:2 *1449:Y 14.0581131
2 *210 *210:2 1.01292
*END

*D_NET *211 0.000335217

*CONN
*P *211 O *C 73.8 29.545 *L 0
*I *1452:Y O *C 68.73 28.545 *L 0 *D AND2XL

*CAP
1 *211 0.000118793
2 *1452:Y 4.88157e-05
3 *211:2 0.000167608262

*RES
1 *211:2 *1452:Y 7.50160217
2 *211 *211:2 3.88553
*END

*D_NET *212 0.000329852

*CONN
*P *212 O *C 73.8 30.495 *L 0
*I *1458:Y O *C 67.73 29.595 *L 0 *D AND2XL

*CAP
1 *212 0.000144481
2 *1458:Y 2.04449e-05
3 *212:2 0.000164926055

*RES
1 *212:2 *1458:Y 6.92546368
2 *212 *212:2 4.64153
*END

*D_NET *213 0.000890732

*CONN
*P *213 O *C 73.8 31.635 *L 0
*I *1461:Y O *C 67.53 42.225 *L 0 *D AND2XL

*CAP
1 *213 0.000144004
2 *1461:Y 0.000301362
3 *213:2 0.000445365898

*RES
1 *213:2 *1461:Y 21.1060047
2 *213 *213:2 4.79278
*END

*D_NET *214 0.000567794

*CONN
*P *214 O *C 73.8 32.585 *L 0
*I *1465:Y O *C 67.53 36.435 *L 0 *D AND2XL

*CAP
1 *214 3.71338e-05
2 *1465:Y 0.000246763
3 *214:2 0.000283896914

*RES
1 *214:2 *1465:Y 15.0220394
2 *214 *214:2 1.31525
*END

*D_NET *215 0.000304818

*CONN
*P *215 O *C 73.8 33.725 *L 0
*I *1468:Y O *C 67.73 33.015 *L 0 *D AND2XL

*CAP
1 *215 0.000131427
2 *1468:Y 2.09817e-05
3 *215:2 0.000152409072

*RES
1 *215:2 *1468:Y 6.85083866
2 *215 *215:2 4.56214
*END

*D_NET *216 0.000258923

*CONN
*P *216 O *C 73.8 34.675 *L 0
*I *1473:Y O *C 68.53 35.385 *L 0 *D AND2XL

*CAP
1 *216 0.000117778
2 *1473:Y 1.16828e-05
3 *216:2 0.000129461289

*RES
1 *216:2 *1473:Y 6.77144527
2 *216 *216:2 4.03677
*END

*D_NET *217 0.000543118

*CONN
*P *217 O *C 73.8 35.815 *L 0
*I *1476:Y O *C 68.73 39.855 *L 0 *D AND2XL

*CAP
1 *217 2.95033e-05
2 *1476:Y 0.000242055
3 *217:2 0.00027155877

*RES
1 *217:2 *1476:Y 14.1826868
2 *217 *217:2 1.01302
*END

*D_NET *218 0.000439286

*CONN
*P *218 O *C 73.8 36.955 *L 0
*I *1480:Y O *C 67.73 35.385 *L 0 *D AND2XL

*CAP
1 *218 0.000136853
2 *1480:Y 8.27897e-05
3 *218:2 0.000219643125

*RES
1 *218:2 *1480:Y 7.93206692
2 *218 *218:2 4.64152
*END

*D_NET *219 0.000370383

*CONN
*P *219 O *C 73.8 37.905 *L 0
*I *1483:Y O *C 67.33 38.805 *L 0 *D AND2XL

*CAP
1 *219 0.000161172
2 *1483:Y 2.40197e-05
3 *219:2 0.000185191641

*RES
1 *219:2 *1483:Y 6.92546368
2 *219 *219:2 4.94386
*END

*D_NET *220 0.000316143

*CONN
*P *220 O *C 73.8 39.045 *L 0
*I *1426:Y O *C 68.13 38.805 *L 0 *D AND2XL

*CAP
1 *220 0.000136137
2 *1426:Y 2.19349e-05
3 *220:2 0.000158071514

*RES
1 *220:2 *1426:Y 6.929636
2 *220 *220:2 4.33906
*END

*D_NET *221 0.000351667

*CONN
*P *221 O *C 73.8 39.995 *L 0
*I *1429:Y O *C 67.53 39.855 *L 0 *D AND2XL

*CAP
1 *221 0.00015211
2 *1429:Y 2.37235e-05
3 *221:2 0.000175833711

*RES
1 *221:2 *1429:Y 6.80506229
2 *221 *221:2 4.7927
*END

*D_NET *222 0.000349164

*CONN
*P *222 O *C 73.8 41.135 *L 0
*I *1431:Y O *C 68.73 42.225 *L 0 *D AND2XL

*CAP
1 *1431:Y 0.000174582012
2 *222 0.000174582012

*RES
1 *222 *1431:Y 12.9168
*END

*D_NET *223 0.00045526

*CONN
*P *223 O *C 73.8 42.085 *L 0
*I *1432:Y O *C 66.73 39.855 *L 0 *D AND2XL

*CAP
1 *1432:Y 0.000227630137
2 *223 0.000227630137

*RES
1 *223 *1432:Y 13.419
*END

*D_NET *224 0.000266075

*CONN
*P *224 O *C 73.8 43.225 *L 0
*I *1435:Y O *C 68.33 43.275 *L 0 *D AND2XL

*CAP
1 *224 0.000111818
2 *1435:Y 2.12198e-05
3 *224:2 0.000133037568

*RES
1 *224:2 *1435:Y 6.98888302
2 *224 *224:2 3.8855
*END

*D_NET *225 0.000325084

*CONN
*P *225 O *C 73.8 44.175 *L 0
*I *1436:Y O *C 67.53 43.275 *L 0 *D AND2XL

*CAP
1 *225 0.000142157
2 *1436:Y 2.0385e-05
3 *225:2 0.000162541865

*RES
1 *225:2 *1436:Y 6.92546368
2 *225 *225:2 4.79264
*END

*D_NET *226 0.000368834

*CONN
*P *226 O *C 73.8 45.315 *L 0
*I *1438:Y O *C 66.73 45.645 *L 0 *D AND2XL

*CAP
1 *226 0.000123561
2 *1438:Y 2.01455e-05
3 *226:2 0.000143706797
4 *226 *227 8.14199463e-05

*RES
1 *226:2 *1438:Y 6.80506229
2 *226 *226:2 5.39745
*END

*D_NET *227 0.000471473

*CONN
*P *227 O *C 73.8 46.265 *L 0
*I *1439:Y O *C 65.93 45.645 *L 0 *D AND2XL

*CAP
1 *227 5.44205e-05
2 *1439:Y 0.000140606
3 *227:2 0.000195026406
4 *227 *226 8.14199463e-05

*RES
1 *227:2 *1439:Y 11.2403631
2 *227 *227:2 2.07121
*END

*D_NET *228 0.000368714

*CONN
*P *228 O *C 73.8 47.405 *L 0
*I *1443:Y O *C 65.73 46.695 *L 0 *D AND2XL

*CAP
1 *228 0.000169695
2 *1443:Y 1.46619e-05
3 *228:2 0.000184357168

*RES
1 *228:2 *1443:Y 6.78193569
2 *228 *228:2 6.15337
*END

*D_NET *229 0.000622749

*CONN
*P *229 O *C 73.8 48.355 *L 0
*I *1444:Y O *C 64.53 45.645 *L 0 *D AND2XL

*CAP
1 *229 0.000197292
2 *1444:Y 0.000114083
3 *229:2 0.000311374668

*RES
1 *229:2 *1444:Y 8.86166096
2 *229 *229:2 6.98118
*END

*D_NET *230 0.000625134

*CONN
*P *230 O *C 73.8 49.495 *L 0
*I *1446:Y O *C 64.13 46.695 *L 0 *D AND2XL

*CAP
1 *230 5.44196e-05
2 *1446:Y 0.000258147
3 *230:2 0.000312566758

*RES
1 *230:2 *1446:Y 14.0405893
2 *230 *230:2 2.0713
*END

*D_NET *231 0.000814438

*CONN
*P *231 O *C 73.8 50.445 *L 0
*I *1447:Y O *C 63.73 45.645 *L 0 *D AND2XL

*CAP
1 *231 0.000214637
2 *1447:Y 0.000147521
3 *231:2 0.000362157813
4 *231:2 *95:75 9.01222266e-05

*RES
1 *231:2 *1447:Y 10.3729963
2 *231 *231:2 7.66531
*END

*D_NET *232 0.000773549

*CONN
*P *232 O *C 73.8 51.585 *L 0
*I *1450:Y O *C 63.33 46.695 *L 0 *D AND2XL

*CAP
1 *232 0.000231268
2 *1450:Y 0.000155507
3 *232:2 0.000386774531

*RES
1 *232:2 *1450:Y 9.94169712
2 *232 *232:2 7.96765
*END

*D_NET *233 0.00046134

*CONN
*P *233 O *C 73.8 52.535 *L 0
*I *1451:Y O *C 63.53 52.485 *L 0 *D AND2XL

*CAP
1 *233 0.000215053
2 *1451:Y 1.56173e-05
3 *233:2 0.00023066998

*RES
1 *233:2 *1451:Y 6.74922
2 *233 *233:2 7.66527653
*END

*D_NET *234 0.000598073

*CONN
*P *234 O *C 73.8 53.675 *L 0
*I *1469:Y O *C 62.73 52.485 *L 0 *D AND2XL

*CAP
1 *234 0.000228168
2 *1469:Y 7.0868e-05
3 *234:2 0.000299036504

*RES
1 *234:2 *1469:Y 7.84489
2 *234 *234:2 8.27002525
*END

*D_NET *235 0.000671148

*CONN
*P *235 O *C 73.8 54.625 *L 0
*I *1454:Y O *C 63.13 53.535 *L 0 *D AND2XL

*CAP
1 *1454:Y 0.000335574141
2 *235 0.000335574141

*RES
1 *235 *1454:Y 19.7976
*END

*D_NET *236 0.000561953

*CONN
*P *236 O *C 73.8 55.765 *L 0
*I *1459:Y O *C 63.13 55.905 *L 0 *D AND2XL

*CAP
1 *236 0.00012058
2 *1459:Y 0.000160397
3 *236:2 0.000280976289

*RES
1 *236:2 *1459:Y 12.696743
2 *236 *236:2 4.33913
*END

*D_NET *237 0.000791788

*CONN
*P *237 O *C 73.8 56.715 *L 0
*I *1460:Y O *C 61.13 55.905 *L 0 *D AND2XL

*CAP
1 *237 0.000231745
2 *1460:Y 7.98682e-05
3 *237:2 0.000311613086
4 *237 *95:77 0.000168561934

*RES
1 *237:2 *1460:Y 9.09662247
2 *237 *237:2 8.27005
*END

*D_NET *238 0.00078845

*CONN
*P *238 O *C 73.8 57.855 *L 0
*I *1462:Y O *C 62.13 55.905 *L 0 *D AND2XL

*CAP
1 *238 0.000292599
2 *1462:Y 0.000101626
3 *238:2 0.000394225117

*RES
1 *238:2 *1462:Y 8.21908
2 *238 *238:2 8.87477398
*END

*D_NET *239 0.000627995

*CONN
*P *239 O *C 73.8 58.805 *L 0
*I *1463:Y O *C 62.53 56.955 *L 0 *D AND2XL

*CAP
1 *239 0.000200391
2 *1463:Y 0.000113606
3 *239:2 0.000313997266

*RES
1 *239:2 *1463:Y 9.24623013
2 *239 *239:2 7.06052
*END

*D_NET *240 0.000880122

*CONN
*P *240 O *C 73.8 59.945 *L 0
*I *1466:Y O *C 61.73 56.955 *L 0 *D AND2XL

*CAP
1 *240 1.60916e-05
2 *1466:Y 0.00013244
3 *240:2 0.000247418
4 *240:3 0.000363767148
5 *240:2 *248 0.000120401387

*RES
1 *240:3 *1466:Y 9.94169712
2 *240 *240:2 0.445993
3 *240:2 *240:3 8.52317
*END

*D_NET *241 0.000642776

*CONN
*P *241 O *C 73.8 60.895 *L 0
*I *1467:Y O *C 64.73 59.325 *L 0 *D AND2XL

*CAP
1 *1467:Y 0.000321388242
2 *241 0.000321388242

*RES
1 *241 *1467:Y 18.6934
*END

*D_NET *242 0.000998974

*CONN
*P *242 O *C 73.8 62.035 *L 0
*I *1453:Y O *C 64.53 50.115 *L 0 *D AND2XL

*CAP
1 *242 0.000179053
2 *1453:Y 5.82934e-05
3 *242:2 0.000262141
4 *242:3 0.000185191
5 *242:4 0.000314295293

*RES
1 *242:4 *1453:Y 11.2600327
2 *242:3 *242:2 3.35725
3 *242:2 *242:4 8.45533
4 *242 *242:3 6.30456
*END

*D_NET *243 0.00079298

*CONN
*P *243 O *C 73.8 62.985 *L 0
*I *1470:Y O *C 63.93 59.325 *L 0 *D AND2XL

*CAP
1 *243 0.000221311
2 *1470:Y 0.000175179
3 *243:2 0.000396490078

*RES
1 *243:2 *1470:Y 10.833025
2 *243 *243:2 7.21166
*END

*D_NET *244 0.000861049

*CONN
*P *244 O *C 73.8 64.125 *L 0
*I *1474:Y O *C 60.53 60.375 *L 0 *D AND2XL

*CAP
1 *244 0.000219343
2 *1474:Y 9.82305e-05
3 *244:2 0.000317573555
4 *244 *245 0.000225901602

*RES
1 *244:2 *1474:Y 9.07994
2 *244 *244:2 10.0842714
*END

*D_NET *245 0.000880718

*CONN
*P *245 O *C 73.8 65.075 *L 0
*I *1475:Y O *C 61.33 60.375 *L 0 *D AND2XL

*CAP
1 *245 1.95515e-05
2 *1475:Y 0.000110746
3 *245:2 0.000216663
4 *245:3 0.000307857988
5 *245 *244 0.000225901602

*RES
1 *245:3 *1475:Y 9.51087475
2 *245:2 *245:3 9.28288
3 *245 *245:2 0.576434
*END

*D_NET *246 0.000948548

*CONN
*P *246 O *C 73.8 66.215 *L 0
*I *1477:Y O *C 58.33 60.375 *L 0 *D AND2XL

*CAP
1 *246 0.000330034
2 *1477:Y 0.00014424
3 *246:2 0.000474274141

*RES
1 *246:2 *1477:Y 10.6598
2 *246 *246:2 11.7473602
*END

*D_NET *247 0.0015955

*CONN
*P *247 O *C 73.8 67.165 *L 0
*I *1478:Y O *C 64.53 49.065 *L 0 *D AND2XL

*CAP
1 *247 0.000188529
2 *1478:Y 0.000545025
3 *247:2 0.000733554375
4 *247:2 *259:3 0.000128388408

*RES
1 *247:2 *1478:Y 21.9084015
2 *247 *247:2 6.60702
*END

*D_NET *248 0.00115252

*CONN
*P *248 O *C 73.8 68.305 *L 0
*I *1481:Y O *C 62.93 59.325 *L 0 *D AND2XL

*CAP
1 *1481:Y 0.000516057031
2 *248 0.000516057031
3 *248 *240:2 0.000120401387

*RES
1 *248 *1481:Y 29.0328
*END

*D_NET *249 0.00118387

*CONN
*P *249 O *C 73.8 69.255 *L 0
*I *1482:Y O *C 56.33 60.375 *L 0 *D AND2XL

*CAP
1 *249 0.000375447
2 *1482:Y 0.000216487
3 *249:2 0.000591933711

*RES
1 *249:2 *1482:Y 12.9578
2 *249 *249:2 13.2592916
*END

*D_NET *250 0.00120842

*CONN
*P *250 O *C 73.8 70.395 *L 0
*I *1484:Y O *C 57.13 60.375 *L 0 *D AND2XL

*CAP
1 *250 0.000359955
2 *1484:Y 0.000244257
3 *250:2 0.000604212266

*RES
1 *250:2 *1484:Y 13.8196945
2 *250 *250:2 12.6546
*END

*D_NET *251 0.00096035

*CONN
*P *251 O *C 73.8 71.345 *L 0
*I *1485:Y O *C 63.33 60.375 *L 0 *D AND2XL

*CAP
1 *251 0.000212967
2 *251:2 0.000219882
3 *251:3 0.000267207617
4 *251:4 0.000260292

*RES
1 *251:4 *1485:Y 3.29998
2 *251:3 *251:4 7.88066
3 *251:2 *251:3 3.35712
4 *251 *251:2 7.96771049
*END

*D_NET *252 0.00108731

*CONN
*P *252 O *C 73.8 72.485 *L 0
*I *1427:Y O *C 62.53 60.375 *L 0 *D AND2XL

*CAP
1 *252 0.000243606
2 *252:2 0.000250341
3 *252:3 0.000300049785
4 *252:4 0.000293315

*RES
1 *252:4 *1427:Y 3.2999
2 *252:3 *252:4 8.74245167
3 *252:2 *252:3 3.35712
4 *252 *252:2 8.5725
*END

*D_NET *253 0.00268769

*CONN
*P *253 O *C 73.8 0.095 *L 0
*I *2251:A I *C 53.9 10.925 *L 0.000395 *D INVX1
*I *2117:A I *C 51.1 11.115 *L 0.00039 *D NAND2X1
*I *2116:A I *C 50.5 11.115 *L 0.00039 *D NAND2X1
*I *2115:A I *C 50.7 9.595 *L 0.000392 *D NOR2X1
*I *2110:A I *C 51.3 7.505 *L 0.000392 *D NOR2X1
*I *1787:B0 I *C 52.765 17.835 *L 0.000389 *D AOI22X1
*I *1555:Q O *C 51.94 6.11 *L 0 *D DFFHQX1

*CAP
1 *253 0.000459192
2 *2251:A 7.98101e-05
3 *1787:B0 0.000279368
4 *1555:Q 5.78198e-06
5 *2117:A 3.20688e-05
6 *2115:A 1.94895e-05
7 *2116:A 1.49579e-05
8 *2110:A 0.000151873
9 *253:8 0.000444178
10 *253:9 1.22221e-05
11 *253:10 0.000616133203
12 *253:11 0.000227095
13 *253:12 0.000135364
14 *253:13 6.78889e-05
15 *253:14 0.000142274

*RES
1 *253:14 *2110:A 5.80586
2 *253:13 *253:14 0.763615
3 *2116:A *253:13 3.54604
4 *253:12 *253:13 3.69906
5 *2115:A *253:14 3.80316
6 *2117:A *253:12 7.28208
7 *2110:A *253:11 7.91922
8 *253:10 *253:11 7.86344
9 *253:9 *1555:Q 0.208801
10 *253:11 *253:9 3.37184
11 *1787:B0 *253:8 19.5485344
12 *253:8 *253:12 1.82939
13 *2251:A *253:8 11.3367
14 *253 *253:10 16.8878
*END

*D_NET *254 0.00292456

*CONN
*P *254 O *C 73.8 1.235 *L 0
*I *2181:A I *C 48.5 7.505 *L 0.000395 *D INVX1
*I *2107:A I *C 47.7 7.695 *L 0.00039 *D NAND2X1
*I *2106:A I *C 48.1 9.595 *L 0.000211 *D NAND2XL
*I *2103:A I *C 50.65 12.86 *L 0.000211 *D OR2X1
*I *2101:A I *C 49.85 12.86 *L 0.000211 *D OR2X1
*I *1781:B0 I *C 51.1 14.535 *L 0.000392 *D OAI22X1
*I *1779:A0N I *C 55.045 14.8 *L 0.000209 *D OAI2BB1X1
*I *1554:Q O *C 48.54 6.11 *L 0 *D DFFHQX1

*CAP
1 *254 0.000483037
2 *1779:A0N 0.000233117
3 *2103:A 2.12752e-05
4 *2101:A 2.99239e-05
5 *2181:A 4.32728e-05
6 *254:9 0.000347558
7 *254:10 0.000199255
8 *254:11 0.000648498516
9 *254:12 0.000228466
10 *254:13 0.000214157
11 *254:14 0.00022334
12 *254:15 8.48733e-05
13 *254:16 0.000167787

*RES
1 *254:16 *254:15 4.95732
2 *2107:A *254:16 3.29992
3 *254:14 *254:16 1.92013
4 *2106:A *254:14 3.29992
5 *254:15 *1554:Q 0.500088
6 *254:13 *254:15 3.33631
7 *2181:A *254:13 4.28796
8 *254:12 *254:14 2.98233
9 *2101:A *254:12 4.1289
10 *254:11 *254:13 8.1318
11 *254:10 *254:12 4.52946
12 *2103:A *254:10 6.75918
13 *254:9 *254:10 5.28428
14 *1781:B0 *254:9 3.29992
15 *1779:A0N *254:9 17.5022
16 *254 *254:11 18.0671215
*END

*D_NET *255 0.00257087

*CONN
*P *255 O *C 73.8 2.375 *L 0
*I *2180:A I *C 52.7 9.595 *L 0.000395 *D INVX1
*I *2117:B I *C 51.3 10.735 *L 0.000392 *D NAND2X1
*I *2110:B I *C 51.575 7.925 *L 0.000392 *D NOR2X1
*I *1770:A0N I *C 54.045 14.8 *L 0.000209 *D OAI2BB1X1
*I *1769:B0 I *C 52.3 14.535 *L 0.000392 *D OAI22X1
*I *1553:Q O *C 54.34 9.53 *L 0 *D DFFHQX1

*CAP
1 *255 0.000234724
2 *1553:Q 1.77607e-05
3 *1770:A0N 0.000118549
4 *2180:A 1.07256e-05
5 *1769:B0 7.80395e-06
6 *2110:B 4.9236e-05
7 *2117:B 6.18742e-05
8 *255:7 0.000629842266
9 *255:8 2.24123e-05
10 *255:9 0.000215714
11 *255:10 0.000120404
12 *255:11 5.99616e-05
13 *255:12 0.000452101
14 *255:13 0.00012469
15 *255:14 6.68141e-05
16 *255:13 *521:4 0.000140666963
17 *255:9 *1784:A1 0.000131130215
18 *255:8 *1553:CK 2.17557e-05
19 *255:7 *94:21 7.69496e-05
20 *255:7 *1553:CK 7.74859684e-06

*RES
1 *2117:B *255:14 7.6663
2 *2110:B *255:13 4.55097
3 *255:13 *255:12 4.83024
4 *255:11 *255:13 0.619762
5 *255:10 *255:11 0.763596
6 *255:14 *255:10 3.33637
7 *255:9 *255:10 3.28842
8 *1769:B0 *255:9 3.35722
9 *2180:A *255:11 3.57582
10 *1770:A0N *255:9 14.7158
11 *255:8 *1553:Q 3.6476
12 *255:12 *255:8 3.33637
13 *255:7 *255:12 17.7520523
14 *255 *255:7 8.87467
*END

*D_NET *256 0.00341654

*CONN
*P *256 O *C 73.8 3.325 *L 0
*I *2179:A I *C 58.9 21.185 *L 0.000395 *D INVX1
*I *2114:A I *C 49.9 23.275 *L 0.000392 *D NOR2X1
*I *2111:A I *C 50.1 21.185 *L 0.000392 *D NOR2X1
*I *2109:A I *C 48.9 23.085 *L 0.00039 *D NAND2X1
*I *1863:A I *C 48.37 24.75 *L 0.000212 *D NOR2XL
*I *1552:Q O *C 59.54 14.41 *L 0 *D DFFHQX1

*CAP
1 *256 0.000305477
2 *1552:Q 4.45825e-05
3 *2179:A 5.61506e-05
4 *2111:A 8.92308e-05
5 *2114:A 2.6107e-05
6 *2109:A 5.10214e-05
7 *1863:A 4.03532e-05
8 *256:7 7.02139e-05
9 *256:8 0.000479519375
10 *256:9 0.000320258
11 *256:10 0.000324253
12 *256:11 0.00029546
13 *256:12 0.000449359
14 *256:13 0.000122669
15 *256:14 0.000407871
16 *256:15 0.00012946
17 *256:14 *659:2 9.51290137e-05
18 *256 *257:6 0.000109434131

*RES
1 *256:15 *256:14 4.23504
2 *1863:A *256:15 4.07866
3 *2109:A *256:15 4.60384
4 *256:13 *256:14 3.48859
5 *256:14 *256:12 7.96766
6 *2114:A *256:13 4.11094
7 *2111:A *256:13 5.57726
8 *2179:A *256:11 10.5758
9 *256:10 *256:9 3.75787
10 *256:9 *256:8 9.17356
11 *256:8 *256:7 6.90526
12 *256:11 *256:8 3.77978
13 *256:12 *256:11 5.6174
14 *256:7 *1552:Q 4.14439
15 *256 *256:10 10.961175
*END

*D_NET *257 0.0031473

*CONN
*P *257 O *C 73.8 4.465 *L 0
*I *2177:A I *C 55.9 14.345 *L 0.000395 *D INVX1
*I *2113:A I *C 50.5 23.275 *L 0.000392 *D NOR2X1
*I *2111:B I *C 50.375 21.605 *L 0.000392 *D NOR2X1
*I *2109:B I *C 49.1 23.465 *L 0.000392 *D NAND2X1
*I *1551:Q O *C 57.34 12.95 *L 0 *D DFFHQX1

*CAP
1 *257 0.000224179
2 *2177:A 7.98493e-06
3 *1551:Q 4.43403e-05
4 *2113:A 5.09024e-05
5 *2111:B 1.07324e-05
6 *2109:B 3.39758e-05
7 *257:6 0.000560944
8 *257:7 0.000102222
9 *257:8 9.1428e-05
10 *257:9 0.000803828203
11 *257:10 0.000484284
12 *257:11 0.000138516
13 *257:10 *1085:4 0.0001142025
14 *2113:A *1856:B0 9.09566895e-05
15 *257:6 *392:4 0.000119030479
16 *257:6 *256 0.000109434131
17 *257 *258 0.000160336494

*RES
1 *2109:B *257:11 4.16189
2 *257:11 *257:10 1.88984
3 *257:10 *257:9 18.3105469
4 *2111:B *257:10 3.57237
5 *2113:A *257:11 7.7907
6 *257:8 *1551:Q 1.64034
7 *257:7 *257:8 4.14429
8 *2177:A *257:7 3.43155
9 *257:9 *257:7 7.48923
10 *257:6 *257:9 15.9393
11 *257 *257:6 8.27014
*END

*D_NET *258 0.00282681

*CONN
*P *258 O *C 73.8 5.415 *L 0
*I *2178:A I *C 54.9 19.855 *L 0.000395 *D INVX1
*I *2114:B I *C 50.175 22.855 *L 0.000392 *D NOR2X1
*I *2113:B I *C 50.775 22.855 *L 0.000392 *D NOR2X1
*I *1550:Q O *C 57.54 16.37 *L 0 *D DFFHQX1

*CAP
1 *258 0.000320735
2 *2178:A 8.15951e-05
3 *2113:B 5.84228e-06
4 *2114:B 2.05061e-05
5 *258:5 0.000237046
6 *258:6 0.000237225
7 *258:7 0.000341179
8 *258:8 0.000183169
9 *258:9 0.000586330898
10 *258:10 0.00036818
11 *258:10 *1011:5 9.94205469e-05
12 *258:9 *1069:7 8.8691709e-05
13 *258 *392:4 9.65595215e-05
14 *258 *257 0.000160336494

*RES
1 *2114:B *258:10 3.79518
2 *258:10 *258:9 24.959446
3 *2113:B *258:10 3.37167
4 *2178:A *258:9 8.05157
5 *258:9 *258:8 6.65004
6 *258:7 *258:6 3.75786
7 *258:6 *258:5 7.96017
8 *258:8 *1550:Q 3.30007
9 *258:5 *258:8 6.80504
10 *258 *258:7 12.3521
*END

*D_NET *259 0.00136542

*CONN
*P *259 O *C 73.8 73.435 *L 0
*I *1428:Y O *C 63.93 56.955 *L 0 *D AND2XL

*CAP
1 *259 0.00016624
2 *1428:Y 0.000126779
3 *259:2 0.00017226
4 *259:3 0.0003255
5 *259:4 0.000446259961
6 *259:3 *247:2 0.000128388408

*RES
1 *259:4 *1428:Y 7.15859
2 *259:3 *259:4 10.3224516
3 *259:2 *259:3 3.35713
4 *259 *259:2 6.30458
*END

*D_NET *260 0.00277007

*CONN
*P *260 I *C 0 2.185 *L 0
*I *2112:AN I *C 54.9 11.115 *L 0.00021 *D NAND2BX1

*CAP
1 *2112:AN 0.00079841
2 *260 0.000586623
3 *260:2 0.00138503313

*RES
1 *260:2 *260 22.4059
2 *2112:AN *260:2 46.5521812
*END

*D_NET *261 0.00131172

*CONN
*I *1201:A I *C 29.54 60.62 *L 0.00021 *D DLY1X1
*I *1354:Q O *C 15.1 60.895 *L 0 *D DFFQXL

*CAP
1 *1201:A 4.01177e-05
2 *1354:Q 6.34809e-05
3 *261:2 0.000476183
4 *261:3 0.000499546523
5 *261:2 *266:2 8.5294248e-05
6 *261:2 *273:2 0.000147104268

*RES
1 *261:3 *1354:Q 4.57497
2 *1201:A *261:2 7.52218
3 *261:2 *261:3 22.548317
*END

*D_NET *262 0.000226378

*CONN
*I *1195:A I *C 25.14 60.62 *L 0.00021 *D DLY1X1
*I *1353:Q O *C 23.74 62.29 *L 0 *D DFFHQX1

*CAP
1 *1195:A 6.91415e-05
2 *1353:Q 4.40477e-05
3 *262:2 0.000113189219

*RES
1 *262:2 *1353:Q 7.66601
2 *1195:A *262:2 20.9717751
*END

*D_NET *263 0.000686586

*CONN
*I *1206:A I *C 26.94 60.62 *L 0.00021 *D DLY1X1
*I *1352:Q O *C 17.3 62.225 *L 0 *D DFFQXL

*CAP
1 *1206:A 0.000218271
2 *1352:Q 2.49761e-05
3 *263:2 0.000243246563
4 *1206:A *267:2 0.000113844873
5 *1206:A *38:2 8.62479199e-05

*RES
1 *263:2 *1352:Q 3.8579
2 *1206:A *263:2 24.3481407
*END

*D_NET *264 0.000505447

*CONN
*I *1182:A I *C 27.34 62.5 *L 0.00021 *D DLY1X1
*I *1351:Q O *C 20.5 62.225 *L 0 *D DFFQXL

*CAP
1 *1351:Q 0.000164210801
2 *1182:A 0.000164210801
3 *1182:A *1353:CK 7.59959e-05
4 *1182:A *87:29 5.78167298e-06
5 *1182:A *267:2 9.52482227e-05

*RES
1 *1182:A *1351:Q 32.2964
*END

*D_NET *265 0.00168002

*CONN
*I *1196:A I *C 32.94 57.2 *L 0.00021 *D DLY1X1
*I *1350:Q O *C 11.9 58.805 *L 0 *D DFFQXL

*CAP
1 *1196:A 1.43675e-05
2 *1350:Q 5.20948e-05
3 *265:2 0.000207901
4 *265:3 0.000441431992
5 *265:4 0.000299993
6 *265:2 *380:4 0.00014448166
7 *265:2 *381:4 0.000305295
8 *265:2 *266:2 0.00021445752

*RES
1 *265:4 *1350:Q 4.14441
2 *265:3 *265:4 11.8162
3 *265:2 *265:3 8.82182
4 *1196:A *265:2 13.4041309
*END

*D_NET *266 0.00139695

*CONN
*I *1215:A I *C 23.14 60.62 *L 0.00021 *D DLY1X1
*I *1349:Q O *C 8.9 60.895 *L 0 *D DFFQXL

*CAP
1 *1215:A 0.000103893
2 *1349:Q 6.79475e-06
3 *266:2 0.000217674
4 *266:3 0.000103893
5 *266:4 9.45346e-05
6 *266:5 0.000305414199
7 *266:2 *261:2 8.5294248e-05
8 *266:2 *265:2 0.00021445752
9 *266:2 *273:2 0.000265002246

*RES
1 *266:5 *266:4 8.32911
2 *266:4 *1349:Q 0.239678
3 *266:3 *266:2 6.60009
4 *266:2 *266:5 10.9460354
5 *1215:A *266:3 8.67135
*END

*D_NET *267 0.000918865

*CONN
*I *1191:A I *C 24.54 64.04 *L 0.00021 *D DLY1X1
*I *1348:Q O *C 12.1 62.225 *L 0 *D DFFQXL

*CAP
1 *1191:A 6.59248e-05
2 *1348:Q 0.000288961
3 *267:2 0.000354886055
4 *267:2 *1206:A 0.000113844873
5 *267:2 *1182:A 9.52482227e-05

*RES
1 *267:2 *1348:Q 22.9223976
2 *1191:A *267:2 8.24018
*END

*D_NET *268 0.000768602

*CONN
*I *1203:A I *C 18.74 60.62 *L 0.00021 *D DLY1X1
*I *1347:Q O *C 8.9 64.315 *L 0 *D DFFQXL

*CAP
1 *1203:A 0.000253794
2 *1347:Q 7.78458e-05
3 *268:2 0.000331640234
4 *1203:A *271:2 0.000105321406

*RES
1 *268:2 *1347:Q 5.14882
2 *1203:A *268:2 24.4463692
*END

*D_NET *269 0.000658393

*CONN
*I *1180:A I *C 17.54 64.04 *L 0.00021 *D DLY1X1
*I *1346:Q O *C 5.5 64.315 *L 0 *D DFFQXL

*CAP
1 *1180:A 0.000133753
2 *1346:Q 0.000195443
3 *269:2 0.000329196445

*RES
1 *269:2 *1346:Q 11.848
2 *1180:A *269:2 17.5315132
*END

*D_NET *270 0.000973463

*CONN
*I *1207:A I *C 12.74 64.04 *L 0.00021 *D DLY1X1
*I *1345:Q O *C 5.5 62.225 *L 0 *D DFFQXL

*CAP
1 *1207:A 4.14265e-05
2 *1345:Q 1.27533e-05
3 *270:2 0.000378012656
4 *270:3 0.000349345
5 *270:2 *271:2 0.000191926953

*RES
1 *270:3 *1345:Q 0.485404
2 *1207:A *270:2 7.63634
3 *270:2 *270:3 23.23699
*END

*D_NET *271 0.00083822

*CONN
*I *1185:A I *C 15.74 62.5 *L 0.00021 *D DLY1X1
*I *1344:Q O *C 5.3 60.895 *L 0 *D DFFQXL

*CAP
1 *1185:A 5.87706e-05
2 *1344:Q 1.72254e-05
3 *271:2 0.00019449
4 *271:3 5.87706e-05
5 *271:4 0.000211715703
6 *271:2 *1203:A 0.000105321406
7 *271:2 *270:2 0.000191926953

*RES
1 *271:4 *1344:Q 6.80502
2 *1185:A *271:3 7.95316696
3 *271:3 *271:2 6.60005
4 *271:2 *271:4 7.92234
*END

*D_NET *272 0.000809908

*CONN
*I *1218:A I *C 15.94 55.66 *L 0.00021 *D DLY1X1
*I *1343:Q O *C 5.1 55.385 *L 0 *D DFFQXL

*CAP
1 *1218:A 1.71058e-05
2 *1343:Q 3.69542e-05
3 *272:2 0.000218213
4 *272:3 0.000238060957
5 *272:2 *277:2 0.000203251836
6 *272:2 *1337:D 9.63211035e-05

*RES
1 *272:3 *1343:Q 7.29235
2 *272:2 *272:3 8.5271
3 *1218:A *272:2 13.5477781
*END

*D_NET *273 0.00111306

*CONN
*I *1226:A I *C 18.74 57.2 *L 0.00021 *D DLY1X1
*I *1342:Q O *C 5.3 58.805 *L 0 *D DFFQXL

*CAP
1 *1226:A 4.06517e-05
2 *1342:Q 1.25778e-05
3 *273:2 7.80238e-05
4 *273:3 0.000217318535
5 *273:4 0.000187219
6 *273:5 1.985e-05
7 *273:3 *1341:D 0.000145316123
8 *273:2 *261:2 0.000147104268
9 *273:2 *266:2 0.000265002246

*RES
1 *273:5 *1342:Q 3.57246
2 *273:4 *273:5 3.34675
3 *273:3 *273:4 7.92236
4 *273:2 *273:3 9.04166698
5 *1226:A *273:2 7.52226
*END

*D_NET *274 0.000609338

*CONN
*I *1211:A I *C 15.54 59.08 *L 0.00021 *D DLY1X1
*I *1341:Q O *C 8.7 58.805 *L 0 *D DFFQXL

*CAP
1 *1341:Q 0.000197649004
2 *1211:A 0.000197649004
3 *1211:A *84:36 3.51667e-06
4 *1211:A *1341:CK 8.99434124e-05
5 *1211:A *1341:D 0.000120580195

*RES
1 *1211:A *1341:Q 25.6969
*END

*D_NET *275 0.000915885

*CONN
*I *1213:Y O *C 10.1 55.385 *L 0 *D DLY1X1
*I *1404:D I *C 18.1 52.155 *L 0.000307 *D DFFHQX1

*CAP
1 *1213:Y 0.000241815
2 *1404:D 0.000151039
3 *275:2 0.000392854219
4 *275:2 *1339:D 0.000130176543

*RES
1 *1404:D *275:2 6.48232
2 *275:2 *1213:Y 23.3908882
*END

*D_NET *276 0.000692964

*CONN
*I *1210:Y O *C 13.7 60.895 *L 0 *D DLY1X1
*I *1403:D I *C 17.5 53.865 *L 0.000307 *D DFFHQX1

*CAP
1 *1403:D 3.98172e-05
2 *1210:Y 0.000109849
3 *276:2 0.000236629
4 *276:3 0.000306665898

*RES
1 *276:3 *1210:Y 9.1023
2 *276:2 *276:3 14.6175623
3 *1403:D *276:2 4.09558
*END

*D_NET *277 0.00079906

*CONN
*I *1205:Y O *C 8.3 57.475 *L 0 *D DLY1X1
*I *1402:D I *C 14.3 53.865 *L 0.000307 *D DFFHQX1

*CAP
1 *1402:D 5.29292e-05
2 *1205:Y 6.46121e-05
3 *277:2 0.000112831
4 *277:3 0.000124514102
5 *277:2 *272:2 0.000203251836
6 *277:2 *1338:D 0.000240921973

*RES
1 *277:3 *1205:Y 7.80942
2 *1402:D *277:2 7.80942
3 *277:2 *277:3 18.1212425
*END

*D_NET *278 0.000717521

*CONN
*I *1198:A I *C 11.34 46.94 *L 0.00021 *D DLY1X1
*I *1337:Q O *C 8.54 53.99 *L 0 *D DFFHQX1

*CAP
1 *1198:A 9.56644e-05
2 *1337:Q 1.42445e-05
3 *278:2 0.000295042988
4 *278:3 0.000213623
5 *278:3 *1372:CK 1.82986e-05
6 *278:2 *1401:CK 2.08616e-06
7 *278:2 *84:44 7.34329e-05
8 *278:2 *84:50 5.12604665e-06

*RES
1 *278:3 *1337:Q 3.64777
2 *1198:A *278:2 8.67129
3 *278:2 *278:3 15.4043436
*END

*D_NET *279 0.00223434

*CONN
*I *1197:A I *C 25.14 45.4 *L 0.00021 *D DLY1X1
*I *1336:Q O *C 5.1 54.055 *L 0 *D DFFQXL

*CAP
1 *1197:A 8.29723e-05
2 *279:2 0.000627100469
3 *279:3 0.000544128
4 *279:2 *1505:CK 5.56111e-05
5 *279:2 *87:24 1.8537e-05
6 *279:2 *87:28 4.071e-05
7 *279:2 *87:32 2.57492e-05
8 *279:2 *1366:CK 5.47222684e-11
9 *279:2 *339:3 0.000279784199
10 *279:2 *371:5 0.000163853164
11 *1197:A *1397:D 0.000225782402
12 *1197:A *287:3 0.00017011166

*RES
1 *279:3 *1336:Q 0.49983
2 *279:2 *279:3 40.2913094
3 *1197:A *279:2 11.1131
*END

*D_NET *280 0.001333

*CONN
*I *1230:A I *C 14.14 41.98 *L 0.00021 *D DLY1X1
*I *1335:Q O *C 5.1 51.965 *L 0 *D DFFQXL

*CAP
1 *1230:A 4.53603e-05
2 *1335:Q 6.67904e-06
3 *280:2 0.000480473047
4 *280:3 0.000441792
5 *280:2 *1394:CK 0
6 *280:2 *1399:CK 4.11272e-06
7 *280:2 *1329:CK 7.84993e-05
8 *280:2 *1330:CK 2.26499059e-06
9 *280:2 *1329:D 8.2612041e-05
10 *280:2 *285:2 0.000191211699

*RES
1 *280:3 *1335:Q 0.23952
2 *280:2 *280:3 27.3947716
3 *1230:A *280:2 7.52211
*END

*D_NET *281 0.00134987

*CONN
*I *1200:A I *C 21.94 53.78 *L 0.00021 *D DLY1X1
*I *1334:Q O *C 7.54 50.57 *L 0 *D DFFHQX1

*CAP
1 *1334:Q 0.000384268
2 *1200:A 9.26287e-05
3 *281:2 0.000476896758
4 *281:2 *339:3 0.000235915176
5 *281:2 *371:5 0.000160157676

*RES
1 *1200:A *281:2 8.38422
2 *281:2 *1334:Q 35.6936455
*END

*D_NET *282 0.00188756

*CONN
*I *1183:A I *C 23.74 53.78 *L 0.00021 *D DLY1X1
*I *1333:Q O *C 5.3 48.545 *L 0 *D DFFQXL

*CAP
1 *1183:A 0.000106695
2 *1333:Q 2.13979e-05
3 *282:2 0.000188944
4 *282:3 0.000311078
5 *282:4 0.000371277344
6 *282:5 0.000163853
7 *282:3 *379:6 0.000167012207
8 *282:3 *315:2 0.000355482109
9 *282:3 *1393:D 0.000113248828
10 *1183:A *1392:D 8.85725e-05

*RES
1 *282:5 *1333:Q 3.6477
2 *282:4 *282:5 7.49318
3 *282:3 *282:4 9.99355316
4 *282:2 *282:3 8.7468
5 *1183:A *282:2 9.10225
*END

*D_NET *283 0.000936031

*CONN
*I *1212:Y O *C 8.5 23.275 *L 0 *D DLY1X1
*I *1396:D I *C 17.5 17.955 *L 0.000307 *D DFFHQX1

*CAP
1 *1212:Y 0.000328837
2 *1396:D 8.89914e-05
3 *283:2 0.000417828555
4 *283:2 *307:2 0.000100374219

*RES
1 *1396:D *283:2 5.46203
2 *283:2 *1212:Y 25.5941162
*END

*D_NET *284 0.000444889

*CONN
*I *1219:A I *C 10.74 40.1 *L 0.00021 *D DLY1X1
*I *1331:Q O *C 5.9 41.705 *L 0 *D DFFQXL

*CAP
1 *1219:A 5.42996e-05
2 *1331:Q 1.48412e-05
3 *284:2 0.000207602969
4 *284:3 0.000168145

*RES
1 *284:3 *1331:Q 3.57251
2 *284:2 *284:3 13.7189627
3 *1219:A *284:2 7.66584
*END

*D_NET *285 0.00115865

*CONN
*I *1227:A I *C 17.74 43.52 *L 0.00021 *D DLY1X1
*I *1330:Q O *C 5.1 47.215 *L 0 *D DFFQXL

*CAP
1 *1227:A 0.000225842
2 *1330:Q 1.07302e-05
3 *285:2 0.000421583672
4 *285:3 0.000204562
5 *285:4 1.95497e-05
6 *285:2 *342:6 8.51750391e-05
7 *285:2 *280:2 0.000191211699

*RES
1 *285:4 *1330:Q 3.57243
2 *285:3 *285:4 3.34676
3 *285:2 *285:3 7.94861
4 *1227:A *285:2 27.2362232
*END

*D_NET *286 0.000526786

*CONN
*I *1225:Y O *C 9.9 47.215 *L 0 *D DLY1X1
*I *1393:D I *C 14.9 48.735 *L 0.000307 *D DFFHQX1

*CAP
1 *1225:Y 0.000158131123
2 *1393:D 0.000158131123
3 *1393:D *1367:CK 3.99351e-06
4 *1393:D *84:41 9.3281271e-05
5 *1393:D *282:3 0.000113248828

*RES
1 *1393:D *1225:Y 24.9295
*END

*D_NET *287 0.00216842

*CONN
*I *1187:A I *C 25.14 52.24 *L 0.00021 *D DLY1X1
*I *1328:Q O *C 5.3 43.795 *L 0 *D DFFQXL

*CAP
1 *1187:A 3.73112e-05
2 *1328:Q 0.000176964
3 *287:2 0.000540971758
4 *287:3 0.000299035
5 *287:4 0.000456213
6 *287:4 *1394:CK 8.28505e-06
7 *287:4 *83:32 5.20945e-05
8 *287:4 *83:52 5.78165e-06
9 *287:4 *1328:CK 4.76837e-07
10 *287:2 *1394:CK 1.67488596e-05
11 *287:3 *1197:A 0.00017011166
12 *287:2 *1237:A 0.000197470195
13 *287:2 *289:2 0.000206947324

*RES
1 *287:4 *1328:Q 12.4706
2 *1187:A *287:3 7.52223
3 *287:2 *287:4 10.039
4 *287:3 *287:2 13.600111
*END

*D_NET *288 0.00233865

*CONN
*I *1188:A I *C 24.54 31.72 *L 0.00021 *D DLY1X1
*I *1327:Q O *C 9.5 43.795 *L 0 *D DFFQXL

*CAP
1 *1327:Q 0.000843286484
2 *1188:A 0.000843286484
3 *1188:A *345:7 0.0001526475
4 *1188:A *382:7 0.000135362148
5 *1188:A *348:3 0.000166177754
6 *1188:A *13:2 0.000197887422

*RES
1 *1188:A *1327:Q 65.8468
*END

*D_NET *289 0.001037

*CONN
*I *1216:A I *C 22.34 41.98 *L 0.00021 *D DLY1X1
*I *1326:Q O *C 9.1 41.705 *L 0 *D DFFQXL

*CAP
1 *1216:A 2.22305e-05
2 *1326:Q 0.000103115
3 *289:2 0.00031191
4 *289:3 0.000392794609
5 *289:2 *287:2 0.000206947324

*RES
1 *289:3 *1326:Q 9.44206
2 *289:2 *289:3 7.93753
3 *1216:A *289:2 13.5477781
*END

*D_NET *290 0.00135118

*CONN
*I *1193:Y O *C 10.1 40.375 *L 0 *D DLY1X1
*I *1389:D I *C 20.9 35.055 *L 0.000307 *D DFFHQX1

*CAP
1 *1193:Y 0.000480353828
2 *1389:D 0.000480353828
3 *1389:D *344:7 8.64863379e-05
4 *1389:D *291:2 0.000126481055
5 *1389:D *6:2 0.000177502637

*RES
1 *1389:D *1193:Y 42.595
*END

*D_NET *291 0.0011301

*CONN
*I *1184:A I *C 12.54 29.84 *L 0.00021 *D DLY1X1
*I *1324:Q O *C 9.5 38.285 *L 0 *D DFFQXL

*CAP
1 *1184:A 5.96652e-05
2 *1324:Q 9.59389e-06
3 *291:2 0.000422537344
4 *291:3 0.000372472
5 *291:2 *1389:D 0.000126481055
6 *291:2 *370:5 0.000139355664

*RES
1 *291:3 *1324:Q 0.270591
2 *1184:A *291:2 8.24057
3 *291:2 *291:3 38.8891678
*END

*D_NET *292 0.000746131

*CONN
*I *1222:A I *C 18.94 36.68 *L 0.00021 *D DLY1X1
*I *1323:Q O *C 12.7 38.285 *L 0 *D DFFQXL

*CAP
1 *1222:A 6.35369e-05
2 *1323:Q 1.05516e-05
3 *292:2 0.000256776816
4 *292:3 0.000203788
5 *292:2 *1388:D 0.000108063223
6 *1222:A *346:7 0.000103414063

*RES
1 *292:3 *1323:Q 0.270239
2 *292:2 *292:3 18.1831131
3 *1222:A *292:2 8.38405
*END

*D_NET *293 0.00135887

*CONN
*I *1189:A I *C 22.74 38.56 *L 0.00021 *D DLY1X1
*I *1322:Q O *C 6.3 38.285 *L 0 *D DFFQXL

*CAP
1 *1189:A 0.000461281
2 *1322:Q 3.11132e-05
3 *293:2 0.000492393984
4 *1189:A *294:2 0.000117778779
5 *1189:A *360:5 0.00025629998

*RES
1 *293:2 *1322:Q 4.00092
2 *1189:A *293:2 30.0555229
*END

*D_NET *294 0.00190991

*CONN
*I *1186:A I *C 21.14 28.3 *L 0.00021 *D DLY1X1
*I *1321:Q O *C 5.1 36.955 *L 0 *D DFFQXL

*CAP
1 *1186:A 0.000407638
2 *1321:Q 2.06282e-05
3 *294:2 0.000825822344
4 *294:3 0.000438813
5 *294:2 *1189:A 0.000117778779
6 *1186:A *346:7 9.92417383e-05

*RES
1 *294:3 *1321:Q 6.80509
2 *294:2 *294:3 10.6439
3 *1186:A *294:2 35.6754074
*END

*D_NET *295 0.000492871

*CONN
*I *1202:Y O *C 7.9 34.865 *L 0 *D DLY1X1
*I *1384:D I *C 12.7 36.765 *L 0.000307 *D DFFHQX1

*CAP
1 *1202:Y 0.000197470195
2 *1384:D 0.000197470195
3 *1384:D *83:28 5.16772e-05
4 *1384:D *83:34 1.78218e-05
5 *1384:D *83:39 1.80006e-05
6 *1384:D *1320:CK 1.04308287e-05

*RES
1 *1384:D *1202:Y 31.7748
*END

*D_NET *296 0.00111973

*CONN
*I *1228:A I *C 16.94 36.68 *L 0.00021 *D DLY1X1
*I *1319:Q O *C 5.1 33.535 *L 0 *D DFFQXL

*CAP
1 *1228:A 0.000124632
2 *1319:Q 2.00876e-05
3 *296:2 0.00042992832
4 *296:3 0.000325384
5 *296:2 *1318:D 0.000133395195
6 *1228:A *366:6 8.63075293e-05

*RES
1 *296:3 *1319:Q 6.92965
2 *296:2 *296:3 9.15829
3 *1228:A *296:2 12.6972198
*END

*D_NET *297 0.000351787

*CONN
*I *1220:Y O *C 12.9 34.865 *L 0 *D DLY1X1
*I *1382:D I *C 14.1 31.635 *L 0.000307 *D DFFHQX1

*CAP
1 *1220:Y 6.22867e-05
2 *1382:D 0.000113607
3 *297:2 0.000175893301

*RES
1 *1382:D *297:2 8.95857811
2 *297:2 *1220:Y 8.07005
*END

*D_NET *298 0.000568509

*CONN
*I *1190:A I *C 8.74 36.68 *L 0.00021 *D DLY1X1
*I *1317:Q O *C 5.1 40.375 *L 0 *D DFFQXL

*CAP
1 *1190:A 0.000139176
2 *1317:Q 0.000103117
3 *298:2 0.000242292891
4 *298:2 *154:2 8.39233398e-05

*RES
1 *298:2 *1317:Q 16.302824
2 *1190:A *298:2 9.82035
*END

*D_NET *299 0.000527859

*CONN
*I *1232:Y O *C 9.9 33.535 *L 0 *D DLY1X1
*I *1380:D I *C 16.3 33.345 *L 0.000307 *D DFFHQX1

*CAP
1 *1380:D 0.000125169
2 *1232:Y 0.000138761
3 *299:2 0.000263929375

*RES
1 *299:2 *1232:Y 16.17062
2 *1380:D *299:2 12.5765
*END

*D_NET *300 0.00246245

*CONN
*I *1236:A I *C 23.165 45.545 *L 0.00021 *D CLKBUFX2
*I *1315:Q O *C 5.1 31.445 *L 0 *D DFFQXL

*CAP
1 *1236:A 0.000627869
2 *1315:Q 1.99021e-05
3 *300:2 0.000999450703
4 *300:3 0.000391484
5 *300:2 *92:36 4.50015e-05
6 *300:2 *92:45 9.29832e-06
7 *300:2 *92:53 3.11136e-05
8 *300:2 *1382:CK 2.95639e-05
9 *1236:A *92:36 1.19253116e-07
10 *1236:A *333:3 9.53674316e-05
11 *1236:A *348:3 0.00021326541

*RES
1 *300:3 *1315:Q 6.80521
2 *300:2 *300:3 11.7018
3 *1236:A *300:2 37.3272896
*END

*D_NET *301 0.00092119

*CONN
*I *1224:A I *C 18.74 29.84 *L 0.00021 *D DLY1X1
*I *1314:Q O *C 8.1 30.115 *L 0 *D DFFQXL

*CAP
1 *1224:A 0.000244498
2 *1314:Q 1.58552e-05
3 *301:2 0.000260353086
4 *1224:A *368:7 0.000120103359
5 *1224:A *1376:D 0.0001526475
6 *1224:A *1181:A 0.000127732754

*RES
1 *301:2 *1314:Q 3.57239
2 *1224:A *301:2 25.3157616
*END

*D_NET *302 0.000781953

*CONN
*I *1209:Y O *C 11.7 26.695 *L 0 *D DLY1X1
*I *1377:D I *C 19.3 28.215 *L 0.000307 *D DFFHQX1

*CAP
1 *1209:Y 0.000332057461
2 *1377:D 0.000332057461
3 *1377:D *16:3 0.000117838379

*RES
1 *1377:D *1209:Y 28.0296
*END

*D_NET *303 0.000878632

*CONN
*I *1231:Y O *C 9.9 26.695 *L 0 *D DLY1X1
*I *1376:D I *C 16.5 29.925 *L 0.000307 *D DFFHQX1

*CAP
1 *1231:Y 0.000189006328
2 *1376:D 0.000189006328
3 *1376:D *123:22 0.000143945215
4 *1376:D *12:4 0.000114858154
5 *1376:D *1224:A 0.0001526475
6 *1376:D *10:5 8.91685449e-05

*RES
1 *1376:D *1231:Y 31.6501
*END

*D_NET *304 0.000938058

*CONN
*I *1214:Y O *C 6.7 23.275 *L 0 *D DLY1X1
*I *1375:D I *C 14.1 28.215 *L 0.000307 *D DFFHQX1

*CAP
1 *1375:D 5.11418e-05
2 *1214:Y 9.59896e-06
3 *304:2 0.000414133086
4 *304:3 0.00037259
5 *304:2 *147:5 9.05990625e-05

*RES
1 *304:3 *1214:Y 6.94764
2 *1375:D *304:2 4.18442
3 *304:2 *304:3 18.9424744
*END

*D_NET *305 0.000943243

*CONN
*I *1238:A I *C 15.365 28.445 *L 0.00021 *D CLKBUFX2
*I *1310:Q O *C 5.1 24.605 *L 0 *D DFFQXL

*CAP
1 *1238:A 0.000129283
2 *1310:Q 1.7763e-05
3 *305:2 0.000319719316
4 *305:3 0.000208199
5 *305:3 *1311:CK 1.37091e-05
6 *305:2 *1309:CK 5.93662e-05
7 *305:2 *85:37 8.46386e-06
8 *305:2 *85:44 7.62938816e-06
9 *305:2 *1176:A 9.75132031e-05
10 *305:2 *1239:A 8.15987598e-05

*RES
1 *305:3 *1310:Q 6.85081
2 *305:2 *305:3 7.85799
3 *1238:A *305:2 9.18674469
*END

*D_NET *306 0.000504196

*CONN
*I *1239:A I *C 15.965 25.025 *L 0.00021 *D CLKBUFX2
*I *1309:Q O *C 8.5 24.605 *L 0 *D DFFQXL

*CAP
1 *1309:Q 0.000211298457
2 *1239:A 0.000211298457
3 *1239:A *305:2 8.15987598e-05

*RES
1 *1239:A *1309:Q 19.2611
*END

*D_NET *307 0.000585914

*CONN
*I *1175:A I *C 9.34 23 *L 0.00021 *D DLY1X1
*I *1308:Q O *C 5.1 19.855 *L 0 *D DFFQXL

*CAP
1 *1308:Q 0.000181139
2 *1175:A 6.16306e-05
3 *307:2 0.000242769727
4 *307:2 *283:2 0.000100374219

*RES
1 *1175:A *307:2 8.52768
2 *307:2 *1308:Q 24.1391659
*END

*D_NET *308 0.00108808

*CONN
*I *1176:A I *C 16.54 21.46 *L 0.00021 *D DLY1X1
*I *1307:Q O *C 8.5 21.185 *L 0 *D DFFQXL

*CAP
1 *1307:Q 0.000434339063
2 *1176:A 0.000434339063
3 *1176:A *337:3 0.000121891494
4 *1176:A *305:2 9.75132031e-05

*RES
1 *1176:A *1307:Q 45.8367
*END

*D_NET *309 0.0026952

*CONN
*I *1237:A I *C 23.965 48.965 *L 0.00021 *D CLKBUFX2
*I *1306:Q O *C 12.3 21.185 *L 0 *D DFFQXL

*CAP
1 *1237:A 0.00042177
2 *1306:Q 0.000110205
3 *309:2 0.000973880313
4 *309:3 0.000662331
5 *309:2 *350:5 9.31620605e-05
6 *1237:A *287:2 0.000197470195
7 *1237:A *1392:D 9.45329688e-05
8 *1237:A *62:2 0.000141859053

*RES
1 *309:3 *1306:Q 12.4797
2 *309:2 *309:3 16.5625
3 *1237:A *309:2 64.5672073
*END

*D_NET *310 0.00201333

*CONN
*I *1178:A I *C 6.94 45.4 *L 0.00021 *D DLY1X1
*I *1305:Q O *C 8.7 19.855 *L 0 *D DFFQXL

*CAP
1 *1305:Q 1.88972e-05
2 *1178:A 0.000208019
3 *310:2 0.00059372
4 *310:3 0.000123322
5 *310:4 0.000697314766
6 *310:4 *315:4 0.000372052188

*RES
1 *1178:A *310:4 23.2168427
2 *310:3 *1305:Q 3.71478
3 *310:2 *310:3 8.58232
4 *310:4 *310:2 17.9841
*END

*D_NET *311 0.000423908

*CONN
*I *1194:Y O *C 9.9 16.435 *L 0 *D DLY1X1
*I *1368:D I *C 14.3 17.955 *L 0.000307 *D DFFHQX1

*CAP
1 *1368:D 0.000156523
2 *1194:Y 5.54312e-05
3 *311:2 0.000211954121

*RES
1 *311:2 *1194:Y 14.4095421
2 *1368:D *311:2 10.1704
*END

*D_NET *312 0.000551701

*CONN
*I *1177:A I *C 11.14 23 *L 0.00021 *D DLY1X1
*I *1303:Q O *C 10.5 16.435 *L 0 *D DFFQXL

*CAP
1 *1303:Q 0.000275850293
2 *1177:A 0.000275850293

*RES
1 *1177:A *1303:Q 15.6981
*END

*D_NET *313 0.00358462

*CONN
*I *1233:A I *C 20.765 52.385 *L 0.00021 *D CLKBUFX2
*I *1302:Q O *C 8.3 17.765 *L 0 *D DFFQXL

*CAP
1 *1233:A 8.70838e-05
2 *1302:Q 6.55961e-06
3 *313:2 0.000402091
4 *313:3 0.000447274
5 *313:4 0.000387729
6 *313:5 0.000341412
7 *313:6 0.000412406
8 *313:7 0.000156167
9 *313:8 0.000476062305
10 *313:6 *147:3 0.000342488281
11 *313:4 *162:2 0.000183701523
12 *1233:A *345:6 8.08238965e-05
13 *313:2 *376:6 0.000168263906
14 *313:2 *1400:D 9.25660156e-05

*RES
1 *313:8 *313:7 6.54079
2 *313:6 *313:8 8.5348
3 *313:5 *313:6 3.29603
4 *313:4 *313:5 7.81651
5 *313:7 *1302:Q 0.239719
6 *313:3 *313:4 6.12489
7 *1233:A *313:2 28.7207375
8 *313:2 *313:3 10.1261
*END

*D_NET *314 0.00352436

*CONN
*I *1234:A I *C 24.365 45.545 *L 0.00021 *D CLKBUFX2
*I *1301:Q O *C 5.1 16.435 *L 0 *D DFFQXL

*CAP
1 *1234:A 0.000540262
2 *1301:Q 2.15141e-05
3 *314:2 0.000770032422
4 *314:3 0.000335755
5 *314:4 0.000308213
6 *314:5 0.000223754
7 *314:4 *1540:CK 4.81606e-05
8 *314:4 *1360:CK 4.11272e-06
9 *314:2 *93:31 3.81469244e-05
10 *314:4 *120:7 0.000268220898
11 *314:4 *1303:D 0.000200629238
12 *1234:A *426:7 0.000108122822
13 *1234:A *334:4 0.000242948535
14 *1234:A *332:7 0.000241160391
15 *1234:A *1173:A 0.000173330313

*RES
1 *314:5 *1301:Q 6.86099
2 *314:4 *314:5 10.5642
3 *314:3 *314:4 5.75069
4 *314:2 *314:3 11.0407
5 *1234:A *314:2 39.6754761
*END

*D_NET *315 0.0031209

*CONN
*I *1235:A I *C 22.765 48.965 *L 0.00021 *D CLKBUFX2
*I *1300:Q O *C 10.5 13.015 *L 0 *D DFFQXL

*CAP
1 *1235:A 1.4955e-05
2 *1300:Q 4.41733e-06
3 *315:2 0.000223155
4 *315:3 0.000229355
5 *315:4 0.000688371
6 *315:5 0.000871956328
7 *315:6 0.000209158
8 *315:4 *310:4 0.000372052188
9 *315:2 *123:17 0.000151991846
10 *315:2 *282:3 0.000355482109

*RES
1 *315:6 *1300:Q 0.165719
2 *315:5 *315:6 20.848
3 *315:4 *315:5 23.4569321
4 *315:3 *315:4 3.87131
5 *1235:A *315:2 13.4043
6 *315:2 *315:3 8.93522
*END

*D_NET *316 0.000270963

*CONN
*I *1289:A I *C 6.7 14.535 *L 0.00021 *D BUFX2
*I *1299:Q O *C 5.1 13.015 *L 0 *D DFFQXL

*CAP
1 *1299:Q 8.6546e-05
2 *1289:A 4.89354e-05
3 *316:2 0.000135481357

*RES
1 *1289:A *316:2 4.37014
2 *316:2 *1299:Q 11.4217997
*END

*D_NET *317 0.00370777

*CONN
*I *1179:A I *C 26.965 53.635 *L 0.00021 *D CLKBUFX2
*I *1298:Q O *C 8.1 14.345 *L 0 *D DFFQXL

*CAP
1 *1179:A 3.96367e-05
2 *1298:Q 2.71202e-05
3 *317:2 0.000194611
4 *317:3 3.96367e-05
5 *317:4 0.000342667
6 *317:5 0.000201048
7 *317:6 0.000499248516
8 *317:7 0.000370504
9 *317:8 0.000213267
10 *317:9 0.000289082
11 *317:10 0.000414071
12 *317:11 0.000157892
13 *317:7 *337:3 0.000109434131
14 *317:4 *89:45 2.76566e-05
15 *317:4 *89:46 3.26633e-05
16 *317:4 *1381:CK 2.05636011e-05
17 *317:4 *367:4 0.000183701523
18 *317:4 *120:3 0.000185608867
19 *317:2 *22:2 8.33868945e-05
20 *317:2 *372:3 0.000275969512

*RES
1 *317:11 *1298:Q 0.976772
2 *317:10 *317:11 9.33456
3 *317:9 *317:10 7.6199
4 *317:8 *317:9 3.34688
5 *317:7 *317:8 9.17347
6 *317:6 *317:7 5.5941
7 *317:5 *317:4 3.35726
8 *317:4 *317:6 11.3278627
9 *1179:A *317:3 7.52224
10 *317:3 *317:2 6.60008
11 *317:2 *317:5 7.46865
*END

*D_NET *318 0.000717103

*CONN
*I *1229:A I *C 20.94 12.74 *L 0.00021 *D DLY1X1
*I *1297:Q O *C 12.7 14.345 *L 0 *D DFFQXL

*CAP
1 *1297:Q 0.000183942
2 *1229:A 9.01204e-05
3 *318:2 0.000274062148
4 *318:2 *93:41 2.80738e-05
5 *318:2 *1540:CK 7.48038e-05
6 *318:2 *93:42 5.87106e-05
7 *318:2 *1360:CK 7.39096579e-06

*RES
1 *1229:A *318:2 8.6714
2 *318:2 *1297:Q 20.1656818
*END

*D_NET *319 0.00106764

*CONN
*I *1199:Y O *C 11.5 6.175 *L 0 *D DLY1X1
*I *1360:D I *C 17.9 16.245 *L 0.000307 *D DFFHQX1

*CAP
1 *1199:Y 0.00040257
2 *1360:D 0.000131249
3 *319:2 0.00053381918

*RES
1 *1360:D *319:2 6.48262
2 *319:2 *1199:Y 26.1620293
*END

*D_NET *320 0.000352263

*CONN
*I *1192:Y O *C 13.7 7.505 *L 0 *D DLY1X1
*I *1359:D I *C 15.7 11.115 *L 0.000307 *D DFFHQX1

*CAP
1 *1192:Y 0.000123979
2 *1359:D 5.21528e-05
3 *320:2 0.000176131719

*RES
1 *1359:D *320:2 4.47174
2 *320:2 *1192:Y 19.3285942
*END

*D_NET *321 0.00122488

*CONN
*I *1208:A I *C 19.34 9.32 *L 0.00021 *D DLY1X1
*I *1294:Q O *C 8.9 7.505 *L 0 *D DFFQXL

*CAP
1 *1208:A 0.000123324
2 *321:2 0.000265537
3 *321:3 0.000123324
4 *321:4 0.00044751168
5 *321:5 0.000181975
6 *321:2 *1300:D 8.32080859e-05

*RES
1 *321:5 *1294:Q 0.499929
2 *321:4 *321:5 10.7104778
3 *1208:A *321:3 9.10217
4 *321:3 *321:2 6.60008
5 *321:2 *321:4 7.99788
*END

*D_NET *322 0.00117964

*CONN
*I *1204:Y O *C 6.7 6.175 *L 0 *D DLY1X1
*I *1357:D I *C 25.3 11.115 *L 0.000307 *D DFFHQX1

*CAP
1 *1357:D 9.24475e-05
2 *1204:Y 0.000167966
3 *322:2 0.000226022
4 *322:3 9.91839e-05
5 *322:4 0.000387251367
6 *322:4 *184:2 0.000120460986
7 *322:4 *185:2 8.63075293e-05

*RES
1 *322:4 *1204:Y 20.2152729
2 *1357:D *322:3 5.90795
3 *322:3 *322:2 3.3468
4 *322:2 *322:4 8.37594
*END

*D_NET *323 0.000900149

*CONN
*I *1223:Y O *C 9.5 6.175 *L 0 *D DLY1X1
*I *1356:D I *C 18.9 11.115 *L 0.000307 *D DFFHQX1

*CAP
1 *1223:Y 0.000389515
2 *1356:D 6.05594e-05
3 *323:2 0.000450074688

*RES
1 *1356:D *323:2 4.61548
2 *323:2 *1223:Y 26.7444839
*END

*D_NET *324 0.000843942

*CONN
*I *1221:Y O *C 9.9 13.015 *L 0 *D DLY1X1
*I *1355:D I *C 22.1 11.115 *L 0.000307 *D DFFHQX1

*CAP
1 *1355:D 3.30808e-05
2 *1221:Y 4.63729e-05
3 *324:2 0.000283837324
4 *324:3 6.28829e-05
5 *324:4 0.000267267
6 *324:2 *93:39 2.78354e-05
7 *324:2 *93:45 5.31673e-05
8 *324:2 *1359:CK 5.26309e-05
9 *1355:D *93:39 1.68681289e-05

*RES
1 *324:4 *324:3 6.82563
2 *324:3 *1221:Y 7.60652
3 *324:2 *324:4 8.79919529
4 *1355:D *324:2 7.47172
*END

*D_NET *325 0.00380528

*CONN
*I *2039:A0 I *C 33.7 9.785 *L 0.000391 *D AOI21X1
*I *2027:B0 I *C 37.3 9.595 *L 0.00039 *D OAI211X1
*I *1418:Q O *C 26.54 58.87 *L 0 *D DFFHQX1

*CAP
1 *2027:B0 0.000128919
2 *2039:A0 2.11553e-05
3 *1418:Q 4.38659e-05
4 *325:3 0.000323536
5 *325:4 0.000943779922
6 *325:5 0.000924108
7 *325:6 0.000491684
8 *325:7 0.000381775
9 *325:4 *335:4 0.00036358832
10 *325:3 *2021:B0 0.000182867051

*RES
1 *325:7 *1418:Q 4.33626
2 *325:6 *325:5 8.96181
3 *325:5 *325:4 20.7431316
4 *325:4 *325:7 15.3519
5 *325:3 *325:6 7.77678
6 *2039:A0 *325:3 6.80507
7 *2027:B0 *325:3 9.59389
*END

*D_NET *326 0.00344002

*CONN
*I *2047:A0 I *C 28.665 12.97 *L 0.000788 *D AOI21X2
*I *2025:B0 I *C 27.1 13.015 *L 0.00039 *D OAI211X1
*I *1417:Q O *C 23.34 58.87 *L 0 *D DFFHQX1

*CAP
1 *2047:A0 2.1104e-05
2 *2025:B0 3.21893e-05
3 *1417:Q 0.000153718
4 *326:3 0.000140252
5 *326:4 0.000599207
6 *326:5 0.000525476
7 *326:6 0.000617149
8 *326:7 0.000624120234
9 *326:5 *1262:A 0.000207662578
10 *326:5 *1074:17 0.000339984883
11 *326:5 *369:3 0.000179171563

*RES
1 *326:7 *326:6 16.929388
2 *326:6 *326:5 3.86295
3 *326:5 *326:4 13.7696
4 *326:4 *1417:Q 13.3963
5 *2025:B0 *326:3 3.83298
6 *326:3 *326:7 8.29523
7 *2047:A0 *326:3 3.79191
*END

*D_NET *327 0.00357437

*CONN
*I *2043:A0 I *C 38.1 7.315 *L 0.000391 *D AOI21X1
*I *2024:B0 I *C 40.5 7.505 *L 0.00039 *D OAI211X1
*I *1416:Q O *C 32.94 58.87 *L 0 *D DFFHQX1

*CAP
1 *2024:B0 0.000114566
2 *2043:A0 2.97401e-05
3 *1416:Q 7.92112e-05
4 *327:3 0.000279786
5 *327:4 0.000105615
6 *327:5 0.00107407
7 *327:6 0.000263338
8 *327:7 0.00117552281
9 *327:7 *90:41 1.38879e-05
10 *327:5 *1506:CK 1.63317e-05
11 *327:5 *90:41 2.71201e-05
12 *327:5 *90:40 2.34841967e-05
13 *327:5 *433:5 8.70823828e-05
14 *327:5 *708:7 0.000143468379
15 *327:5 *1083:14 0.000141143799

*RES
1 *327:7 *327:6 6.79991
2 *327:5 *327:7 30.2189598
3 *327:6 *327:4 6.91565
4 *327:4 *1416:Q 5.14916
5 *327:3 *327:5 7.18678
6 *2043:A0 *327:3 7.04476
7 *2024:B0 *327:3 8.97863
*END

*D_NET *328 0.00322872

*CONN
*I *2044:A0 I *C 29.465 9.55 *L 0.000788 *D AOI21X2
*I *2021:B0 I *C 31.5 9.595 *L 0.00039 *D OAI211X1
*I *1415:Q O *C 29.34 57.41 *L 0 *D DFFHQX1

*CAP
1 *2021:B0 0.000109137
2 *1415:Q 3.03413e-05
3 *2044:A0 3.21894e-05
4 *328:3 4.77996e-05
5 *328:4 0.00031573
6 *328:5 0.000371577
7 *328:6 0.000420032
8 *328:7 0.000587940234
9 *328:8 0.00056082
10 *328:9 0.000326873
11 *328:10 0.000148593
12 *328:8 *1089:17 9.48309863e-05
13 *2021:B0 *325:3 0.000182867051

*RES
1 *2044:A0 *328:10 7.13808
2 *328:10 *328:9 3.34673
3 *328:9 *328:8 8.95798
4 *328:8 *328:7 8.2398
5 *328:7 *328:6 9.30568
6 *328:6 *328:5 1.85962
7 *328:5 *328:4 9.39643383
8 *328:3 *1415:Q 3.79135
9 *328:4 *328:3 6.80502
10 *2021:B0 *328:10 8.97791
*END

*D_NET *329 0.00359619

*CONN
*I *2090:A0 I *C 36.3 14.155 *L 0.000391 *D AOI21X1
*I *2019:B0 I *C 35.7 14.345 *L 0.00039 *D OAI211X1
*I *1414:Q O *C 26.14 57.41 *L 0 *D DFFHQX1

*CAP
1 *2090:A0 2.87896e-05
2 *2019:B0 1.8184e-05
3 *1414:Q 3.14738e-05
4 *329:3 0.000339572
5 *329:4 9.14951e-05
6 *329:5 5.17971e-05
7 *329:6 0.000415921
8 *329:7 0.000661313516
9 *329:8 0.000549737
10 *329:9 0.000292356
11 *329:10 0.000303386
12 *329:7 *1074:17 0.000470995898
13 *329:7 *430:6 8.64267383e-05
14 *329:7 *385:9 0.000139951709
15 *329:3 *2090:B0 0.000114798545

*RES
1 *329:10 *329:9 3.34674
2 *329:9 *329:8 9.37002
3 *329:8 *329:7 10.1071
4 *329:7 *329:6 12.5561953
5 *329:5 *1414:Q 3.79142
6 *329:6 *329:5 6.80498
7 *2019:B0 *329:4 3.55327
8 *329:4 *329:3 4.28324
9 *329:3 *329:10 7.87694
10 *2090:A0 *329:4 3.86691
*END

*D_NET *330 0.00345027

*CONN
*I *2050:A0 I *C 24.1 14.155 *L 0.000391 *D AOI21X1
*I *1960:B0 I *C 25.7 14.345 *L 0.00039 *D OAI211X1
*I *1413:Q O *C 20.14 58.87 *L 0 *D DFFHQX1

*CAP
1 *1960:B0 8.37442e-05
2 *2050:A0 3.45114e-05
3 *1413:Q 8.69011e-05
4 *330:3 0.000519812109
5 *330:4 0.000463607
6 *330:5 0.000306549
7 *330:6 0.000495255
8 *330:7 0.000281873
9 *330:8 0.000126362
10 *330:9 0.000228167
11 *330:7 *92:34 1.06692e-05
12 *330:6 *1584:CK 5.17368e-05
13 *330:6 *92:34 4.01139e-05
14 *330:6 *92:40 1.311391e-06
15 *330:4 *388:5 0.000457286836
16 *330:4 *1391:D 0.000262379648

*RES
1 *330:9 *1413:Q 5.00545
2 *330:8 *330:7 3.34684
3 *330:7 *330:6 9.39642
4 *330:6 *330:5 8.66313
5 *330:5 *330:4 2.51733
6 *330:4 *330:3 12.7640963
7 *330:3 *330:9 9.78809
8 *2050:A0 *330:8 6.85085
9 *1960:B0 *330:8 7.99334
*END

*D_NET *331 0.00288963

*CONN
*I *2046:A0 I *C 33.1 17.575 *L 0.000391 *D AOI21X1
*I *2018:B0 I *C 32.1 16.435 *L 0.00039 *D OAI211X1
*I *1412:Q O *C 29.74 58.87 *L 0 *D DFFHQX1

*CAP
1 *2046:A0 7.97531e-05
2 *2018:B0 3.04663e-05
3 *1412:Q 4.63123e-05
4 *331:3 0.000130951
5 *331:4 0.00118142367
6 *331:5 0.00105918
7 *331:6 0.000189305
8 *331:5 *1658:A1 0.000172257422

*RES
1 *331:6 *1412:Q 4.33631
2 *331:5 *331:4 29.3457508
3 *331:4 *331:6 9.574
4 *331:3 *331:5 3.78419
5 *2018:B0 *331:3 6.8403
6 *2046:A0 *331:3 8.09587
*END

*D_NET *332 0.00333619

*CONN
*I *2034:A0 I *C 24.5 20.045 *L 0.000391 *D AOI21X1
*I *2016:B0 I *C 22.5 19.855 *L 0.00039 *D OAI211X1
*I *1411:Q O *C 20.74 57.41 *L 0 *D DFFHQX1

*CAP
1 *2034:A0 5.4477e-05
2 *2016:B0 1.0672e-05
3 *1411:Q 4.12473e-05
4 *332:3 7.97507e-05
5 *332:4 0.000451803203
6 *332:5 0.000399532
7 *332:6 0.000190973
8 *332:7 0.000355962
9 *332:8 0.000200631
10 *332:9 0.000114559
11 *332:7 *426:7 0.000104665752
12 *332:7 *386:7 0.000449299805
13 *332:7 *1234:A 0.000241160391
14 *332:7 *1385:D 0.000369787227
15 *332:5 *1392:D 8.16583643e-05
16 *2034:A0 *121:33 0.000105261807
17 *2034:A0 *2016:A1 8.47578027e-05

*RES
1 *332:9 *1411:Q 3.93492
2 *332:8 *332:7 10.307312
3 *332:7 *332:6 8.72369
4 *332:5 *332:4 9.33974
5 *332:6 *332:5 6.80507
6 *332:4 *332:9 8.14019
7 *332:3 *332:8 3.55839
8 *2016:B0 *332:3 10.0511
9 *2034:A0 *332:3 8.37737
*END

*D_NET *333 0.00239909

*CONN
*I *2042:A0 I *C 22.3 30.305 *L 0.000391 *D AOI21X1
*I *2015:B0 I *C 20.5 30.115 *L 0.00039 *D OAI211X1
*I *1410:Q O *C 20.54 55.45 *L 0 *D DFFHQX1

*CAP
1 *2042:A0 6.03166e-05
2 *2015:B0 5.69237e-05
3 *1410:Q 0.000134587
4 *333:3 0.000392436
5 *333:4 0.000338674
6 *333:5 0.00040859
7 *333:6 0.000446498398
8 *333:7 0.000124394
9 *333:8 0.000157594
10 *333:4 *121:38 0.000183701523
11 *333:3 *1236:A 9.53674316e-05

*RES
1 *333:8 *1410:Q 6.08942
2 *2015:B0 *333:7 7.47711
3 *333:6 *333:5 8.47413
4 *333:5 *333:8 0.483804
5 *333:4 *333:3 8.92388821
6 *333:7 *333:4 3.34687
7 *333:3 *333:6 1.39095
8 *2042:A0 *333:7 7.74604
*END

*D_NET *334 0.00333118

*CONN
*I *2052:A0 I *C 23.1 20.995 *L 0.000391 *D AOI21X1
*I *2013:B0 I *C 20.9 19.855 *L 0.00039 *D OAI211X1
*I *1409:Q O *C 16.94 58.87 *L 0 *D DFFHQX1

*CAP
1 *2052:A0 8.71397e-05
2 *2013:B0 7.53974e-05
3 *1409:Q 6.18121e-05
4 *334:3 0.000816047188
5 *334:4 0.00070292
6 *334:5 0.000186918
7 *334:6 0.00019932
8 *334:4 *426:7 0.000138103965
9 *334:4 *1173:A 0.000213980684
10 *334:4 *1945:B0 0.000240862363
11 *334:4 *387:6 0.00028204918
12 *334:4 *1234:A 0.000242948535
13 *334:3 *61:2 8.36849219e-05

*RES
1 *334:6 *1409:Q 4.71833
2 *2013:B0 *334:5 7.88947
3 *334:4 *334:3 27.1914005
4 *334:3 *334:6 10.5594
5 *334:5 *334:4 3.55825
6 *2052:A0 *334:5 8.08199
*END

*D_NET *335 0.00297832

*CONN
*I *2089:A0 I *C 29.1 23.465 *L 0.000391 *D AOI21X1
*I *2011:B0 I *C 27.3 21.185 *L 0.00039 *D OAI211X1
*I *1408:Q O *C 21.54 52.03 *L 0 *D DFFHQX1

*CAP
1 *2089:A0 5.53107e-05
2 *1408:Q 0.000304039
3 *2011:B0 6.34232e-05
4 *335:3 0.000122306
5 *335:4 0.000793516641
6 *335:5 0.000495846
7 *335:6 0.000136787
8 *335:5 *369:3 0.000413894648
9 *335:4 *339:3 0.00010609627
10 *335:4 *22:2 0.00012350082
11 *335:4 *325:4 0.00036358832

*RES
1 *2011:B0 *335:6 7.46046
2 *335:6 *335:5 3.34694
3 *335:5 *335:4 20.2329159
4 *335:4 *1408:Q 19.0181
5 *335:3 *335:6 4.61551
6 *2089:A0 *335:3 4.22219
*END

*D_NET *336 0.00302577

*CONN
*I *2059:A0 I *C 31.7 27.835 *L 0.000391 *D AOI21X1
*I *2010:B0 I *C 29.7 28.025 *L 0.00039 *D OAI211X1
*I *1407:Q O *C 18.34 53.99 *L 0 *D DFFHQX1

*CAP
1 *2059:A0 8.81582e-05
2 *2010:B0 3.77276e-05
3 *1407:Q 4.78e-05
4 *336:3 0.000553851
5 *336:4 0.0004403
6 *336:5 0.00085777
7 *336:6 0.000893235234
8 *336:3 *2087:A0 0.000106930732

*RES
1 *336:6 *336:5 9.67229
2 *336:5 *336:4 8.72349
3 *336:4 *1407:Q 4.07855
4 *336:3 *336:6 20.9361305
5 *2010:B0 *336:3 6.99458
6 *2059:A0 *336:3 8.30596
*END

*D_NET *337 0.00289756

*CONN
*I *2058:A0 I *C 17.7 23.465 *L 0.000391 *D AOI21X1
*I *2009:B0 I *C 16.5 23.275 *L 0.00039 *D OAI211X1
*I *1406:Q O *C 15.14 57.41 *L 0 *D DFFHQX1

*CAP
1 *2058:A0 9.98989e-05
2 *2009:B0 3.7974e-05
3 *1406:Q 8.75597e-05
4 *337:3 0.000353755
5 *337:4 0.000379444
6 *337:5 0.000882804375
7 *337:6 0.000728255
8 *337:7 9.65582e-05
9 *337:3 *317:7 0.000109434131
10 *337:3 *1176:A 0.000121891494

*RES
1 *337:7 *1406:Q 5.51481
2 *337:6 *337:5 11.169
3 *337:5 *337:4 8.15671
4 *337:4 *337:7 0.21184
5 *337:3 *337:6 16.3139114
6 *2009:B0 *337:3 6.85082
7 *2058:A0 *337:3 7.76091
*END

*D_NET *338 0.0026353

*CONN
*I *2069:A0 I *C 20.9 20.995 *L 0.000391 *D AOI21X1
*I *1948:B0 I *C 18.3 21.185 *L 0.00039 *D OAI211X1
*I *1405:Q O *C 17.34 55.45 *L 0 *D DFFHQX1

*CAP
1 *2069:A0 0.000131849
2 *1948:B0 4.07052e-05
3 *1405:Q 4.00556e-05
4 *338:3 0.000631031
5 *338:4 0.000686645469
6 *338:5 0.000278587
7 *338:6 9.0484e-05
8 *338:4 *1379:CK 3.3021e-05
9 *338:4 *89:38 4.1008e-05
10 *338:4 *89:39 4.55976e-05
11 *338:4 *89:41 2.13385e-05
12 *338:4 *1389:CK 7.16446753e-05
13 *338:4 *11:2 0.000141382217
14 *338:3 *120:2 0.000381946563

*RES
1 *338:6 *1405:Q 4.14444
2 *338:5 *338:4 6.75891
3 *1948:B0 *338:5 7.00475
4 *338:4 *338:3 22.10009
5 *338:3 *338:6 7.68189
6 *2069:A0 *338:5 9.22737
*END

*D_NET *339 0.00359035

*CONN
*I *2084:A0 I *C 31.9 20.995 *L 0.000391 *D AOI21X1
*I *2008:B0 I *C 30.3 21.185 *L 0.00039 *D OAI211X1
*I *1404:Q O *C 15.54 52.03 *L 0 *D DFFHQX1

*CAP
1 *2084:A0 9.27406e-05
2 *2008:B0 4.67331e-05
3 *1404:Q 2.48511e-05
4 *339:3 0.000625669961
5 *339:4 0.00025612
6 *339:5 0.000258326
7 *339:6 0.000148353
8 *339:7 0.000292657
9 *339:8 0.00028944
10 *339:9 0.000288246
11 *339:10 0.00034952
12 *339:11 3.35008e-05
13 *339:9 *368:5 0.000164985664
14 *339:5 *1089:17 9.73939941e-05
15 *339:3 *335:4 0.00010609627
16 *339:3 *279:2 0.000279784199
17 *339:3 *281:2 0.000235915176

*RES
1 *339:11 *1404:Q 3.71491
2 *339:10 *339:11 3.34675
3 *339:9 *339:8 8.58749
4 *339:8 *339:7 0.181478
5 *339:6 *339:5 3.35716
6 *339:5 *339:4 8.12635
7 *339:4 *339:9 0.181478
8 *339:7 *339:3 10.9506
9 *339:3 *339:10 12.185812
10 *2008:B0 *339:6 7.14849
11 *2084:A0 *339:6 8.11613
*END

*D_NET *340 0.00265753

*CONN
*I *2041:A0 I *C 19.1 26.885 *L 0.000391 *D AOI21X1
*I *1959:B0 I *C 17.3 24.605 *L 0.00039 *D OAI211X1
*I *1403:Q O *C 14.94 53.99 *L 0 *D DFFHQX1

*CAP
1 *2041:A0 1.44226e-05
2 *1959:B0 0.000131667
3 *1403:Q 6.67539e-06
4 *340:3 0.000533169
5 *340:4 1.37119e-05
6 *340:5 0.000366389
7 *340:6 0.000735761
8 *340:7 0.000763475859
9 *340:6 *1399:D 9.22679883e-05

*RES
1 *340:7 *340:6 8.65942
2 *340:6 *340:5 8.80294
3 *340:4 *1403:Q 0.239501
4 *340:5 *340:4 3.35717
5 *1959:B0 *340:3 6.16889
6 *340:3 *340:7 15.1213408
7 *2041:A0 *340:3 3.52353
*END

*D_NET *341 0.00444067

*CONN
*I *2036:A0 I *C 60.1 23.465 *L 0.000391 *D AOI21X1
*I *2006:B0 I *C 62.5 23.275 *L 0.00039 *D OAI211X1
*I *1402:Q O *C 11.74 53.99 *L 0 *D DFFHQX1

*CAP
1 *2006:B0 0.000101743
2 *2036:A0 3.48044e-05
3 *1402:Q 0.000209393
4 *341:3 0.00025141
5 *341:4 0.000951170938
6 *341:5 0.000502473
7 *341:6 0.00070053
8 *341:7 0.00044626
9 *341:8 0.000271977
10 *341:9 0.000880415
11 *341:6 *705:6 9.04798535e-05

*RES
1 *341:9 *341:8 1.8747
2 *341:8 *1402:Q 18.1281
3 *341:7 *341:6 9.31684
4 *341:6 *341:5 10.5907
5 *341:5 *341:4 7.1786
6 *341:4 *341:9 28.7864208
7 *341:3 *341:7 5.67901
8 *2036:A0 *341:3 6.84038
9 *2006:B0 *341:3 8.6079
*END

*D_NET *342 0.00482684

*CONN
*I *2053:A0 I *C 59.9 26.885 *L 0.000391 *D AOI21X1
*I *1966:B0 I *C 62.3 26.695 *L 0.00039 *D OAI211X1
*I *1401:Q O *C 10.74 50.57 *L 0 *D DFFHQX1

*CAP
1 *1966:B0 0.000103711
2 *2053:A0 2.86131e-05
3 *1401:Q 0.000110384
4 *342:3 0.000857412813
5 *342:4 0.000374797
6 *342:5 0.000420039
7 *342:6 0.000519341
8 *342:7 0.000824626
9 *342:6 *384:8 0.000166535371
10 *342:6 *285:2 8.51750391e-05
11 *342:4 *1163:3 0.000153899189
12 *342:3 *428:4 0.000556468945
13 *342:3 *355:4 0.000625848789

*RES
1 *342:7 *342:6 6.01746
2 *342:5 *1401:Q 5.8672
3 *342:6 *342:5 20.9059
4 *342:4 *342:3 14.7436
5 *342:3 *342:7 29.1341553
6 *2053:A0 *342:4 6.96613
7 *1966:B0 *342:4 8.88126
*END

*D_NET *343 0.00419414

*CONN
*I *2055:A0 I *C 59.9 24.415 *L 0.000391 *D AOI21X1
*I *2005:B0 I *C 62.3 24.605 *L 0.00039 *D OAI211X1
*I *1400:Q O *C 15.54 48.61 *L 0 *D DFFHQX1

*CAP
1 *2005:B0 0.000111399
2 *2055:A0 3.27799e-05
3 *1400:Q 3.24902e-05
4 *343:3 0.000197053
5 *343:4 0.000779572
6 *343:5 0.000571186
7 *343:6 0.000617737
8 *343:7 0.000247237
9 *343:8 0.000232452
10 *343:9 0.000790953672
11 *343:6 *705:6 0.000148355957
12 *343:4 *433:4 0.000432908516

*RES
1 *343:9 *343:8 0.513918
2 *343:7 *1400:Q 3.8579
3 *343:8 *343:7 14.3396
4 *343:6 *343:5 16.2112
5 *343:5 *343:4 3.35716
6 *343:4 *343:9 28.7864208
7 *343:3 *343:6 4.60945
8 *2055:A0 *343:3 6.90099
9 *2005:B0 *343:3 8.66808
*END

*D_NET *344 0.00407094

*CONN
*I *2056:A0 I *C 60.265 28.07 *L 0.000788 *D AOI21X2
*I *2003:B0 I *C 62.3 30.115 *L 0.00039 *D OAI211X1
*I *1399:Q O *C 11.54 45.19 *L 0 *D DFFHQX1

*CAP
1 *2003:B0 9.67457e-05
2 *2056:A0 6.47295e-05
3 *344:3 0.000221023
4 *344:4 7.26629e-05
5 *344:5 0.00109827
6 *344:6 0.000266795
7 *344:7 0.00039256
8 *344:8 0.000378785
9 *344:9 0.00123494867
10 *344:7 *1389:D 8.64863379e-05
11 *344:7 *12:2 0.000157952305

*RES
1 *344:9 *344:8 7.62004
2 *344:8 *344:7 12.5822
3 *344:7 *344:6 8.10365
4 *344:6 *1399:Q 3.30005
5 *344:5 *344:9 28.7864208
6 *2056:A0 *344:4 4.71838
7 *344:4 *344:3 3.35716
8 *344:3 *344:5 9.26677
9 *2003:B0 *344:3 8.59604
*END

*D_NET *345 0.00497556

*CONN
*I *2099:A0 I *C 55.7 31.255 *L 0.000391 *D AOI21X1
*I *2017:B0 I *C 62.5 31.445 *L 0.00039 *D OAI211X1
*I *1398:Q O *C 12.34 52.03 *L 0 *D DFFHQX1

*CAP
1 *2017:B0 0.000254211
2 *1398:Q 0.000323767
3 *345:3 0.000333494
4 *345:4 0.000866115078
5 *345:5 0.000793215
6 *345:6 0.00064057
7 *345:7 0.000323173
8 *345:7 *1188:A 0.0001526475
9 *345:6 *1398:D 0.000291526309
10 *345:6 *382:7 0.000238060957
11 *345:6 *1233:A 8.08238965e-05
12 *345:5 *387:6 0.000183701523
13 *345:4 *346:3 0.00035429
14 *2017:B0 *2099:A1 0.000139951709

*RES
1 *345:7 *345:6 12.764
2 *345:5 *345:7 3.34679
3 *345:6 *1398:Q 19.9901
4 *345:4 *345:5 26.5185833
5 *345:3 *345:4 11.3073
6 *2099:A0 *345:3 3.29985
7 *2017:B0 *345:3 16.5078
*END

*D_NET *346 0.00350237

*CONN
*I *2068:A0 I *C 59.3 33.725 *L 0.000391 *D AOI21X1
*I *1936:B0 I *C 62.3 33.535 *L 0.00039 *D OAI211X1
*I *1397:Q O *C 18.74 41.77 *L 0 *D DFFHQX1

*CAP
1 *1936:B0 0.00013202
2 *2068:A0 4.08261e-05
3 *1397:Q 4.63723e-05
4 *346:3 0.000332057
5 *346:4 0.000442324
6 *346:5 0.000395951
7 *346:6 0.000290279
8 *346:7 0.00064331293
9 *346:8 0.00030088
10 *346:7 *1186:A 9.92417383e-05
11 *346:7 *1222:A 0.000103414063
12 *346:4 *1092:17 0.000321388242
13 *346:3 *345:4 0.00035429

*RES
1 *346:8 *1397:Q 4.07862
2 *346:7 *346:8 15.7260895
3 *346:6 *346:5 0.173972
4 *346:5 *346:7 11.5508
5 *346:4 *346:6 15.0283
6 *346:3 *346:4 11.1215
7 *2068:A0 *346:3 6.85089
8 *1936:B0 *346:3 9.4847
*END

*D_NET *347 0.00305849

*CONN
*I *2054:A0 I *C 61.865 17.81 *L 0.000788 *D AOI21X2
*I *1964:B0 I *C 63.7 17.765 *L 0.00039 *D OAI211X1
*I *1396:Q O *C 14.94 17.83 *L 0 *D DFFHQX1

*CAP
1 *1964:B0 8.69003e-05
2 *2054:A0 2.08556e-05
3 *1396:Q 5.75134e-05
4 *347:3 0.000217439
5 *347:4 0.000794172266
6 *347:5 0.000151818
7 *347:6 0.000778794
8 *347:4 *1074:11 0.000248134141
9 *347:3 *1433:B 0.000702857969

*RES
1 *347:6 *347:5 3.08438
2 *347:5 *1396:Q 13.9013
3 *347:4 *347:6 28.7864208
4 *2054:A0 *347:3 6.89309
5 *347:3 *347:4 10.668
6 *1964:B0 *347:3 8.50863
*END

*D_NET *348 0.00208497

*CONN
*I *1169:A I *C 28.365 31.865 *L 0.00021 *D CLKBUFX2
*I *2035:A0 I *C 32.1 31.255 *L 0.000391 *D AOI21X1
*I *1395:Q O *C 13.34 36.89 *L 0 *D DFFHQX1

*CAP
1 *2035:A0 0.00013578
2 *1169:A 3.39749e-05
3 *1395:Q 0.000104368
4 *348:3 0.000561833398
5 *348:4 0.000399709
6 *348:5 0.000111998
7 *348:4 *1388:D 0.000179052344
8 *348:3 *1188:A 0.000166177754
9 *348:3 *1236:A 0.00021326541
10 *2035:A0 *693:5 0.000178813926

*RES
1 *348:5 *1395:Q 6.44141
2 *348:4 *348:5 3.34678
3 *1169:A *348:3 13.6913061
4 *348:3 *348:4 12.0499
5 *2035:A0 *348:3 10.3832
*END

*D_NET *349 0.00344181

*CONN
*I *2075:A0 I *C 60.3 43.985 *L 0.000391 *D AOI21X1
*I *1961:B0 I *C 62.7 43.795 *L 0.00039 *D OAI211X1
*I *1394:Q O *C 12.74 43.73 *L 0 *D DFFHQX1

*CAP
1 *1961:B0 0.000111517
2 *2075:A0 3.15923e-05
3 *1394:Q 6.91386e-05
4 *349:3 0.000314293
5 *349:4 0.000411091
6 *349:5 0.000344756
7 *349:6 0.000483512891
8 *349:7 0.000447811
9 *349:4 *431:4 0.000574707969
10 *349:4 *432:4 0.000653386133

*RES
1 *349:7 *1394:Q 14.4081
2 *349:6 *349:7 11.3996
3 *349:5 *349:6 3.73447
4 *349:4 *349:5 17.1447983
5 *349:3 *349:4 10.287
6 *2075:A0 *349:3 7.06161
7 *1961:B0 *349:3 8.81099
*END

*D_NET *350 0.00306916

*CONN
*I *2083:A0 I *C 47.5 38.095 *L 0.000391 *D AOI21X1
*I *1958:B0 I *C 46.9 38.285 *L 0.00039 *D OAI211X1
*I *1393:Q O *C 12.34 48.61 *L 0 *D DFFHQX1

*CAP
1 *2083:A0 3.4864e-05
2 *1958:B0 1.22731e-05
3 *1393:Q 0.000106691
4 *350:3 0.000147167
5 *350:4 0.00048941
6 *350:5 0.000723958047
7 *350:6 0.000441257
8 *350:5 *384:8 0.000132501123
9 *350:5 *309:2 9.31620605e-05
10 *350:3 *387:4 0.000427007656
11 *350:3 *352:4 0.000460863125

*RES
1 *350:6 *1393:Q 5.72351
2 *350:5 *350:6 20.4374
3 *350:4 *350:5 20.6221352
4 *350:3 *350:4 11.6534
5 *1958:B0 *350:3 3.40188
6 *2083:A0 *350:3 3.79522
*END

*D_NET *351 0.00306416

*CONN
*I *2057:A0 I *C 58.665 40.33 *L 0.000788 *D AOI21X2
*I *1957:B0 I *C 61.5 40.375 *L 0.00039 *D OAI211X1
*I *1392:Q O *C 20.54 43.73 *L 0 *D DFFHQX1

*CAP
1 *1957:B0 0.000143586
2 *2057:A0 2.05034e-05
3 *1392:Q 3.45094e-05
4 *351:3 0.000304163
5 *351:4 0.000297964
6 *351:5 0.000322582
7 *351:6 0.000164928
8 *351:7 0.000453948984
9 *351:8 0.000172914
10 *351:4 *385:4 0.000300765039
11 *351:4 *387:4 0.000502586367
12 *351:3 *422:4 0.000345706953

*RES
1 *351:8 *1392:Q 3.8579
2 *351:7 *351:8 12.5935
3 *351:6 *351:5 0.173802
4 *351:5 *351:7 16.3888931
5 *351:4 *351:6 7.46873
6 *2057:A0 *351:3 6.80503
7 *351:3 *351:4 11.5069
8 *1957:B0 *351:3 9.11072
*END

*D_NET *352 0.00334638

*CONN
*I *2064:A0 I *C 58.9 37.145 *L 0.000391 *D AOI21X1
*I *1956:B0 I *C 61.9 36.955 *L 0.00039 *D OAI211X1
*I *1391:Q O *C 18.54 40.31 *L 0 *D DFFHQX1

*CAP
1 *1956:B0 0.000146094
2 *2064:A0 2.95637e-05
3 *1391:Q 0.000109078
4 *352:3 0.000300225
5 *352:4 0.000724554063
6 *352:5 0.000128393
7 *352:6 0.00061929
8 *352:4 *415:4 0.000133693223
9 *352:4 *383:6 0.0006946325
10 *352:4 *350:3 0.000460863125

*RES
1 *352:6 *352:5 0.967659
2 *352:5 *1391:Q 14.6238
3 *352:4 *352:6 28.7864208
4 *352:3 *352:4 9.32695
5 *2064:A0 *352:3 7.06176
6 *1956:B0 *352:3 9.26414
*END

*D_NET *353 0.00252438

*CONN
*I *2065:A0 I *C 53.7 40.565 *L 0.000391 *D AOI21X1
*I *1946:B0 I *C 53.5 41.705 *L 0.00039 *D OAI211X1
*I *1390:Q O *C 15.54 41.77 *L 0 *D DFFHQX1

*CAP
1 *2065:A0 1.68721e-05
2 *1946:B0 2.06856e-05
3 *1390:Q 4.27927e-05
4 *353:3 0.000162954
5 *353:4 0.000757336641
6 *353:5 0.000674721
7 *353:3 *423:5 0.000290870664
8 *353:3 *385:4 0.000469326992
9 *2065:A0 *1946:C0 8.8810918e-05

*RES
1 *353:5 *1390:Q 26.982069
2 *353:4 *353:5 25.1578
3 *353:3 *353:4 14.1527
4 *1946:B0 *353:3 3.72807
5 *2065:A0 *353:3 3.78818
*END

*D_NET *354 0.00288439

*CONN
*I *2061:A0 I *C 58.9 34.675 *L 0.000391 *D AOI21X1
*I *1954:B0 I *C 62.3 34.865 *L 0.00039 *D OAI211X1
*I *1389:Q O *C 18.34 34.93 *L 0 *D DFFHQX1

*CAP
1 *1954:B0 0.000134761
2 *2061:A0 1.83603e-05
3 *1389:Q 2.02715e-05
4 *354:3 0.0002104
5 *354:4 0.00089133
6 *354:5 9.72211e-05
7 *354:6 0.000137505
8 *354:7 0.000894606094
9 *354:4 *97:15 0.000172555449
10 *354:4 *1856:A1 0.000149786475
11 *354:4 *705:6 0.000157594678

*RES
1 *354:7 *354:6 1.7236
2 *354:5 *1389:Q 0.503815
3 *354:6 *354:5 27.51
4 *354:4 *354:7 28.7864208
5 *354:3 *354:4 7.54317
6 *2061:A0 *354:3 6.74945
7 *1954:B0 *354:3 9.57732
*END

*D_NET *355 0.00294977

*CONN
*I *2062:A0 I *C 52.1 37.145 *L 0.000391 *D AOI21X1
*I *1950:B0 I *C 54.9 38.285 *L 0.00039 *D OAI211X1
*I *1388:Q O *C 21.74 40.31 *L 0 *D DFFHQX1

*CAP
1 *1950:B0 5.24547e-05
2 *2062:A0 3.41537e-05
3 *1388:Q 0.000356674
4 *355:3 0.000172855
5 *355:4 0.000227809
6 *355:5 0.000174105
7 *355:6 0.000564932813
8 *355:6 *1391:D 0.000108957295
9 *355:4 *424:7 0.000474989414
10 *355:4 *342:3 0.000625848789
11 *355:3 *356:3 0.000156998633

*RES
1 *355:6 *1388:Q 24.4171619
2 *355:5 *355:4 6.80511
3 *355:4 *355:6 14.2723
4 *2062:A0 *355:5 7.2168
5 *355:3 *355:5 5.83678
6 *1950:B0 *355:3 4.15236
*END

*D_NET *356 0.00317693

*CONN
*I *2037:A0 I *C 55.7 38.095 *L 0.000391 *D AOI21X1
*I *1947:B0 I *C 58.7 38.285 *L 0.00039 *D OAI211X1
*I *1387:Q O *C 15.94 38.35 *L 0 *D DFFHQX1

*CAP
1 *1947:B0 0.000139359
2 *2037:A0 4.56618e-05
3 *1387:Q 7.65315e-05
4 *356:3 0.000403944
5 *356:4 0.000720202891
6 *356:5 0.000577811
7 *356:4 *383:6 0.000456333164
8 *356:3 *424:6 0.000476956367
9 *356:3 *355:3 0.000156998633
10 *1947:B0 *420:6 0.000123143193

*RES
1 *356:5 *1387:Q 14.2567
2 *356:4 *356:5 23.6459961
3 *356:3 *356:4 13.4697
4 *2037:A0 *356:3 7.08521
5 *1947:B0 *356:3 10.0125
*END

*D_NET *357 0.00212777

*CONN
*I *2040:A0 I *C 41.1 38.095 *L 0.000391 *D AOI21X1
*I *1955:B0 I *C 41.7 40.375 *L 0.00039 *D OAI211X1
*I *1386:Q O *C 19.14 38.35 *L 0 *D DFFHQX1

*CAP
1 *1955:B0 4.73289e-05
2 *2040:A0 0.000111525
3 *1386:Q 0.000154851
4 *357:3 0.000545206
5 *357:4 0.000166713
6 *357:5 0.00069218875
7 *357:3 *1168:A 0.000409960742

*RES
1 *357:5 *1386:Q 9.78035
2 *357:4 *357:3 3.35727
3 *357:3 *357:5 15.1000023
4 *2040:A0 *357:4 5.2973
5 *1955:B0 *357:4 4.22222
*END

*D_NET *358 0.00193518

*CONN
*I *1168:A I *C 38.965 42.125 *L 0.00021 *D CLKBUFX2
*I *2095:A0 I *C 35.3 40.565 *L 0.000391 *D AOI21X1
*I *1385:Q O *C 15.34 40.31 *L 0 *D DFFHQX1

*CAP
1 *1168:A 0.000151036
2 *2095:A0 2.42555e-05
3 *1385:Q 0.000106929
4 *358:3 0.000590264805
5 *358:4 0.000521903
6 *358:3 *367:3 0.000130832197
7 *1168:A *357:3 0.000409960742

*RES
1 *358:4 *1385:Q 8.77393
2 *358:3 *358:4 13.6676
3 *2095:A0 *358:3 6.81201
4 *1168:A *358:3 16.9849396
*END

*D_NET *359 0.00195014

*CONN
*I *2092:A0 I *C 32.1 34.675 *L 0.000391 *D AOI21X1
*I *1943:B0 I *C 29.5 34.865 *L 0.00039 *D OAI211X1
*I *1384:Q O *C 10.14 36.89 *L 0 *D DFFHQX1

*CAP
1 *2092:A0 8.3681e-05
2 *1943:B0 4.9475e-05
3 *1384:Q 0.000176612
4 *359:3 0.000149075
5 *359:4 0.000459733
6 *359:5 0.000167727
7 *359:6 0.000583469883
8 *359:4 *365:3 8.47578027e-05
9 *359:4 *63:2 8.36849219e-05
10 *359:4 *370:5 0.00011193752

*RES
1 *359:6 *1384:Q 17.2848701
2 *1943:B0 *359:5 7.11376
3 *359:5 *359:4 7.61092
4 *359:4 *359:6 11.3996
5 *359:3 *359:5 1.29262
6 *2092:A0 *359:3 10.9584
*END

*D_NET *360 0.00247622

*CONN
*I *2091:A0 I *C 40.1 38.095 *L 0.000391 *D AOI21X1
*I *1942:B0 I *C 39.1 40.375 *L 0.00039 *D OAI211X1
*I *1383:Q O *C 13.94 34.93 *L 0 *D DFFHQX1

*CAP
1 *2091:A0 8.12996e-05
2 *1942:B0 9.35227e-05
3 *1383:Q 0.000149127
4 *360:3 0.000481486
5 *360:4 0.000100073
6 *360:5 0.000624835508
7 *360:6 0.000380336
8 *360:5 *1189:A 0.00025629998
9 *360:3 *366:3 0.000206589707
10 *2091:A0 *1673:A1 0.000102639199

*RES
1 *360:6 *1383:Q 10.192
2 *360:5 *360:6 8.48176
3 *360:4 *360:3 3.35187
4 *360:3 *360:5 10.2052689
5 *1942:B0 *360:4 5.15309
6 *2091:A0 *360:3 7.86277
*END

*D_NET *361 0.00162143

*CONN
*I *1173:A I *C 21.365 36.535 *L 0.00021 *D CLKBUFX2
*I *2087:A0 I *C 23.1 31.255 *L 0.000391 *D AOI21X1
*I *1382:Q O *C 11.54 31.51 *L 0 *D DFFHQX1

*CAP
1 *2087:A0 5.24541e-05
2 *1173:A 0.000129285
3 *1382:Q 1.5378e-05
4 *361:3 0.000350415703
5 *361:4 0.000176253
6 *361:5 2.29493e-05
7 *361:5 *1382:CK 1.12653e-05
8 *361:4 *1382:CK 4.76837e-07
9 *361:3 *92:36 0.000102043
10 *361:3 *92:45 2.13385e-05
11 *361:3 *92:53 5.51343e-05
12 *361:3 *1382:CK 4.79221e-05
13 *2087:A0 *92:36 3.49284484e-05
14 *1173:A *334:4 0.000213980684
15 *1173:A *1234:A 0.000173330313
16 *361:3 *367:5 0.000107347969
17 *2087:A0 *336:3 0.000106930732

*RES
1 *361:5 *1382:Q 3.71516
2 *361:4 *361:5 3.34688
3 *1173:A *361:3 31.2229385
4 *361:3 *361:4 7.61993
5 *2087:A0 *361:3 8.16305
*END

*D_NET *362 0.00191534

*CONN
*I *2085:A0 I *C 35.7 44.935 *L 0.000391 *D AOI21X1
*I *1938:B0 I *C 38.1 45.125 *L 0.00039 *D OAI211X1
*I *1381:Q O *C 16.14 45.19 *L 0 *D DFFHQX1

*CAP
1 *1938:B0 0.000159387
2 *2085:A0 4.07662e-05
3 *1381:Q 0.000248134
4 *362:3 0.000568451
5 *362:4 0.00061643125
6 *362:4 *13:2 0.000172019004
7 *362:3 *370:4 0.000110149385

*RES
1 *362:4 *1381:Q 13.0264759
2 *362:3 *362:4 8.67822
3 *2085:A0 *362:3 7.2127
4 *1938:B0 *362:3 9.42022
*END

*D_NET *363 0.00108981

*CONN
*I *1171:A I *C 17.965 35.285 *L 0.00021 *D CLKBUFX2
*I *2081:A0 I *C 24.3 34.675 *L 0.000391 *D AOI21X1
*I *1380:Q O *C 13.74 33.47 *L 0 *D DFFHQX1

*CAP
1 *2081:A0 0.000148953
2 *1380:Q 0.000190674
3 *1171:A 3.88625e-05
4 *363:3 0.000378489492
5 *2081:A0 *121:37 8.70227832e-05
6 *2081:A0 *2081:B0 0.000127315518
7 *2081:A0 *6:2 0.000118494033

*RES
1 *1171:A *363:3 13.6913061
2 *363:3 *1380:Q 10.5938
3 *2081:A0 *363:3 12.0252
*END

*D_NET *364 0.00133723

*CONN
*I *1170:A I *C 34.165 46.795 *L 0.00021 *D CLKBUFX2
*I *2074:A0 I *C 35.5 47.405 *L 0.000391 *D AOI21X1
*I *1379:Q O *C 19.34 45.19 *L 0 *D DFFHQX1

*CAP
1 *2074:A0 0.000103832
2 *1170:A 3.88658e-05
3 *1379:Q 1.89505e-05
4 *364:3 0.000540435313
5 *364:4 0.000416696
6 *364:3 *370:4 0.000218451016

*RES
1 *364:4 *1379:Q 6.92972
2 *1170:A *364:3 13.8349533
3 *364:3 *364:4 11.7172
4 *2074:A0 *364:3 8.66711
*END

*D_NET *365 0.00146198

*CONN
*I *2072:A0 I *C 26.665 36.91 *L 0.000788 *D AOI21X2
*I *2033:B0 I *C 25.3 40.375 *L 0.00039 *D OAI211X1
*I *1378:Q O *C 16.74 31.51 *L 0 *D DFFHQX1

*CAP
1 *2072:A0 2.26485e-05
2 *1378:Q 0.000470578
3 *2033:B0 0.000133576
4 *365:3 0.000626802461
5 *365:3 *359:4 8.47578027e-05
6 *365:3 *63:2 0.000123620029

*RES
1 *2033:B0 *365:3 5.98357
2 *365:3 *1378:Q 21.2438107
3 *2072:A0 *365:3 3.88305
*END

*D_NET *366 0.00229585

*CONN
*I *2097:A0 I *C 28.7 40.565 *L 0.000391 *D AOI21X1
*I *2032:B0 I *C 30.7 41.705 *L 0.00039 *D OAI211X1
*I *1377:Q O *C 16.74 28.09 *L 0 *D DFFHQX1

*CAP
1 *2032:B0 0.00014216
2 *1377:Q 1.72815e-05
3 *366:3 0.000339446
4 *366:4 0.000465032
5 *366:5 0.000343744
6 *366:6 0.000594198711
7 *366:6 *1228:A 8.63075293e-05
8 *366:3 *360:3 0.000206589707
9 *2032:B0 *1096:19 0.000101089473

*RES
1 *366:6 *366:5 10.671
2 *366:5 *1377:Q 6.96293
3 *366:4 *366:6 7.61995
4 *366:3 *366:4 8.30488
5 *2097:A0 *366:3 3.3
6 *2032:B0 *366:3 12.5315189
*END

*D_NET *367 0.00194502

*CONN
*I *2096:A0 I *C 27.3 40.565 *L 0.000391 *D AOI21X1
*I *2031:B0 I *C 26.7 41.705 *L 0.00039 *D OAI211X1
*I *1376:Q O *C 13.94 30.05 *L 0 *D DFFHQX1

*CAP
1 *2096:A0 4.36318e-05
2 *2031:B0 3.06349e-05
3 *1376:Q 0.000150503
4 *367:3 0.000344336
5 *367:4 0.000418961055
6 *367:5 0.000299394
7 *367:5 *361:3 0.000107347969
8 *367:4 *120:3 0.000235676758
9 *367:4 *317:4 0.000183701523
10 *367:3 *358:3 0.000130832197

*RES
1 *367:5 *1376:Q 13.4351
2 *367:4 *367:5 7.94489
3 *367:3 *367:4 14.1773224
4 *2031:B0 *367:3 3.72799
5 *2096:A0 *367:3 4.37222
*END

*D_NET *368 0.00265265

*CONN
*I *2060:A0 I *C 30.7 40.565 *L 0.000391 *D AOI21X1
*I *2030:B0 I *C 32.5 40.375 *L 0.00039 *D OAI211X1
*I *1375:Q O *C 11.54 28.09 *L 0 *D DFFHQX1

*CAP
1 *2030:B0 0.000108723
2 *2060:A0 3.54643e-05
3 *1375:Q 0.000259636
4 *368:3 0.000284906
5 *368:4 0.000151989
6 *368:5 0.000340998
7 *368:6 0.000311493
8 *368:7 0.000507235508
9 *368:7 *1224:A 0.000120103359
10 *368:7 *1181:A 0.000143587588
11 *368:6 *1982:A 8.3088877e-05
12 *368:6 *736:5 0.000140428545
13 *368:5 *339:9 0.000164985664

*RES
1 *368:7 *1375:Q 14.4361258
2 *368:6 *368:7 7.77118
3 *368:5 *368:6 5.33116
4 *368:4 *368:3 3.3469
5 *368:3 *368:5 8.30029
6 *2060:A0 *368:4 7.11872
7 *2030:B0 *368:4 8.56859
*END

*D_NET *369 0.00307083

*CONN
*I *2063:A0 I *C 28.465 47.17 *L 0.000788 *D AOI21X2
*I *2029:B0 I *C 26.1 48.545 *L 0.00039 *D OAI211X1
*I *1374:Q O *C 11.74 24.67 *L 0 *D DFFHQX1

*CAP
1 *2063:A0 4.77444e-05
2 *2029:B0 5.16728e-05
3 *1374:Q 0.000255764
4 *369:3 0.000306787
5 *369:4 0.000307502
6 *369:5 0.000359416
7 *369:6 0.000113784
8 *369:7 0.00011188
9 *369:8 0.000608623047
10 *369:5 *16:3 0.000115871426
11 *369:3 *335:5 0.000413894648
12 *369:3 *1262:A 0.000198721895
13 *369:3 *326:5 0.000179171563

*RES
1 *369:8 *1374:Q 12.785
2 *369:7 *369:6 4.39407
3 *2029:B0 *369:7 4.50953
4 *369:5 *369:8 8.69332
5 *369:4 *369:5 3.3469
6 *369:6 *369:3 3.35711
7 *369:3 *369:4 14.5519972
8 *2063:A0 *369:6 7.44342
*END

*D_NET *370 0.00310832

*CONN
*I *2093:A0 I *C 31.3 47.405 *L 0.000391 *D AOI21X1
*I *2028:B0 I *C 30.9 48.545 *L 0.00039 *D OAI211X1
*I *1373:Q O *C 12.74 26.63 *L 0 *D DFFHQX1

*CAP
1 *2093:A0 1.2576e-05
2 *2028:B0 6.41981e-05
3 *1373:Q 0.000903838
4 *370:3 0.000127442
5 *370:4 0.000283592
6 *370:5 0.00113677977
7 *370:5 *359:4 0.00011193752
8 *370:5 *291:2 0.000139355664
9 *370:4 *364:3 0.000218451016
10 *370:4 *362:3 0.000110149385

*RES
1 *370:5 *1373:Q 34.818531
2 *370:4 *370:5 8.37576
3 *370:3 *370:4 4.54092
4 *2028:B0 *370:3 4.15255
5 *2093:A0 *370:3 3.5761
*END

*D_NET *371 0.00190139

*CONN
*I *2094:A0 I *C 28.465 52.01 *L 0.000788 *D AOI21X2
*I *2026:B0 I *C 31.1 54.055 *L 0.00039 *D OAI211X1
*I *1372:Q O *C 8.54 52.03 *L 0 *D DFFHQX1

*CAP
1 *2026:B0 0.000104548
2 *2094:A0 5.19185e-05
3 *1372:Q 1.93135e-05
4 *371:3 0.000368058
5 *371:4 6.01999e-05
6 *371:5 0.000480711445
7 *371:6 0.000244797
8 *371:5 *279:2 0.000163853164
9 *371:5 *281:2 0.000160157676
10 *2026:B0 *382:4 0.000134587285
11 *2026:B0 *372:3 0.000113248828

*RES
1 *371:6 *1372:Q 6.805
2 *371:5 *371:6 9.14689
3 *2094:A0 *371:4 4.43133
4 *371:4 *371:3 3.35711
5 *371:3 *371:5 14.1650438
6 *2026:B0 *371:3 9.10258
*END

*D_NET *372 0.00200903

*CONN
*I *2077:A0 I *C 33.5 51.775 *L 0.000391 *D AOI21X1
*I *2023:B0 I *C 33.1 54.055 *L 0.00039 *D OAI211X1
*I *1371:Q O *C 14.74 47.15 *L 0 *D DFFHQX1

*CAP
1 *2077:A0 5.16178e-05
2 *2023:B0 4.72621e-05
3 *1371:Q 0.000363349
4 *372:3 0.000221606
5 *372:4 0.000107169
6 *372:5 0.000576674922
7 *372:3 *2026:B0 0.000113248828
8 *372:3 *317:2 0.000275969512
9 *372:3 *1398:D 0.000252127656

*RES
1 *372:5 *1371:Q 23.9926567
2 *372:4 *372:3 3.35713
3 *372:3 *372:5 7.92238
4 *2023:B0 *372:4 4.01025
5 *2077:A0 *372:4 4.2753
*END

*D_NET *373 0.00168151

*CONN
*I *2073:A0 I *C 38.265 48.59 *L 0.000788 *D AOI21X2
*I *2020:B0 I *C 37.3 51.965 *L 0.00039 *D OAI211X1
*I *1370:Q O *C 20.74 50.57 *L 0 *D DFFHQX1

*CAP
1 *2073:A0 3.39164e-05
2 *2020:B0 0.00012678
3 *1370:Q 2.70611e-05
4 *373:3 0.000254748
5 *373:4 0.000166119
6 *373:5 0.000421047227
7 *373:6 0.000198782
8 *373:5 *123:17 0.000101805
9 *373:3 *123:14 2.14577e-05
10 *373:3 *123:17 6.86642561e-05
11 *373:5 *1400:D 0.000135958193
12 *373:3 *435:5 0.000125169756

*RES
1 *373:6 *1370:Q 3.85802
2 *373:5 *373:6 9.27340984
3 *2020:B0 *373:4 6.0895
4 *2073:A0 *373:4 4.00108
5 *373:4 *373:3 3.33631
6 *373:3 *373:5 8.37587
*END

*D_NET *374 0.00211734

*CONN
*I *2066:A0 I *C 44.3 47.405 *L 0.000391 *D AOI21X1
*I *2001:B0 I *C 43.3 48.545 *L 0.00039 *D OAI211X1
*I *1369:Q O *C 17.94 47.15 *L 0 *D DFFHQX1

*CAP
1 *2066:A0 2.10392e-05
2 *2001:B0 7.37918e-05
3 *1369:Q 1.32889e-05
4 *374:3 0.000203907
5 *374:4 0.000101147
6 *374:5 0.00061416625
7 *374:6 0.000429865
8 *374:6 *1369:CK 2.38419e-07
9 *374:5 *1576:CK 4.36306e-05
10 *374:5 *87:26 4.51803e-05
11 *374:5 *87:33 4.23195347e-06
12 *374:5 *2063:B0 0.000110328193
13 *374:3 *1080:21 9.52482227e-05
14 *374:3 *1093:15 0.000180959707
15 *374:3 *105:16 0.000180304043

*RES
1 *374:6 *1369:Q 6.78865
2 *374:5 *374:6 11.7020607
3 *2001:B0 *374:4 4.53594
4 *374:4 *374:3 3.34674
5 *374:3 *374:5 8.3305
6 *2066:A0 *374:4 3.83206
*END

*D_NET *375 0.00531375

*CONN
*I *2048:A0 I *C 61.665 47.17 *L 0.000788 *D AOI21X2
*I *2022:B0 I *C 59.7 48.545 *L 0.00039 *D OAI211X1
*I *1368:Q O *C 11.74 17.83 *L 0 *D DFFHQX1

*CAP
1 *2048:A0 5.84087e-05
2 *2022:B0 4.81034e-05
3 *1368:Q 1.3646e-05
4 *375:3 0.000115873
5 *375:4 0.000251649
6 *375:5 0.000773608672
7 *375:6 0.000632462
8 *375:7 0.000382844
9 *375:8 0.000574892
10 *375:9 0.000497761
11 *375:10 0.000314413
12 *375:9 *120:7 9.77516211e-05
13 *375:7 *1584:CK 0
14 *375:7 *92:34 7.7486e-07
15 *375:7 *92:40 8.80360649e-05
16 *375:7 *386:7 0.000485181797
17 *375:5 *431:4 0.000452995313
18 *375:5 *423:4 0.000441431992
19 *375:4 *1163:3 8.39233398e-05

*RES
1 *375:10 *1368:Q 6.77844
2 *375:9 *375:10 8.67814
3 *375:8 *375:9 10.071
4 *375:7 *375:8 13.4748
5 *375:6 *375:7 3.35727
6 *375:5 *375:6 27.7280807
7 *375:4 *375:5 11.2019
8 *2022:B0 *375:4 6.95191
9 *375:3 *375:4 4.3012
10 *2048:A0 *375:3 4.36594
*END

*D_NET *376 0.00309676

*CONN
*I *2049:A0 I *C 57.065 48.59 *L 0.000788 *D AOI21X2
*I *2012:B0 I *C 58.3 50.635 *L 0.00039 *D OAI211X1
*I *1367:Q O *C 9.14 48.61 *L 0 *D DFFHQX1

*CAP
1 *2012:B0 8.68438e-05
2 *2049:A0 6.38973e-05
3 *1367:Q 0.000249806
4 *376:3 0.000136195
5 *376:4 0.00076568125
6 *376:5 7.13514e-05
7 *376:6 0.000287415
8 *376:7 0.000761393
9 *376:6 *313:2 0.000168263906
10 *376:4 *434:4 0.000505924219

*RES
1 *376:7 *376:6 1.11876
2 *376:6 *1367:Q 20.7526
3 *2049:A0 *376:5 4.65293
4 *376:4 *376:7 28.7864208
5 *376:5 *376:3 3.34661
6 *376:3 *376:4 7.39471
7 *2012:B0 *376:3 8.12385
*END

*D_NET *377 0.00256014

*CONN
*I *2079:A0 I *C 55.865 54.01 *L 0.000788 *D AOI21X2
*I *2014:B0 I *C 57.9 55.385 *L 0.00039 *D OAI211X1
*I *1366:Q O *C 17.54 50.57 *L 0 *D DFFHQX1

*CAP
1 *2014:B0 5.94244e-05
2 *2079:A0 2.6585e-05
3 *1366:Q 0.000142453
4 *377:3 0.00010866
5 *377:4 0.000951651
6 *377:5 0.000162845
7 *377:6 0.00100708008
8 *377:3 *1454:B 0.000101447109

*RES
1 *377:6 *1366:Q 15.701
2 *2079:A0 *377:5 6.84846
3 *377:4 *377:6 27.4256477
4 *377:5 *377:4 8.76009
5 *377:3 *377:5 4.97408
6 *2014:B0 *377:3 4.15218
*END

*D_NET *378 0.00236923

*CONN
*I *2080:A0 I *C 49.9 48.355 *L 0.000391 *D AOI21X1
*I *2007:B0 I *C 53.5 48.545 *L 0.00039 *D OAI211X1
*I *1365:Q O *C 21.14 47.15 *L 0 *D DFFHQX1

*CAP
1 *2007:B0 8.80953e-05
2 *2080:A0 3.05746e-05
3 *1365:Q 5.90212e-06
4 *378:3 0.000193297
5 *378:4 0.000545978
6 *378:5 0.000595986836
7 *378:6 0.000130538
8 *378:5 *379:6 8.18967822e-05
9 *378:3 *434:4 0.000370025625
10 *2007:B0 *1145:2 8.99434082e-05
11 *2007:B0 *1663:A0 0.000236988066

*RES
1 *378:6 *1365:Q 0.196562
2 *378:5 *378:6 16.1295
3 *378:4 *378:5 18.3241367
4 *378:3 *378:4 8.6325
5 *2080:A0 *378:3 6.84052
6 *2007:B0 *378:3 9.46516
*END

*D_NET *379 0.00233179

*CONN
*I *2098:A0 I *C 45.5 48.355 *L 0.000391 *D AOI21X1
*I *2004:B0 I *C 46.9 48.545 *L 0.00039 *D OAI211X1
*I *1364:Q O *C 18.94 48.61 *L 0 *D DFFHQX1

*CAP
1 *2004:B0 6.53884e-05
2 *2098:A0 1.11471e-05
3 *1364:Q 1.36497e-05
4 *379:3 0.000201704
5 *379:4 8.32056e-05
6 *379:5 0.000220535
7 *379:6 0.000293431
8 *379:7 0.000349700469
9 *379:8 9.54253e-05
10 *379:6 *2063:B0 0.000108540059
11 *379:6 *378:5 8.18967822e-05
12 *379:6 *282:3 0.000167012207
13 *379:3 *1667:A0 0.0001527071
14 *379:3 *1665:A1 0.000204682344
15 *379:3 *1939:B0 0.000167965898
16 *2004:B0 *2004:C0 0.000114798545

*RES
1 *379:8 *1364:Q 3.57253
2 *379:7 *379:8 6.5444
3 *379:6 *379:7 8.67819786
4 *379:5 *379:6 1.32286
5 *379:4 *379:3 3.35192
6 *379:3 *379:5 7.62004
7 *2098:A0 *379:4 3.45481
8 *2004:B0 *379:4 4.69094
*END

*D_NET *380 0.00202245

*CONN
*I *1167:A I *C 48.365 59.225 *L 0.00021 *D CLKBUFX2
*I *2078:A0 I *C 42.7 57.665 *L 0.000391 *D AOI21X1
*I *1363:Q O *C 26.94 55.45 *L 0 *D DFFHQX1

*CAP
1 *1167:A 0.000189782
2 *2078:A0 1.9313e-05
3 *1363:Q 0.000157117
4 *380:3 0.000296952
5 *380:4 0.000267805
6 *380:5 0.000337064258
7 *380:4 *453:7 0.000118196006
8 *380:4 *265:2 0.00014448166
9 *380:3 *381:3 0.000108122822
10 *2078:A0 *95:112 0.000138401982
11 *1167:A *2002:A0 8.49962207e-05
12 *1167:A *2:2 0.000160217285

*RES
1 *380:5 *1363:Q 10.4266
2 *380:4 *380:5 7.63487
3 *380:3 *380:4 3.18992
4 *2078:A0 *380:3 6.75922
5 *1167:A *380:3 18.6805725
*END

*D_NET *381 0.00186163

*CONN
*I *1172:A I *C 40.365 60.475 *L 0.00021 *D CLKBUFX2
*I *2076:A0 I *C 40.7 57.665 *L 0.000391 *D AOI21X1
*I *1362:Q O *C 23.74 55.45 *L 0 *D DFFHQX1

*CAP
1 *1172:A 9.59658e-05
2 *1362:Q 0.000123143
3 *381:3 0.000124516
4 *381:4 0.000209391
5 *381:5 0.000303983691
6 *381:4 *2038:A0 0.000174045566
7 *381:4 *265:2 0.000305295
8 *381:4 *31:2 0.00024819375
9 *1172:A *2076:A1 8.15987598e-05
10 *381:3 *380:3 0.000108122822
11 *381:3 *2076:B0 8.73804102e-05

*RES
1 *381:5 *1362:Q 11.2962723
2 *381:4 *381:5 8.22468
3 *1172:A *381:3 9.38196
4 *381:3 *381:4 8.19504
5 *2076:A0 *381:3 6.59995
*END

*D_NET *382 0.00450045

*CONN
*I *2086:A0 I *C 42.1 54.245 *L 0.000391 *D AOI21X1
*I *1962:B0 I *C 42.1 57.475 *L 0.00039 *D OAI211X1
*I *1361:Q O *C 18.94 14.41 *L 0 *D DFFHQX1

*CAP
1 *1962:B0 7.08629e-05
2 *2086:A0 1.33516e-05
3 *1361:Q 0.000190201
4 *382:3 0.000159617
5 *382:4 0.000249141
6 *382:5 0.000109797
7 *382:6 0.000426943
8 *382:7 0.000734086
9 *382:8 0.00019163
10 *382:9 0.000918149922
11 *382:7 *1188:A 0.000135362148
12 *382:7 *345:6 0.000238060957
13 *382:7 *383:8 0.000376701367
14 *382:4 *436:4 0.000289797773
15 *382:4 *384:4 0.000105261807
16 *382:4 *2026:B0 0.000134587285
17 *382:4 *120:2 0.000156879424

*RES
1 *382:9 *1361:Q 14.1965
2 *382:8 *382:7 3.35708
3 *382:7 *382:9 26.3295174
4 *382:6 *382:8 7.87684
5 *382:5 *382:4 3.34663
6 *382:4 *382:6 9.60037
7 *382:3 *382:5 1.49293
8 *2086:A0 *382:5 3.74236
9 *1962:B0 *382:3 4.50972
*END

*D_NET *383 0.00468242

*CONN
*I *2067:A0 I *C 49.865 43.75 *L 0.000788 *D AOI21X2
*I *1941:B0 I *C 53.9 45.125 *L 0.00039 *D OAI211X1
*I *1360:Q O *C 15.34 16.37 *L 0 *D DFFHQX1

*CAP
1 *1941:B0 9.82881e-05
2 *2067:A0 4.41632e-05
3 *1360:Q 0.000346421
4 *383:3 0.000269589
5 *383:4 0.000423789
6 *383:5 5.29334e-05
7 *383:6 0.000607308
8 *383:7 0.0003711
9 *383:8 0.000301124
10 *383:9 0.000640034688
11 *383:8 *382:7 0.000376701367
12 *383:6 *356:4 0.000456333164
13 *383:6 *352:4 0.0006946325

*RES
1 *383:9 *1360:Q 19.7556
2 *383:8 *383:9 10.6022
3 *383:7 *383:8 3.35708
4 *383:6 *383:7 21.0757256
5 *383:5 *383:4 3.35708
6 *383:4 *383:6 11.4891
7 *2067:A0 *383:5 4.12085
8 *383:3 *383:4 7.20201
9 *1941:B0 *383:3 5.15316
*END

*D_NET *384 0.00538844

*CONN
*I *2082:A0 I *C 51.465 55.43 *L 0.000788 *D AOI21X2
*I *1965:B0 I *C 54.5 55.385 *L 0.00039 *D OAI211X1
*I *1359:Q O *C 13.14 10.99 *L 0 *D DFFHQX1

*CAP
1 *1965:B0 0.000117782
2 *2082:A0 2.03828e-05
3 *1359:Q 0.000314474
4 *384:3 0.000222497
5 *384:4 0.000382724
6 *384:5 0.000312217
7 *384:6 0.000305593
8 *384:7 0.000468128
9 *384:8 0.000928527
10 *384:9 0.00107985734
11 *384:8 *84:26 4.39286e-05
12 *384:8 *84:30 5.13196213e-05
13 *384:8 *342:6 0.000166535371
14 *384:8 *350:5 0.000132501123
15 *384:7 *53:2 0.000150084492
16 *384:5 *120:2 0.000270485879
17 *384:4 *382:4 0.000105261807
18 *1965:B0 *438:4 0.000316143027

*RES
1 *384:9 *1359:Q 16.7055
2 *384:8 *384:9 27.0477524
3 *384:7 *384:8 9.35173
4 *384:6 *384:5 0.173753
5 *384:5 *384:7 9.75165
6 *384:4 *384:6 10.9461
7 *384:3 *384:4 2.73672
8 *2082:A0 *384:3 6.92166
9 *1965:B0 *384:3 9.71781
*END

*D_NET *385 0.00568056

*CONN
*I *2088:A0 I *C 52.865 58.85 *L 0.000788 *D AOI21X2
*I *1949:B0 I *C 54.9 58.805 *L 0.00039 *D OAI211X1
*I *1358:Q O *C 16.34 12.95 *L 0 *D DFFHQX1

*CAP
1 *1949:B0 9.96583e-05
2 *2088:A0 3.73135e-05
3 *1358:Q 0.000482443
4 *385:3 0.000446621
5 *385:4 0.000388738
6 *385:5 0.000447983
7 *385:6 0.00013548
8 *385:7 6.68712e-05
9 *385:8 0.000388387
10 *385:9 0.000374795
11 *385:10 0.000849962266
12 *385:10 *1358:D 8.49962207e-05
13 *385:9 *1074:19 0.000169575215
14 *385:9 *388:5 0.000333189961
15 *385:9 *329:7 0.000139951709
16 *385:4 *422:4 0.000249624258
17 *385:4 *351:4 0.000300765039
18 *385:4 *353:3 0.000469326992
19 *385:3 *1092:9 0.000114560127
20 *385:3 *1075:15 0.000100314619

*RES
1 *385:10 *1358:Q 23.1124153
2 *385:9 *385:10 16.0675
3 *385:8 *385:9 3.35704
4 *2088:A0 *385:7 4.14455
5 *385:7 *385:6 3.87123
6 *385:5 *385:4 3.34681
7 *385:4 *385:8 21.2271
8 *385:6 *385:3 3.35704
9 *385:3 *385:5 14.1212
10 *1949:B0 *385:6 8.63718
*END

*D_NET *386 0.00492179

*CONN
*I *2051:A0 I *C 46.7 57.665 *L 0.000391 *D AOI21X1
*I *1944:B0 I *C 47.3 60.895 *L 0.00039 *D OAI211X1
*I *1357:Q O *C 22.74 10.99 *L 0 *D DFFHQX1

*CAP
1 *1944:B0 5.15532e-05
2 *2051:A0 0.000126179
3 *1357:Q 4.03481e-05
4 *386:3 0.000540495
5 *386:4 0.000182565
6 *386:5 0.000438217
7 *386:6 0.000542697
8 *386:7 0.00063854457
9 *386:8 0.000256538
10 *386:9 0.000335695
11 *386:10 0.000326867
12 *386:10 *93:32 3.03984e-06
13 *386:9 *93:31 3.42727e-05
14 *386:9 *93:36 1.25766e-05
15 *386:9 *93:35 3.82662e-05
16 *386:9 *93:37 8.5829979e-06
17 *386:7 *375:7 0.000485181797
18 *386:7 *332:7 0.000449299805
19 *386:7 *1385:D 0.000161170957
20 *386:3 *17:2 0.00012356043
21 *386:3 *446:5 0.000126123428

*RES
1 *386:10 *1357:Q 10.5963
2 *386:9 *386:10 13.4181
3 *386:8 *386:9 3.14483
4 *386:7 *386:8 8.81444
5 *386:6 *386:5 3.3572
6 *386:5 *386:7 12.1593
7 *386:4 *386:3 3.33627
8 *386:3 *386:6 18.0519829
9 *2051:A0 *386:4 5.80349
10 *1944:B0 *386:4 4.4075
*END

*D_NET *387 0.00484395

*CONN
*I *2045:A0 I *C 47.7 47.405 *L 0.000391 *D AOI21X1
*I *1940:B0 I *C 48.9 48.545 *L 0.00039 *D OAI211X1
*I *1356:Q O *C 16.34 10.99 *L 0 *D DFFHQX1

*CAP
1 *1940:B0 0.000126777
2 *2045:A0 4.63158e-05
3 *1356:Q 6.55908e-06
4 *387:3 0.000431952
5 *387:4 0.000627517695
6 *387:5 0.000374672
7 *387:6 0.000256599
8 *387:7 0.000483093
9 *387:8 0.00049061
10 *387:9 0.000264642
11 *387:7 *92:41 3.09944e-05
12 *387:7 *92:42 4.88162e-05
13 *387:6 *92:41 5.36460756e-07
14 *387:7 *398:5 8.59499023e-05
15 *387:6 *1945:B0 0.00017356873
16 *387:6 *345:5 0.000183701523
17 *387:6 *334:4 0.00028204918
18 *387:4 *350:3 0.000427007656
19 *387:4 *351:4 0.000502586367

*RES
1 *387:9 *1356:Q 0.239673
2 *387:8 *387:9 16.6841
3 *387:7 *387:8 9.4719
4 *387:6 *387:7 10.829
5 *387:5 *387:6 3.35728
6 *387:4 *387:5 20.3198204
7 *387:3 *387:4 8.93116
8 *2045:A0 *387:3 10.2185
9 *1940:B0 *387:3 11.8075
*END

*D_NET *388 0.00443882

*CONN
*I *2038:A0 I *C 37.7 57.665 *L 0.000391 *D AOI21X1
*I *1951:B0 I *C 35.9 57.475 *L 0.00039 *D OAI211X1
*I *1355:Q O *C 19.54 10.99 *L 0 *D DFFHQX1

*CAP
1 *2038:A0 5.66213e-05
2 *1951:B0 2.98693e-05
3 *1355:Q 0.000432199
4 *388:3 0.000271924
5 *388:4 0.000222859
6 *388:5 0.000715559
7 *388:6 0.00111031531
8 *388:6 *399:6 0.000135540967
9 *388:5 *1391:D 0.000174701211
10 *388:5 *385:9 0.000333189961
11 *388:5 *330:4 0.000457286836
12 *388:3 *31:2 0.000228881836
13 *2038:A0 *437:5 9.58442676e-05
14 *2038:A0 *381:4 0.000174045566

*RES
1 *388:6 *1355:Q 20.5005
2 *388:5 *388:6 28.627634
3 *388:4 *388:5 4.77841
4 *388:3 *388:4 8.04322
5 *1951:B0 *388:3 6.93588
6 *2038:A0 *388:3 8.49315
*END

*D_NET *389 0.000306726

*CONN
*I *1166:Y O *C 57.1 7.505 *L 0 *D DLY1X1
*I *1420:D I *C 61.1 7.505 *L 0.00021 *D DFFRX1

*CAP
1 *1420:D 0.000138283
2 *1166:Y 1.508e-05
3 *389:2 0.000153362754

*RES
1 *389:2 *1166:Y 6.94764
2 *1420:D *389:2 19.9745903
*END

*D_NET *390 0.00243664

*CONN
*I *2167:A I *C 38.5 9.595 *L 0.000395 *D INVX1
*I *2027:A0 I *C 36.9 9.215 *L 0.000391 *D OAI211X1
*I *1549:Q O *C 34.54 7.57 *L 0 *D DFFHQX1
*I *1437:B I *C 63.5 7.695 *L 0.00021 *D AND2XL

*CAP
1 *1437:B 9.13179e-05
2 *2167:A 0.000103297
3 *2027:A0 1.97285e-05
4 *1549:Q 7.45055e-05
5 *390:4 9.92996e-05
6 *390:5 0.000782253
7 *390:6 0.00089722875
8 *390:7 0.000147286
9 *390:8 0.000221723

*RES
1 *390:8 *1549:Q 11.5464
2 *390:7 *390:8 0.620075
3 *390:6 *390:8 6.76986
4 *2027:A0 *390:7 3.8219
5 *2167:A *390:7 11.9121
6 *390:5 *390:6 32.4319611
7 *390:4 *390:5 3.34682
8 *1437:B *390:4 5.7232
*END

*D_NET *391 0.00217581

*CONN
*I *2172:A I *C 29.1 10.925 *L 0.000395 *D INVX1
*I *2025:A0 I *C 26.7 12.635 *L 0.000391 *D OAI211X1
*I *1548:Q O *C 25.94 10.99 *L 0 *D DFFHQX1
*I *1422:B I *C 62.7 9.405 *L 0.00021 *D AND2XL

*CAP
1 *1422:B 6.43676e-05
2 *2172:A 1.51453e-05
3 *2025:A0 3.02141e-05
4 *1548:Q 3.89852e-05
5 *391:4 0.000785886
6 *391:5 0.000835478281
7 *391:6 0.000232815
8 *391:7 0.000172909

*RES
1 *391:7 *1548:Q 4.22382
2 *2025:A0 *391:7 3.93507
3 *391:6 *391:7 5.77726
4 *2172:A *391:6 6.78864
5 *391:5 *391:6 9.47824
6 *391:4 *391:5 24.7043381
7 *1422:B *391:4 14.3482
*END

*D_NET *392 0.00158483

*CONN
*I *2160:A I *C 41.1 7.505 *L 0.000395 *D INVX1
*I *2024:A0 I *C 40.1 7.885 *L 0.000391 *D OAI211X1
*I *1547:Q O *C 41.54 6.11 *L 0 *D DFFHQX1
*I *1455:B I *C 62.7 7.695 *L 0.00021 *D AND2XL

*CAP
1 *1455:B 7.82604e-05
2 *1547:Q 6.19832e-06
3 *2024:A0 0.000102875
4 *392:4 0.000399056
5 *392:5 8.46971e-05
6 *392:6 1.1443e-05
7 *392:7 9.82261e-05
8 *392:8 0.000433981406
9 *392:9 0.000154494
10 *392:4 *257:6 0.000119030479
11 *392:4 *258 9.65595215e-05

*RES
1 *2024:A0 *392:9 11.6962
2 *392:8 *392:7 4.25377
3 *392:6 *1547:Q 0.239572
4 *392:7 *392:6 3.33625
5 *392:9 *392:7 0.994797
6 *2160:A *392:9 3.29999
7 *392:5 *392:4 3.34675
8 *392:4 *392:8 16.3888931
9 *1455:B *392:5 5.43612
*END

*D_NET *393 0.00189436

*CONN
*I *2240:A I *C 30.3 9.595 *L 0.000395 *D INVX1
*I *2021:A0 I *C 31.1 9.215 *L 0.000391 *D OAI211X1
*I *1546:Q O *C 30.34 10.99 *L 0 *D DFFHQX1
*I *1423:B I *C 64.1 9.405 *L 0.00021 *D AND2XL

*CAP
1 *1423:B 5.41788e-05
2 *2021:A0 2.77156e-05
3 *2240:A 2.2292e-05
4 *1546:Q 4.34465e-05
5 *393:4 0.00071323
6 *393:5 8.00444e-05
7 *393:6 0.000753045078
8 *393:7 0.000114023
9 *393:8 8.63643e-05

*RES
1 *393:8 *1546:Q 4.07867
2 *2240:A *393:8 3.64775
3 *2021:A0 *393:7 3.85783
4 *393:7 *393:8 0.544204
5 *393:6 *393:7 10.9787
6 *393:5 *393:4 7.03666
7 *393:4 *393:6 23.4947205
8 *1423:B *393:5 7.62137
*END

*D_NET *394 0.00185573

*CONN
*I *2168:A I *C 37.3 14.345 *L 0.000395 *D INVX1
*I *2019:A0 I *C 35.3 14.725 *L 0.000391 *D OAI211X1
*I *1545:Q O *C 34.14 12.95 *L 0 *D DFFHQX1
*I *1440:B I *C 63.1 11.115 *L 0.00021 *D AND2XL

*CAP
1 *1440:B 9.81702e-05
2 *2168:A 2.29491e-05
3 *2019:A0 3.23051e-05
4 *1545:Q 9.04235e-05
5 *394:4 0.000533876
6 *394:5 0.000112954
7 *394:6 0.000173091
8 *394:7 0.000595867617
9 *394:8 0.000196095

*RES
1 *394:8 *1545:Q 8.4691
2 *2019:A0 *394:8 7.06163
3 *394:7 *394:6 8.90377
4 *394:6 *394:8 1.68564
5 *2168:A *394:6 6.8051
6 *394:5 *394:4 6.74915
7 *394:4 *394:7 17.2960758
8 *1440:B *394:5 9.13338
*END

*D_NET *395 0.00263298

*CONN
*I *2164:A I *C 23.5 14.345 *L 0.000395 *D INVX1
*I *1960:A0 I *C 25.3 14.725 *L 0.000391 *D OAI211X1
*I *1544:Q O *C 22.34 12.95 *L 0 *D DFFHQX1
*I *1456:B I *C 63.3 12.825 *L 0.00021 *D AND2XL

*CAP
1 *1456:B 4.78027e-05
2 *1960:A0 5.00071e-05
3 *2164:A 2.06185e-05
4 *1544:Q 6.57988e-05
5 *395:4 0.000304936
6 *395:5 8.77381e-05
7 *395:6 0.000352264
8 *395:7 0.00048351
9 *395:8 0.000622689727
10 *395:9 0.000353755
11 *395:10 0.000163732
12 *395:6 *1004:7 8.01086426e-05

*RES
1 *395:10 *1544:Q 4.8874
2 *2164:A *395:10 3.83673
3 *395:9 *395:10 4.97587
4 *1960:A0 *395:9 7.60678
5 *395:8 *395:9 11.9426
6 *395:7 *395:8 12.0043755
7 *395:6 *395:7 3.825
8 *395:5 *395:4 10.3445
9 *395:4 *395:6 8.67815
10 *1456:B *395:5 4.36591
*END

*D_NET *396 0.00254691

*CONN
*I *2158:A I *C 33.7 16.435 *L 0.000395 *D INVX1
*I *2018:A0 I *C 31.7 16.055 *L 0.000391 *D OAI211X1
*I *1543:Q O *C 30.34 14.41 *L 0 *D DFFHQX1
*I *1471:B I *C 64.1 14.535 *L 0.00021 *D AND2XL

*CAP
1 *1471:B 8.72639e-05
2 *2158:A 2.03267e-05
3 *2018:A0 2.74796e-05
4 *1543:Q 8.4165e-05
5 *396:4 0.000463664531
6 *396:5 0.000433864
7 *396:6 0.000194373
8 *396:7 0.000228228
9 *396:4 *397:5 0.000512361523
10 *1471:B *1441:B 0.000495195391

*RES
1 *396:7 *1543:Q 4.70606
2 *2018:A0 *396:7 4.07212
3 *396:6 *396:7 5.83275
4 *2158:A *396:6 6.8051
5 *396:5 *396:6 7.6866
6 *396:4 *396:5 22.1340656
7 *1471:B *396:4 14.8284
*END

*D_NET *397 0.00303733

*CONN
*I *2249:A I *C 25.5 19.855 *L 0.000395 *D INVX1
*I *2016:A0 I *C 22.1 19.475 *L 0.000391 *D OAI211X1
*I *1542:Q O *C 21.74 16.37 *L 0 *D DFFHQX1
*I *1424:B I *C 63.3 14.535 *L 0.00021 *D AND2XL

*CAP
1 *1424:B 4.79248e-05
2 *2249:A 6.76465e-05
3 *2016:A0 4.72699e-05
4 *1542:Q 6.3116e-05
5 *397:4 0.000665429
6 *397:5 7.70726e-05
7 *397:6 7.50435e-05
8 *397:7 0.000161768
9 *397:8 0.000703573203
10 *397:9 0.000197475
11 *397:7 *93:28 3.82662e-05
12 *397:7 *93:31 4.29749327e-05
13 *397:5 *396:4 0.000512361523
14 *397:4 *1064:7 0.000126183037
15 *397:4 *1083:11 0.000211238867

*RES
1 *397:9 *1542:Q 4.82335
2 *2016:A0 *397:9 4.40783
3 *397:8 *397:7 8.04184
4 *397:6 *397:7 3.34694
5 *397:7 *397:9 5.96682
6 *2249:A *397:6 4.71849
7 *397:5 *397:4 10.2938
8 *397:4 *397:8 28.6351433
9 *1424:B *397:5 4.36588
*END

*D_NET *398 0.00397348

*CONN
*I *2225:A I *C 21.7 30.115 *L 0.000395 *D INVX1
*I *2015:A0 I *C 20.1 29.735 *L 0.000391 *D OAI211X1
*I *1541:Q O *C 20.54 26.63 *L 0 *D DFFHQX1
*I *1433:B I *C 64.9 16.245 *L 0.00021 *D AND2XL

*CAP
1 *1433:B 0.000236565
2 *2225:A 8.08872e-05
3 *398:4 0.000816405
4 *398:5 0.000887930391
5 *398:6 0.000109015
6 *398:7 0.000466043
7 *398:8 0.000186081
8 *398:5 *387:7 8.59499023e-05
9 *398:4 *1064:7 8.32080859e-05
10 *398:4 *1083:11 0.000318527227
11 *1433:B *347:3 0.000702857969

*RES
1 *398:8 *398:7 3.15214
2 *2015:A0 *398:8 3.29984
3 *398:6 *398:8 3.69454
4 *398:5 *398:7 17.4733
5 *398:7 *1541:Q 3.29984
6 *2225:A *398:6 7.9967
7 *398:4 *398:5 27.5769234
8 *1433:B *398:4 20.9469
*END

*D_NET *399 0.00353426

*CONN
*I *2237:A I *C 24.1 21.185 *L 0.000395 *D INVX1
*I *2013:A0 I *C 20.5 19.475 *L 0.000391 *D OAI211X1
*I *1540:Q O *C 18.54 16.37 *L 0 *D DFFHQX1
*I *1441:B I *C 63.5 16.245 *L 0.00021 *D AND2XL

*CAP
1 *1441:B 5.20408e-05
2 *2237:A 7.97546e-05
3 *2013:A0 2.59294e-05
4 *1540:Q 1.71648e-05
5 *399:4 9.5135e-05
6 *399:5 0.000755132
7 *399:6 0.000180546
8 *399:7 0.000233291
9 *399:8 0.000297726
10 *399:9 0.000257497
11 *399:10 0.000795543203
12 *399:6 *388:6 0.000135540967
13 *399:5 *1004:7 0.000113785264
14 *1441:B *1471:B 0.000495195391

*RES
1 *399:10 *399:9 2.47954
2 *399:8 *1540:Q 3.7147
3 *399:7 *399:8 9.75389
4 *2013:A0 *399:7 3.8333
5 *399:9 *399:8 13.6992
6 *399:6 *399:7 9.46751
7 *2237:A *399:6 5.14884
8 *399:5 *399:10 28.7864208
9 *399:4 *399:5 7.61125
10 *1441:B *399:4 7.62136
*END

*D_NET *400 0.00283468

*CONN
*I *2231:A I *C 29.1 21.185 *L 0.000395 *D INVX1
*I *2011:A0 I *C 26.9 21.565 *L 0.000391 *D OAI211X1
*I *1539:Q O *C 26.74 19.79 *L 0 *D DFFHQX1
*I *1448:B I *C 65.5 17.955 *L 0.00021 *D AND2XL

*CAP
1 *1448:B 9.227e-05
2 *2231:A 2.53332e-05
3 *2011:A0 2.65265e-05
4 *1539:Q 5.41807e-05
5 *400:4 0.000374438
6 *400:5 0.000113844
7 *400:6 0.000391006484
8 *400:7 0.000320377
9 *400:8 0.000186503
10 *400:9 0.000378907
11 *400:10 0.000145198
12 *400:7 *1079:11 0.000263690957
13 *400:7 *109:12 0.000129103662
14 *400:6 *1074:11 0.000239133828
15 *400:4 *1091:14 9.41753418e-05

*RES
1 *400:10 *1539:Q 4.41504
2 *2011:A0 *400:10 3.71499
3 *400:9 *400:8 8.61636
4 *400:8 *400:10 4.90863
5 *2231:A *400:8 7.00031
6 *400:7 *400:9 13.2138729
7 *400:6 *400:7 1.76888
8 *400:5 *400:4 6.89284
9 *400:4 *400:6 11.3996
10 *1448:B *400:5 8.67967
*END

*D_NET *401 0.00326395

*CONN
*I *2162:A I *C 32.7 28.025 *L 0.000395 *D INVX1
*I *2010:A0 I *C 29.3 28.405 *L 0.000391 *D OAI211X1
*I *1538:Q O *C 27.94 26.63 *L 0 *D DFFHQX1
*I *1457:B I *C 66.3 17.955 *L 0.00021 *D AND2XL

*CAP
1 *1457:B 0.000564813
2 *2162:A 2.36059e-05
3 *2010:A0 3.82692e-05
4 *1538:Q 4.12396e-05
5 *401:4 0.00102996828
6 *401:5 0.000639622
7 *401:6 0.000369318
8 *401:7 5.30425e-05
9 *401:8 0.000227274
10 *401:4 *1894:A1 0.00013053417
11 *401:4 *1726:A 0.000146269795

*RES
1 *401:8 *1538:Q 4.2878
2 *401:7 *401:8 3.54629
3 *2010:A0 *401:7 1.46839
4 *401:6 *401:8 7.02532
5 *2162:A *401:6 6.80516
6 *401:5 *401:6 11.4163
7 *401:4 *401:5 15.7843
8 *1457:B *401:4 27.3777237
*END

*D_NET *402 0.00343895

*CONN
*I *2150:A I *C 18.7 23.275 *L 0.000395 *D INVX1
*I *2009:A0 I *C 16.1 22.895 *L 0.000391 *D OAI211X1
*I *1537:Q O *C 12.54 23.21 *L 0 *D DFFHQX1
*I *1464:B I *C 66.3 19.665 *L 0.00021 *D AND2XL

*CAP
1 *1464:B 6.72937e-05
2 *2150:A 2.50944e-05
3 *2009:A0 2.08615e-05
4 *1537:Q 3.09945e-05
5 *402:4 0.000430524
6 *402:5 0.000543059
7 *402:6 0.000709474063
8 *402:7 0.000213086
9 *402:8 0.00061923
10 *402:9 0.000222927
11 *402:10 0.000134652
12 *402:5 *1861:A1 0.000169396406
13 *1464:B *1472:B 0.000252366074

*RES
1 *402:10 *1537:Q 13.5514
2 *402:9 *402:10 2.78194
3 *2009:A0 *402:9 6.81189
4 *402:8 *402:7 8.82055
5 *402:7 *402:9 2.43407
6 *2150:A *402:7 7.06164
7 *402:6 *402:8 16.2377357
8 *402:5 *402:6 7.52918
9 *402:4 *402:5 13.214
10 *1464:B *402:4 14.2794
*END

*D_NET *403 0.00334799

*CONN
*I *2153:A I *C 21.9 21.185 *L 0.000395 *D INVX1
*I *1948:A0 I *C 17.9 21.565 *L 0.000391 *D OAI211X1
*I *1536:Q O *C 16.74 19.79 *L 0 *D DFFHQX1
*I *1472:B I *C 67.1 19.665 *L 0.00021 *D AND2XL

*CAP
1 *1472:B 6.02555e-05
2 *2153:A 2.10379e-05
3 *1948:A0 3.43942e-05
4 *1536:Q 8.73253e-05
5 *403:4 0.000279431
6 *403:5 0.000314235
7 *403:6 0.000595567
8 *403:7 0.000688672031
9 *403:8 0.000348271
10 *403:9 0.000260767
11 *403:8 *1948:A1 8.8334082e-05
12 *403:5 *1091:15 0.000175476074
13 *403:4 *724:7 0.000141859053
14 *1472:B *1464:B 0.000252366074

*RES
1 *403:9 *1536:Q 8.55332
2 *1948:A0 *403:9 13.8635
3 *403:8 *403:9 3.52275
4 *2153:A *403:8 6.80503
5 *403:7 *403:8 10.6878
6 *403:6 *403:7 18.0519829
7 *403:5 *403:6 4.64163
8 *403:4 *403:5 8.82959
9 *1472:B *403:4 14.0177
*END

*D_NET *404 0.00237185

*CONN
*I *2226:A I *C 32.9 21.185 *L 0.000395 *D INVX1
*I *2008:A0 I *C 29.9 21.565 *L 0.000391 *D OAI211X1
*I *1535:Q O *C 29.94 19.79 *L 0 *D DFFHQX1
*I *1479:B I *C 67.1 21.375 *L 0.00021 *D AND2XL

*CAP
1 *1479:B 0.000211719
2 *2226:A 1.57344e-05
3 *2008:A0 2.13372e-05
4 *1535:Q 4.4047e-05
5 *404:4 0.000226323
6 *404:5 0.000283658
7 *404:6 0.000611960898
8 *404:7 0.000401736
9 *404:8 0.000161173
10 *404:9 0.000151993
11 *404:7 *109:9 0.000104784961
12 *404:6 *1861:A1 0.000137388711

*RES
1 *404:9 *1535:Q 4.14436
2 *2008:A0 *404:9 3.71489
3 *404:8 *404:9 5.66473
4 *2226:A *404:8 6.7887
5 *404:7 *404:8 8.02979
6 *404:6 *404:7 11.3544
7 *404:5 *404:6 8.22466
8 *404:4 *404:5 6.74935
9 *1479:B *404:4 12.4595165
*END

*D_NET *405 0.00314677

*CONN
*I *2157:A I *C 19.1 24.605 *L 0.000395 *D INVX1
*I *1959:A0 I *C 16.9 24.985 *L 0.000391 *D OAI211X1
*I *1534:Q O *C 15.94 26.63 *L 0 *D DFFHQX1
*I *1425:B I *C 67.9 23.085 *L 0.00021 *D AND2XL

*CAP
1 *1425:B 5.9361e-05
2 *2157:A 2.03867e-05
3 *1959:A0 1.58549e-05
4 *1534:Q 2.42016e-05
5 *405:4 0.000371574
6 *405:5 0.000408411
7 *405:6 0.000886559453
8 *405:7 0.000192585
9 *405:8 0.000837087
10 *405:9 0.000171901
11 *405:10 5.4775e-05
12 *405:5 *1869:C0 0.000104069707

*RES
1 *405:10 *1534:Q 3.7914
2 *405:9 *405:10 0.774858
3 *1959:A0 *405:9 3.82174
4 *405:8 *405:7 7.46735
5 *405:7 *405:9 6.19183
6 *2157:A *405:7 6.80498
7 *405:6 *405:8 24.2507458
8 *405:5 *405:6 2.61542
9 *405:4 *405:5 10.1901
10 *1425:B *405:4 14.188
*END

*D_NET *406 0.000530362

*CONN
*I *2171:A I *C 61.1 23.275 *L 0.000395 *D INVX1
*I *2006:A0 I *C 62.1 22.895 *L 0.000391 *D OAI211X1
*I *1533:Q O *C 63.74 23.21 *L 0 *D DFFHQX1
*I *1430:B I *C 67.1 23.085 *L 0.00021 *D AND2XL

*CAP
1 *1430:B 0.000128627
2 *1533:Q 2.00279e-05
3 *2006:A0 1.10861e-05
4 *2171:A 5.01273e-05
5 *406:4 0.00020396709
6 *406:5 0.000116526

*RES
1 *2171:A *406:5 4.51715
2 *406:5 *406:4 4.61667
3 *2006:A0 *406:5 3.40245
4 *406:4 *1533:Q 6.80505
5 *1430:B *406:4 9.958148
*END

*D_NET *407 0.00059545

*CONN
*I *2220:A I *C 61.3 26.695 *L 0.000395 *D INVX1
*I *1966:A0 I *C 61.9 26.315 *L 0.000391 *D OAI211X1
*I *1532:Q O *C 63.54 26.63 *L 0 *D DFFHQX1
*I *1434:B I *C 67.1 24.795 *L 0.00021 *D AND2XL

*CAP
1 *1434:B 3.80274e-05
2 *1532:Q 2.12195e-05
3 *2220:A 4.16638e-05
4 *407:4 0.000177621
5 *407:5 0.000218033789
6 *407:6 9.88846e-05

*RES
1 *2220:A *407:6 4.22232
2 *407:6 *407:5 4.74224
3 *1966:A0 *407:6 3.29994
4 *407:5 *1532:Q 6.80506229
5 *407:4 *407:5 6.37341
6 *1434:B *407:4 4.14445
*END

*D_NET *408 0.000541925

*CONN
*I *2146:A I *C 61.3 24.605 *L 0.000395 *D INVX1
*I *2005:A0 I *C 61.9 24.985 *L 0.000391 *D OAI211X1
*I *1531:Q O *C 63.74 24.67 *L 0 *D DFFHQX1
*I *1421:B I *C 67.9 24.795 *L 0.00021 *D AND2XL

*CAP
1 *1421:B 0.000142217
2 *2146:A 5.02458e-05
3 *408:4 2.13391e-05
4 *408:5 0.000220715996
5 *408:6 0.000107406

*RES
1 *2146:A *408:6 4.17312
2 *2005:A0 *408:6 3.29993
3 *408:6 *408:5 4.54451
4 *408:4 *1531:Q 0.499943
5 *408:5 *408:4 6.80512
6 *1421:B *408:5 10.1752281
*END

*D_NET *409 0.000759244

*CONN
*I *2219:A I *C 61.9 28.025 *L 0.000395 *D INVX1
*I *2003:A0 I *C 61.9 29.735 *L 0.000391 *D OAI211X1
*I *1530:Q O *C 63.34 28.09 *L 0 *D DFFHQX1
*I *1442:B I *C 67.1 26.505 *L 0.00021 *D AND2XL

*CAP
1 *1442:B 0.000195265
2 *1530:Q 1.50201e-05
3 *2219:A 4.62543e-05
4 *2003:A0 6.35389e-05
5 *409:4 0.000269830234
6 *409:5 0.000169338

*RES
1 *409:5 *409:4 4.69488
2 *2003:A0 *409:5 4.44956
3 *2219:A *409:5 4.15507
4 *409:4 *1530:Q 6.78868
5 *1442:B *409:4 11.718154
*END

*D_NET *410 0.000603437

*CONN
*I *2244:A I *C 61.5 31.445 *L 0.000395 *D INVX1
*I *2017:A0 I *C 62.1 31.825 *L 0.000391 *D OAI211X1
*I *1529:Q O *C 63.54 30.05 *L 0 *D DFFHQX1
*I *1445:B I *C 67.9 29.925 *L 0.00021 *D AND2XL

*CAP
1 *1445:B 0.000150741
2 *1529:Q 6.49542e-06
3 *2017:A0 3.48687e-05
4 *410:4 1.4425e-05
5 *410:5 0.000260353086
6 *410:6 0.000136555

*RES
1 *410:6 *410:5 8.80283
2 *2244:A *410:6 3.29996
3 *2017:A0 *410:6 4.024
4 *410:4 *1529:Q 0.239521
5 *410:5 *410:4 3.34676
6 *1445:B *410:5 13.8180256
*END

*D_NET *411 0.000587225

*CONN
*I *2228:A I *C 60.9 33.535 *L 0.000395 *D INVX1
*I *1936:A0 I *C 61.9 33.155 *L 0.000391 *D OAI211X1
*I *1528:Q O *C 63.54 33.47 *L 0 *D DFFHQX1
*I *1449:B I *C 67.5 31.635 *L 0.00021 *D AND2XL

*CAP
1 *1449:B 0.000122785
2 *1936:A0 8.22613e-06
3 *2228:A 4.82809e-05
4 *411:4 0.000174522402
5 *411:5 0.000106394
6 *411:6 6.25841e-05
7 *411:7 6.44323e-05

*RES
1 *2228:A *411:7 4.48802
2 *411:7 *411:6 3.34677
3 *411:6 *411:5 4.62710857
4 *1936:A0 *411:7 3.40248
5 *411:5 *1528:Q 3.29996
6 *411:4 *411:5 4.51146
7 *1449:B *411:4 4.58919
*END

*D_NET *412 0.00122845

*CONN
*I *2234:A I *C 63.1 19.855 *L 0.000395 *D INVX1
*I *1964:A0 I *C 63.3 18.145 *L 0.000391 *D OAI211X1
*I *1527:Q O *C 61.54 21.25 *L 0 *D DFFHQX1
*I *1452:B I *C 68.1 28.215 *L 0.00021 *D AND2XL

*CAP
1 *1452:B 3.89205e-05
2 *1964:A0 4.77427e-05
3 *1527:Q 3.71954e-05
4 *412:4 0.000469384
5 *412:5 0.000495851055
6 *412:6 5.31677e-05
7 *412:7 4.39294e-05
8 *412:8 4.22572e-05

*RES
1 *412:8 *412:7 3.34935
2 *412:7 *1527:Q 4.28788
3 *412:6 *412:8 1.46228
4 *2234:A *412:6 0.50006
5 *1964:A0 *412:5 4.41658
6 *412:5 *412:6 3.63307
7 *412:4 *412:5 17.2483921
8 *1452:B *412:4 4.28788
*END

*D_NET *413 0.00262415

*CONN
*I *2156:A I *C 33.7 31.445 *L 0.000395 *D INVX1
*I *1963:A0 I *C 28.7 31.825 *L 0.000391 *D OAI211X1
*I *1526:Q O *C 27.14 30.05 *L 0 *D DFFHQX1
*I *1458:B I *C 67.1 29.925 *L 0.00021 *D AND2XL

*CAP
1 *1458:B 3.80313e-05
2 *2156:A 2.28824e-05
3 *1963:A0 5.16812e-05
4 *1526:Q 6.71749e-05
5 *413:4 0.000834048
6 *413:5 7.71901e-05
7 *413:6 0.00086933375
8 *413:7 0.000260236
9 *413:8 0.000281752
10 *413:8 *92:26 2.32458e-05
11 *413:8 *1526:CK 4.46439e-05
12 *413:8 *92:31 9.59635e-06
13 *413:7 *92:26 4.43458387e-05

*RES
1 *413:8 *1526:Q 8.32244
2 *1963:A0 *413:8 14.1903
3 *413:7 *413:8 4.19542
4 *2156:A *413:7 6.89307
5 *413:6 *413:7 8.07495
6 *413:5 *413:4 10.3446
7 *413:4 *413:6 24.0994682
8 *1458:B *413:5 4.22226
*END

*D_NET *414 0.000577807

*CONN
*I *2247:A I *C 61.9 43.795 *L 0.000395 *D INVX1
*I *1961:A0 I *C 62.3 43.415 *L 0.000391 *D OAI211X1
*I *1525:Q O *C 63.54 41.77 *L 0 *D DFFHQX1
*I *1461:B I *C 66.9 41.895 *L 0.00021 *D AND2XL

*CAP
1 *1461:B 0.000116586
2 *1961:A0 2.73575e-05
3 *1525:Q 3.40935e-05
4 *2247:A 4.68496e-05
5 *414:4 0.000139653682
6 *414:5 4.21998e-05
7 *414:6 8.91687e-05
8 *1461:B *1431:B 8.18967822e-05

*RES
1 *2247:A *414:6 4.32116
2 *414:5 *1525:Q 1.22257
3 *414:4 *414:5 3.34689
4 *414:6 *414:4 0.412091
5 *1961:A0 *414:6 3.79124
6 *1461:B *414:4 13.8142109
*END

*D_NET *415 0.00179249

*CONN
*I *2145:A I *C 46.5 40.375 *L 0.000395 *D INVX1
*I *1958:A0 I *C 46.5 38.665 *L 0.000391 *D OAI211X1
*I *1524:Q O *C 45.94 41.77 *L 0 *D DFFHQX1
*I *1465:B I *C 66.9 36.765 *L 0.00021 *D AND2XL

*CAP
1 *1465:B 0.000127376
2 *1958:A0 4.72029e-05
3 *1524:Q 2.90911e-05
4 *415:4 0.000374134
5 *415:5 0.000135184
6 *415:6 0.000532984727
7 *415:7 8.49392e-05
8 *415:8 0.000256241
9 *415:9 7.16421e-05
10 *415:4 *352:4 0.000133693223

*RES
1 *415:9 *1524:Q 3.93493
2 *1958:A0 *415:8 3.93493
3 *415:8 *415:7 0.778755
4 *415:7 *415:9 1.00542
5 *2145:A *415:7 3.29992
6 *415:6 *415:8 13.1571293
7 *415:5 *415:4 3.35714
8 *415:4 *415:6 12.4579
9 *1465:B *415:5 12.3924
*END

*D_NET *416 0.00106907

*CONN
*I *2246:A I *C 59.9 40.375 *L 0.000395 *D INVX1
*I *1957:A0 I *C 61.1 39.995 *L 0.000391 *D OAI211X1
*I *1523:Q O *C 62.54 40.31 *L 0 *D DFFHQX1
*I *1468:B I *C 67.1 33.345 *L 0.00021 *D AND2XL

*CAP
1 *1468:B 0.000331579
2 *1523:Q 1.7643e-05
3 *1957:A0 2.24103e-05
4 *2246:A 6.30631e-05
5 *416:4 0.000381469727
6 *416:5 0.000117721
7 *1468:B *1426:B 0.00013518333

*RES
1 *2246:A *416:5 8.18254
2 *416:5 *416:4 1.11883
3 *1957:A0 *416:5 6.89292
4 *416:4 *1523:Q 6.77822
5 *1468:B *416:4 15.0038004
*END

*D_NET *417 0.000741243

*CONN
*I *2224:A I *C 60.5 36.955 *L 0.000395 *D INVX1
*I *1956:A0 I *C 61.5 36.575 *L 0.000391 *D OAI211X1
*I *1522:Q O *C 63.34 36.89 *L 0 *D DFFHQX1
*I *1473:B I *C 67.9 35.055 *L 0.00021 *D AND2XL

*CAP
1 *1473:B 5.34074e-05
2 *1522:Q 1.46618e-05
3 *1956:A0 1.10866e-05
4 *2224:A 3.74336e-05
5 *417:4 0.000210465
6 *417:5 0.000268697734
7 *417:6 0.000145495

*RES
1 *2224:A *417:6 4.11264
2 *417:6 *417:5 5.25925
3 *1956:A0 *417:6 3.5759
4 *417:5 *1522:Q 6.78089
5 *417:4 *417:5 7.28428364
6 *1473:B *417:4 4.22223
*END

*D_NET *418 0.00127137

*CONN
*I *2147:A I *C 56.7 40.375 *L 0.000395 *D INVX1
*I *1946:A0 I *C 53.1 42.085 *L 0.000391 *D OAI211X1
*I *1521:Q O *C 54.74 41.77 *L 0 *D DFFHQX1
*I *1476:B I *C 68.1 40.185 *L 0.00021 *D AND2XL

*CAP
1 *1476:B 2.49759e-05
2 *2147:A 1.16849e-05
3 *1521:Q 1.41854e-05
4 *1946:A0 9.1196e-05
5 *418:4 0.000385582461
6 *418:5 0.000365437
7 *418:6 0.000144719
8 *418:7 0.000233591

*RES
1 *1946:A0 *418:7 8.32779
2 *418:7 *1521:Q 6.7886
3 *418:6 *418:7 6.12396
4 *418:5 *418:6 3.33631
5 *2147:A *418:6 3.57246
6 *418:4 *418:5 9.14692879
7 *1476:B *418:4 7.07207
*END

*D_NET *419 0.000612497

*CONN
*I *2241:A I *C 60.3 34.865 *L 0.000395 *D INVX1
*I *1954:A0 I *C 61.9 35.245 *L 0.000391 *D OAI211X1
*I *1520:Q O *C 63.54 34.93 *L 0 *D DFFHQX1
*I *1480:B I *C 67.1 35.055 *L 0.00021 *D AND2XL

*CAP
1 *1480:B 0.000118971
2 *1520:Q 2.21148e-05
3 *1954:A0 2.2173e-05
4 *2241:A 7.19443e-05
5 *419:4 0.00021213293
6 *419:5 0.000165165

*RES
1 *2241:A *419:5 4.96837
2 *419:5 *419:4 5.08067
3 *1954:A0 *419:5 3.84244
4 *419:4 *1520:Q 6.80504
5 *1480:B *419:4 9.57047939
*END

*D_NET *420 0.00132269

*CONN
*I *2222:A I *C 53.7 36.955 *L 0.000395 *D INVX1
*I *1950:A0 I *C 54.5 38.665 *L 0.000391 *D OAI211X1
*I *1519:Q O *C 63.34 38.35 *L 0 *D DFFHQX1
*I *1483:B I *C 66.7 38.475 *L 0.00021 *D AND2XL

*CAP
1 *1483:B 0.000127614
2 *1519:Q 1.79416e-05
3 *1950:A0 6.05008e-05
4 *2222:A 4.45235e-05
5 *420:4 2.63436e-05
6 *420:5 0.000318646426
7 *420:6 0.00028765
8 *420:6 *1518:D 8.48174121e-05
9 *420:6 *122:94 0.000231504434
10 *420:6 *1947:B0 0.000123143193

*RES
1 *420:6 *420:5 10.9789371
2 *2222:A *420:6 4.00117
3 *1950:A0 *420:6 4.76241
4 *420:4 *1519:Q 3.57248
5 *420:5 *420:4 3.34682
6 *1483:B *420:5 9.69251
*END

*D_NET *421 0.00105953

*CONN
*I *2165:A I *C 56.7 38.285 *L 0.000395 *D INVX1
*I *1947:A0 I *C 58.3 38.665 *L 0.000391 *D OAI211X1
*I *1518:Q O *C 59.74 38.35 *L 0 *D DFFHQX1
*I *1426:B I *C 67.5 38.475 *L 0.00021 *D AND2XL

*CAP
1 *1426:B 0.000207307
2 *1518:Q 7.45119e-06
3 *1947:A0 2.37816e-05
4 *2165:A 7.28365e-05
5 *421:4 1.56183e-05
6 *421:5 0.000245630742
7 *421:6 0.000126779
8 *421:4 *1518:CK 1.04308e-05
9 *1426:B *91:31 1.03712e-05
10 *1426:B *91:34 2.01464e-05
11 *1426:B *1518:CK 6.89625634e-05
12 *1426:B *1468:B 0.00013518333
13 *1426:B *827:2 0.000115036963

*RES
1 *2165:A *421:6 8.29296
2 *1947:A0 *421:6 6.80512
3 *421:6 *421:5 0.967672
4 *421:4 *1518:Q 3.40203
5 *421:5 *421:4 3.35722
6 *1426:B *421:5 13.723731
*END

*D_NET *422 0.00206745

*CONN
*I *2223:A I *C 40.9 40.375 *L 0.000395 *D INVX1
*I *1955:A0 I *C 41.3 39.995 *L 0.000391 *D OAI211X1
*I *1517:Q O *C 41.34 41.77 *L 0 *D DFFHQX1
*I *1429:B I *C 66.9 40.185 *L 0.00021 *D AND2XL

*CAP
1 *1429:B 0.000102284
2 *1955:A0 9.80498e-05
3 *2223:A 2.73022e-05
4 *1517:Q 6.25762e-06
5 *422:4 0.000451147539
6 *422:5 0.000446439
7 *422:6 0.000133393
8 *422:7 0.000106214
9 *422:8 2.61664e-05
10 *422:9 7.48643e-05
11 *422:4 *385:4 0.000249624258
12 *422:4 *351:3 0.000345706953

*RES
1 *422:9 *422:8 3.68976
2 *422:8 *1517:Q 0.239592
3 *2223:A *422:9 3.858
4 *1955:A0 *422:7 11.2442
5 *422:6 *422:9 3.69918
6 *422:7 *422:6 3.35726
7 *422:5 *422:6 8.61639
8 *422:4 *422:5 16.2377357
9 *1429:B *422:4 15.2481
*END

*D_NET *423 0.00258517

*CONN
*I *2163:A I *C 36.9 40.375 *L 0.000395 *D INVX1
*I *1953:A0 I *C 36.7 42.085 *L 0.000391 *D OAI211X1
*I *1516:Q O *C 35.34 43.73 *L 0 *D DFFHQX1
*I *1431:B I *C 68.1 41.895 *L 0.00021 *D AND2XL

*CAP
1 *1431:B 7.22394e-05
2 *2163:A 9.30464e-05
3 *1953:A0 6.61563e-06
4 *1516:Q 2.97403e-05
5 *423:4 0.00041515
6 *423:5 0.000491559492
7 *423:6 0.0002861
8 *423:7 0.000238178
9 *423:8 6.14534e-05
10 *423:9 7.68898e-05
11 *423:5 *353:3 0.000290870664
12 *423:4 *375:5 0.000441431992
13 *1431:B *1461:B 8.18967822e-05

*RES
1 *423:9 *1516:Q 3.79147
2 *423:8 *423:9 4.5556
3 *423:7 *423:8 3.35707
4 *1953:A0 *423:8 0.23965
5 *2163:A *423:7 5.18616
6 *423:6 *423:7 12.9591
7 *423:5 *423:6 9.73642
8 *423:4 *423:5 18.3907738
9 *1431:B *423:4 8.22612
*END

*D_NET *424 0.00322098

*CONN
*I *2151:A I *C 33.3 34.865 *L 0.000395 *D INVX1
*I *1943:A0 I *C 29.1 35.245 *L 0.000391 *D OAI211X1
*I *1515:Q O *C 27.54 33.47 *L 0 *D DFFHQX1
*I *1432:B I *C 66.1 40.185 *L 0.00021 *D AND2XL

*CAP
1 *1432:B 4.65488e-05
2 *2151:A 2.13984e-05
3 *1943:A0 1.94339e-05
4 *1515:Q 0.000131725
5 *424:4 0.000115455
6 *424:5 0.000374257578
7 *424:6 0.00035459
8 *424:7 0.000258985
9 *424:8 0.000300171
10 *424:9 0.000240328
11 *424:10 0.000279664
12 *424:9 *648:2 0.000126481055
13 *424:7 *355:4 0.000474989414
14 *424:6 *356:3 0.000476956367

*RES
1 *424:10 *1515:Q 9.0508
2 *1943:A0 *424:10 6.80509
3 *424:9 *424:10 3.38665
4 *424:8 *424:9 8.33954
5 *2151:A *424:9 6.92965
6 *424:7 *424:8 14.272213
7 *424:6 *424:7 1.46651
8 *424:5 *424:6 9.58544
9 *424:4 *424:5 11.1397
10 *1432:B *424:4 4.36599
*END

*D_NET *425 0.00254035

*CONN
*I *2173:A I *C 40.3 40.375 *L 0.000395 *D INVX1
*I *1942:A0 I *C 38.7 39.995 *L 0.000391 *D OAI211X1
*I *1514:Q O *C 38.54 43.73 *L 0 *D DFFHQX1
*I *1435:B I *C 67.7 43.605 *L 0.00021 *D AND2XL

*CAP
1 *1435:B 3.96937e-05
2 *2173:A 9.4233e-05
3 *1942:A0 3.87415e-05
4 *425:4 0.000358822
5 *425:5 0.00059431793
6 *425:6 0.000554144
7 *425:7 0.000370321
8 *425:8 0.000224351
9 *425:8 *1514:CK 8.76188e-06
10 *425:6 *90:28 1.94907e-05
11 *425:6 *90:33 2.64645e-05
12 *425:6 *90:36 1.01924e-05
13 *425:6 *1514:CK 6.79493e-06
14 *425:6 *90:38 6.4373e-06
15 *425:5 *90:25 9.52482e-05
16 *425:5 *90:28 3.15904754e-06
17 *425:5 *2067:A1 8.91685449e-05

*RES
1 *425:8 *425:7 1.89918
2 *425:7 *1514:Q 3.30002
3 *1942:A0 *425:8 4.11649
4 *2173:A *425:8 11.6474628
5 *425:6 *425:7 10.7164
6 *425:5 *425:6 8.7539
7 *425:4 *425:5 7.75597
8 *1435:B *425:4 7.46983
*END

*D_NET *426 0.00452435

*CONN
*I *2149:A I *C 22.1 31.445 *L 0.000395 *D INVX1
*I *1945:A0 I *C 20.5 31.825 *L 0.000391 *D OAI211X1
*I *1513:Q O *C 16.94 33.47 *L 0 *D DFFHQX1
*I *1436:B I *C 66.9 43.605 *L 0.00021 *D AND2XL

*CAP
1 *1436:B 9.14318e-05
2 *2149:A 7.78395e-05
3 *1513:Q 0.000149729
4 *1945:A0 6.78932e-05
5 *426:4 0.000547648
6 *426:5 0.000122194
7 *426:6 9.75765e-05
8 *426:7 0.000181911
9 *426:8 0.000181911
10 *426:9 8.77372e-05
11 *426:10 0.000218925
12 *426:11 7.63519e-05
13 *426:12 0.000127551
14 *426:13 0.000637173672
15 *426:7 *334:4 0.000138103965
16 *426:7 *332:7 0.000104665752
17 *426:7 *1234:A 0.000108122822
18 *426:6 *1385:D 0.000216364863
19 *426:4 *432:4 0.000593006602
20 *426:4 *427:4 0.000577449805
21 *426:4 *430:4 0.000120759014

*RES
1 *426:13 *426:12 3.68923
2 *1945:A0 *426:11 4.54136
3 *426:11 *426:10 3.35716
4 *426:10 *1513:Q 9.63178
5 *426:9 *426:10 1.11876
6 *426:8 *426:9 3.35716
7 *426:7 *426:8 8.60263
8 *426:12 *426:7 3.35716
9 *426:6 *426:9 3.56887
10 *2149:A *426:6 4.86201
11 *426:5 *426:4 7.18035
12 *426:4 *426:13 28.7864208
13 *1436:B *426:5 8.5284
*END

*D_NET *427 0.00234711

*CONN
*I *2174:A I *C 37.3 45.125 *L 0.000395 *D INVX1
*I *1938:A0 I *C 37.7 45.505 *L 0.000391 *D OAI211X1
*I *1512:Q O *C 39.34 45.19 *L 0 *D DFFHQX1
*I *1438:B I *C 66.1 45.315 *L 0.00021 *D AND2XL

*CAP
1 *1438:B 0.000179531
2 *1512:Q 3.41556e-05
3 *2174:A 3.06397e-05
4 *427:4 0.000395894063
5 *427:5 0.000257792
6 *427:6 0.000153126
7 *427:7 0.000108181
8 *427:4 *426:4 0.000577449805
9 *1438:B *1444:B 0.000610351562

*RES
1 *2174:A *427:7 3.92147
2 *1938:A0 *427:7 3.30004
3 *427:7 *427:6 4.63071
4 *427:5 *427:6 7.32365
5 *427:6 *1512:Q 7.01672
6 *427:4 *427:5 16.6912
7 *1438:B *427:4 17.706871
*END

*D_NET *428 0.00351822

*CONN
*I *2243:A I *C 25.3 34.865 *L 0.000395 *D INVX1
*I *1937:A0 I *C 22.1 35.245 *L 0.000391 *D OAI211X1
*I *1511:Q O *C 21.74 36.89 *L 0 *D DFFHQX1
*I *1439:B I *C 65.3 45.315 *L 0.00021 *D AND2XL

*CAP
1 *1439:B 0.000275847
2 *2243:A 2.20503e-05
3 *1937:A0 2.32477e-05
4 *1511:Q 4.46992e-05
5 *428:4 0.000652487
6 *428:5 0.000283305
7 *428:6 0.000287709
8 *428:7 0.000228103
9 *428:8 0.000125472
10 *428:9 0.000665008984
11 *428:4 *97:15 0.000112533574
12 *428:4 *705:6 0.000241279609
13 *428:4 *342:3 0.000556468945

*RES
1 *428:9 *428:8 0.665018
2 *428:7 *1511:Q 7.37845
3 *1937:A0 *428:7 7.21593
4 *428:6 *428:7 9.64628
5 *2243:A *428:6 6.92954
6 *428:8 *428:6 8.3035
7 *428:5 *428:4 3.34661
8 *428:4 *428:9 28.7864208
9 *1439:B *428:5 17.2755
*END

*D_NET *429 0.00184345

*CONN
*I *2235:A I *C 34.5 47.215 *L 0.000395 *D INVX1
*I *1939:A0 I *C 37.1 46.835 *L 0.000391 *D OAI211X1
*I *1510:Q O *C 39.14 47.15 *L 0 *D DFFHQX1
*I *1443:B I *C 65.1 47.025 *L 0.00021 *D AND2XL

*CAP
1 *1443:B 7.77273e-05
2 *1510:Q 2.20506e-05
3 *1939:A0 2.28896e-05
4 *2235:A 7.83769e-05
5 *429:4 9.23886e-05
6 *429:5 0.00058508
7 *429:6 0.000591278086
8 *429:7 8.38625e-05
9 *429:8 0.000142219
10 *429:8 *105:16 0.000147581104

*RES
1 *2235:A *429:8 8.86659
2 *429:8 *429:7 1.49406
3 *1939:A0 *429:8 6.81007
4 *429:7 *1510:Q 6.80507
5 *429:6 *429:7 6.80507
6 *429:5 *429:6 18.2031403
7 *429:4 *429:5 6.74924
8 *1443:B *429:4 8.37746
*END

*D_NET *430 0.00350559

*CONN
*I *2148:A I *C 25.9 40.375 *L 0.000395 *D INVX1
*I *2033:A0 I *C 24.9 39.995 *L 0.000391 *D OAI211X1
*I *1509:Q O *C 23.74 43.73 *L 0 *D DFFHQX1
*I *1444:B I *C 63.9 45.315 *L 0.00021 *D AND2XL

*CAP
1 *1444:B 6.34191e-05
2 *2148:A 3.75499e-05
3 *2033:A0 8.52598e-06
4 *1509:Q 2.96792e-05
5 *430:4 0.000320558
6 *430:5 0.000530123711
7 *430:6 0.000404774
8 *430:7 0.000235678
9 *430:8 0.000207722
10 *430:9 0.000162544
11 *430:6 *329:7 8.64267383e-05
12 *430:4 *426:4 0.000120759014
13 *1444:B *1450:B 0.00068748
14 *1444:B *1438:B 0.000610351562

*RES
1 *430:9 *1509:Q 3.79139
2 *2033:A0 *430:8 3.43142
3 *430:8 *430:9 2.81785
4 *430:7 *430:8 4.01971
5 *430:6 *430:7 10.8314
6 *2148:A *430:7 6.98978
7 *430:5 *430:6 10.2959
8 *430:4 *430:5 18.2031403
9 *1444:B *430:4 14.5612
*END

*D_NET *431 0.00274777

*CONN
*I *2161:A I *C 29.7 40.375 *L 0.000395 *D INVX1
*I *2032:A0 I *C 30.3 42.085 *L 0.000391 *D OAI211X1
*I *1508:Q O *C 30.14 43.73 *L 0 *D DFFHQX1
*I *1446:B I *C 63.5 47.025 *L 0.00021 *D AND2XL

*CAP
1 *1446:B 0.000187751
2 *2032:A0 1.15607e-05
3 *1508:Q 4.65076e-06
4 *2161:A 8.28487e-05
5 *431:4 0.000578343867
6 *431:5 0.000542047
7 *431:6 1.07312e-05
8 *431:7 0.000182633
9 *431:8 0.000119508
10 *431:4 *375:5 0.000452995313
11 *431:4 *349:4 0.000574707969

*RES
1 *2161:A *431:8 5.18259
2 *431:8 *431:7 0.619952
3 *431:7 *431:6 3.43157
4 *431:6 *1508:Q 0.16574
5 *2032:A0 *431:8 3.57581
6 *431:5 *431:7 12.9234
7 *431:4 *431:5 21.6804733
8 *1446:B *431:4 17.3818
*END

*D_NET *432 0.00297433

*CONN
*I *2238:A I *C 28.3 40.375 *L 0.000395 *D INVX1
*I *2031:A0 I *C 26.3 42.085 *L 0.000391 *D OAI211X1
*I *1507:Q O *C 26.94 43.73 *L 0 *D DFFHQX1
*I *1447:B I *C 63.1 45.315 *L 0.00021 *D AND2XL

*CAP
1 *1447:B 8.51165e-05
2 *2238:A 5.45341e-05
3 *1507:Q 3.01003e-05
4 *2031:A0 4.9468e-05
5 *432:4 0.000545206
6 *432:5 0.000554263594
7 *432:6 0.000187994
8 *432:7 3.86255e-05
9 *432:8 9.72784e-05
10 *2238:A *1096:19 8.53538477e-05
11 *432:4 *426:4 0.000593006602
12 *432:4 *349:4 0.000653386133

*RES
1 *2031:A0 *432:8 7.2855
2 *432:7 *1507:Q 4.00119
3 *432:8 *432:7 3.35706
4 *432:6 *432:8 0.967577
5 *2238:A *432:6 8.24161
6 *432:5 *432:6 8.41994
7 *432:4 *432:5 25.9138336
8 *1447:B *432:4 14.6453
*END

*D_NET *433 0.00270796

*CONN
*I *2221:A I *C 33.5 40.375 *L 0.000395 *D INVX1
*I *2030:A0 I *C 32.1 39.995 *L 0.000391 *D OAI211X1
*I *1506:Q O *C 32.74 41.77 *L 0 *D DFFHQX1
*I *1450:B I *C 62.7 47.025 *L 0.00021 *D AND2XL

*CAP
1 *1450:B 0.000162722
2 *2221:A 3.59986e-05
3 *1506:Q 1.62722e-05
4 *2030:A0 4.32711e-05
5 *433:4 0.000467717656
6 *433:5 0.000431655
7 *433:6 0.00018698
8 *433:7 2.42013e-05
9 *433:8 0.000131669
10 *433:5 *327:5 8.70823828e-05
11 *433:4 *343:4 0.000432908516
12 *1450:B *1444:B 0.00068748

*RES
1 *2030:A0 *433:8 4.12028
2 *433:7 *1506:Q 3.61917
3 *433:8 *433:6 1.06953
4 *433:6 *433:7 0.151068
5 *433:5 *433:6 13.3343
6 *2221:A *433:8 4.15996
7 *433:4 *433:5 19.2614784
8 *1450:B *433:4 18.2663
*END

*D_NET *434 0.00295556

*CONN
*I *2170:A I *C 28.3 48.545 *L 0.000395 *D INVX1
*I *2029:A0 I *C 25.7 48.925 *L 0.000391 *D OAI211X1
*I *1505:Q O *C 23.94 50.57 *L 0 *D DFFHQX1
*I *1451:B I *C 62.9 52.155 *L 0.00021 *D AND2XL

*CAP
1 *1451:B 0.000118973
2 *2170:A 4.30335e-05
3 *1505:Q 9.52449e-05
4 *2029:A0 4.43497e-05
5 *434:4 0.000575785
6 *434:5 0.000156581
7 *434:6 5.06086e-05
8 *434:7 0.000154199
9 *434:8 0.000586807734
10 *434:9 0.000201468
11 *434:10 5.25696e-05
12 *434:4 *376:4 0.000505924219
13 *434:4 *378:3 0.000370025625

*RES
1 *2029:A0 *434:10 4.12067
2 *434:10 *434:9 3.35702
3 *434:9 *1505:Q 8.22615
4 *434:8 *434:7 7.4673
5 *434:6 *434:7 3.35702
6 *434:7 *434:9 2.26015
7 *2170:A *434:6 4.28789
8 *434:5 *434:4 10.3447
9 *434:4 *434:8 26.2161484
10 *1451:B *434:5 5.946
*END

*D_NET *435 0.00254273

*CONN
*I *2154:A I *C 33.3 48.545 *L 0.000395 *D INVX1
*I *2028:A0 I *C 30.5 48.925 *L 0.000391 *D OAI211X1
*I *1504:Q O *C 30.34 50.57 *L 0 *D DFFHQX1
*I *1469:B I *C 62.1 52.155 *L 0.00021 *D AND2XL

*CAP
1 *1469:B 6.99166e-05
2 *2154:A 4.74407e-05
3 *1504:Q 1.5204e-05
4 *2028:A0 3.49854e-05
5 *435:4 0.000683183
6 *435:5 0.000709176094
7 *435:6 0.000150438
8 *435:7 5.53078e-05
9 *435:8 9.68618e-05
10 *435:8 *1504:CK 2.5034e-06
11 *435:6 *1504:CK 6.49691e-06
12 *435:6 *88:36 7.05123e-05
13 *435:6 *1574:CK 2.26498e-06
14 *435:5 *1581:CK 1.66297e-05
15 *435:5 *88:31 3.39746e-05
16 *435:5 *88:36 8.40428016e-06
17 *435:5 *373:3 0.000125169756
18 *435:4 *1096:16 0.000248551367
19 *1469:B *439:4 0.000165700918

*RES
1 *2028:A0 *435:8 3.96664
2 *435:8 *1504:Q 3.63276
3 *435:7 *435:6 3.35719
4 *435:6 *435:8 5.53428
5 *2154:A *435:7 4.28798
6 *435:5 *435:6 9.62923
7 *435:4 *435:5 19.110321
8 *1469:B *435:4 8.21351
*END

*D_NET *436 0.00247121

*CONN
*I *2229:A I *C 29.3 54.055 *L 0.000395 *D INVX1
*I *2026:A0 I *C 30.7 53.675 *L 0.000391 *D OAI211X1
*I *1503:Q O *C 30.14 55.45 *L 0 *D DFFHQX1
*I *1454:B I *C 62.5 53.865 *L 0.00021 *D AND2XL

*CAP
1 *1454:B 0.000144245
2 *2026:A0 6.40765e-05
3 *1503:Q 4.14863e-05
4 *2229:A 1.88962e-05
5 *436:4 0.000437617
6 *436:5 0.000150562
7 *436:6 0.000594794766
8 *436:7 0.000233289
9 *436:8 0.000111281
10 *436:4 *382:4 0.000289797773
11 *1454:B *1460:B 0.000283718105
12 *1454:B *377:3 0.000101447109

*RES
1 *2229:A *436:8 3.74842
2 *436:8 *436:7 0.619941
3 *436:7 *1503:Q 4.22215
4 *2026:A0 *436:8 7.88505
5 *436:6 *436:7 7.75679
6 *436:5 *436:4 0.173921
7 *436:4 *436:6 17.2960758
8 *1454:B *436:5 10.615
*END

*D_NET *437 0.00234926

*CONN
*I *2242:A I *C 34.1 54.055 *L 0.000395 *D INVX1
*I *2023:A0 I *C 32.7 53.675 *L 0.000391 *D OAI211X1
*I *1502:Q O *C 33.34 55.45 *L 0 *D DFFHQX1
*I *1459:B I *C 62.5 55.575 *L 0.00021 *D AND2XL

*CAP
1 *1459:B 3.86202e-05
2 *2242:A 4.19627e-05
3 *1502:Q 1.08451e-05
4 *2023:A0 8.74956e-05
5 *437:4 0.000307854
6 *437:5 0.000678181641
7 *437:6 0.00046873
8 *437:7 0.000116761
9 *437:8 0.000113367
10 *437:7 *1502:CK 1.19209e-07
11 *437:6 *1502:CK 5.66244e-06
12 *437:5 *1564:CK 5.00083e-05
13 *437:5 *88:21 2.8491e-05
14 *437:5 *88:32 1.91927127e-05
15 *437:5 *2038:A0 9.58442676e-05
16 *1459:B *444:4 0.000286102305

*RES
1 *2023:A0 *437:8 5.0008
2 *437:8 *1502:Q 3.59038
3 *437:7 *437:8 0.362875
4 *437:6 *437:7 4.67629
5 *2242:A *437:7 4.23542
6 *437:5 *437:6 13.6674643
7 *437:4 *437:5 8.9503
8 *1459:B *437:4 7.35823
*END

*D_NET *438 0.00224268

*CONN
*I *2236:A I *C 40.3 50.635 *L 0.000395 *D INVX1
*I *2020:A0 I *C 36.9 52.345 *L 0.000391 *D OAI211X1
*I *1501:Q O *C 35.14 53.99 *L 0 *D DFFHQX1
*I *1460:B I *C 60.5 55.575 *L 0.00021 *D AND2XL

*CAP
1 *1460:B 0.000171539
2 *2236:A 4.3151e-05
3 *1501:Q 7.80244e-05
4 *2020:A0 4.60122e-05
5 *438:4 0.000436067578
6 *438:5 0.000311432
7 *438:6 0.000209746
8 *438:7 0.00011194
9 *438:8 0.000180482
10 *438:9 5.44161e-05
11 *438:4 *1965:B0 0.000316143027
12 *1460:B *1454:B 0.000283718105

*RES
1 *2020:A0 *438:9 4.15235
2 *438:9 *438:8 3.3572
3 *438:8 *1501:Q 8.43361
4 *438:7 *438:6 1.45528
5 *2236:A *438:7 4.22228
6 *438:6 *438:8 6.11826
7 *438:5 *438:6 4.08224
8 *438:4 *438:5 12.155652
9 *1460:B *438:4 10.9315
*END

*D_NET *439 0.00203222

*CONN
*I *2175:A I *C 43.3 47.215 *L 0.000395 *D INVX1
*I *2001:A0 I *C 42.9 48.925 *L 0.000391 *D OAI211X1
*I *1500:Q O *C 41.94 52.03 *L 0 *D DFFHQX1
*I *1462:B I *C 61.5 55.575 *L 0.00021 *D AND2XL

*CAP
1 *1462:B 4.32758e-05
2 *2175:A 7.40246e-05
3 *1500:Q 4.6966e-05
4 *2001:A0 1.48408e-05
5 *439:4 0.00055683
6 *439:5 0.000653624531
7 *439:6 0.00018197
8 *439:5 *86:37 1.84774e-06
9 *439:5 *1500:CK 9.53674e-07
10 *439:5 *86:39 6.55651e-07
11 *439:4 *86:21 7.6592e-05
12 *439:4 *86:23 4.92334e-05
13 *439:4 *86:24 1.29342e-05
14 *439:4 *86:25 8.52346e-06
15 *439:4 *86:26 6.49691e-06
16 *439:4 *86:28 4.94719e-06
17 *439:4 *86:32 2.74181e-06
18 *439:4 *86:37 7.15275785e-07
19 *2175:A *1640:B0 0.00012934208
20 *439:4 *1469:B 0.000165700918

*RES
1 *2001:A0 *439:6 3.64763
2 *439:6 *439:5 5.34903
3 *439:5 *1500:Q 7.6215
4 *2175:A *439:6 5.58781
5 *439:4 *439:5 19.8333263
6 *1462:B *439:4 4.36578
*END

*D_NET *440 0.00110364

*CONN
*I *2232:A I *C 61.3 48.545 *L 0.000395 *D INVX1
*I *2022:A0 I *C 59.3 48.925 *L 0.000391 *D OAI211X1
*I *1499:Q O *C 58.34 53.99 *L 0 *D DFFHQX1
*I *1463:B I *C 61.9 57.285 *L 0.00021 *D AND2XL

*CAP
1 *1463:B 5.42413e-05
2 *2232:A 8.7204e-05
3 *2022:A0 7.3334e-06
4 *1499:Q 2.05626e-05
5 *440:4 0.000213923
6 *440:5 0.000267147
7 *440:6 0.000352859492
8 *440:4 *1466:A 0.000100374219

*RES
1 *440:6 *1499:Q 3.62942
2 *2022:A0 *440:5 3.34681
3 *440:5 *440:6 4.39492
4 *2232:A *440:5 11.8798018
5 *440:4 *440:6 10.7365
6 *1463:B *440:4 4.22235
*END

*D_NET *441 0.000767946

*CONN
*I *2166:A I *C 57.3 50.635 *L 0.000395 *D INVX1
*I *2012:A0 I *C 57.9 50.255 *L 0.000391 *D OAI211X1
*I *1498:Q O *C 58.34 52.03 *L 0 *D DFFHQX1
*I *1466:B I *C 61.1 57.285 *L 0.00021 *D AND2XL

*CAP
1 *1466:B 3.76702e-05
2 *2012:A0 7.98782e-06
3 *2166:A 3.23668e-05
4 *441:4 0.000267328
5 *441:5 0.000305950645
6 *441:6 0.000116647

*RES
1 *2166:A *441:6 3.96524
2 *441:6 *441:5 1.72267
3 *2012:A0 *441:6 3.34669
4 *441:5 *1498:Q 3.29991
5 *441:4 *441:5 15.1032209
6 *1466:B *441:4 1.46824
*END

*D_NET *442 0.000847101

*CONN
*I *2176:A I *C 56.1 55.385 *L 0.000395 *D INVX1
*I *2014:A0 I *C 57.5 55.765 *L 0.000391 *D OAI211X1
*I *1497:Q O *C 57.54 58.87 *L 0 *D DFFHQX1
*I *1467:B I *C 64.1 58.995 *L 0.00021 *D AND2XL

*CAP
1 *1467:B 0.000190973
2 *2014:A0 1.10264e-05
3 *2176:A 7.02756e-05
4 *442:4 0.000234007832
5 *442:5 0.000151278
6 *442:6 0.000189542

*RES
1 *2176:A *442:6 4.93701
2 *442:6 *442:5 2.6443
3 *2014:A0 *442:6 3.576
4 *442:5 *1497:Q 3.2999
5 *442:4 *442:5 4.1668
6 *1467:B *442:4 11.2948418
*END

*D_NET *443 0.000944734

*CONN
*I *2155:A I *C 51.9 50.635 *L 0.000395 *D INVX1
*I *2007:A0 I *C 53.1 48.925 *L 0.000391 *D OAI211X1
*I *1496:Q O *C 52.74 50.57 *L 0 *D DFFHQX1
*I *1453:B I *C 63.9 50.445 *L 0.00021 *D AND2XL

*CAP
1 *1453:B 9.05374e-05
2 *2007:A0 5.14367e-05
3 *1496:Q 1.98476e-05
4 *2155:A 3.34403e-05
5 *443:4 0.000367641445
6 *443:5 0.000337062
7 *443:6 4.4761e-05

*RES
1 *2155:A *443:6 7.18574
2 *443:6 *1496:Q 0.411595
3 *443:5 *1496:Q 3.43143
4 *2007:A0 *443:5 4.20883
5 *443:4 *443:5 17.0507431
6 *1453:B *443:4 3.43429
*END

*D_NET *444 0.00189757

*CONN
*I *2245:A I *C 46.9 50.635 *L 0.000395 *D INVX1
*I *2004:A0 I *C 46.5 48.925 *L 0.000391 *D OAI211X1
*I *1495:Q O *C 47.54 53.99 *L 0 *D DFFHQX1
*I *1470:B I *C 63.3 58.995 *L 0.00021 *D AND2XL

*CAP
1 *1470:B 4.75628e-05
2 *2245:A 1.84164e-05
3 *1495:Q 0.000262317
4 *2004:A0 8.31499e-05
5 *444:4 0.000113485
6 *444:5 0.000295696
7 *444:6 0.000463843359
8 *444:7 0.000126841
9 *444:8 0.000200153
10 *444:4 *1459:B 0.000286102305

*RES
1 *2004:A0 *444:8 4.65309
2 *444:8 *444:7 5.49274
3 *444:7 *1495:Q 0.976894
4 *2245:A *444:8 3.64391
5 *444:6 *1495:Q 12.9050016
6 *444:5 *444:6 7.57452
7 *444:4 *444:5 4.85021
8 *1470:B *444:4 4.36599
*END

*D_NET *445 0.00171542

*CONN
*I *2233:A I *C 44.1 57.475 *L 0.000395 *D INVX1
*I *2002:A0 I *C 45.5 57.095 *L 0.000391 *D OAI211X1
*I *1494:Q O *C 43.54 60.83 *L 0 *D DFFHQX1
*I *1474:B I *C 59.9 60.705 *L 0.00021 *D AND2XL

*CAP
1 *1474:B 5.73388e-05
2 *2002:A0 8.76777e-05
3 *2233:A 2.18161e-05
4 *445:4 0.000273525723
5 *445:5 0.000217439
6 *445:6 0.000273229
7 *445:7 0.000164988
8 *2002:A0 *1167:A 8.49962207e-05
9 *1474:B *1474:A 0.000205516816
10 *1474:B *1475:B 0.000328898438

*RES
1 *445:7 *1494:Q 3.29995
2 *445:6 *445:7 4.48736
3 *445:5 *445:7 2.09028
4 *2233:A *445:5 3.78434
5 *2002:A0 *445:5 12.0609999
6 *445:4 *445:6 12.0043
7 *1474:B *445:4 8.04607
*END

*D_NET *446 0.0017736

*CONN
*I *2250:A I *C 40.7 60.895 *L 0.000395 *D INVX1
*I *1952:A0 I *C 39.5 57.095 *L 0.000391 *D OAI211X1
*I *1493:Q O *C 39.34 58.87 *L 0 *D DFFHQX1
*I *1475:B I *C 60.7 60.705 *L 0.00021 *D AND2XL

*CAP
1 *1475:B 3.64167e-05
2 *2250:A 1.48414e-05
3 *1952:A0 0.000105621
4 *446:4 0.000191868
5 *446:5 0.000272750859
6 *446:6 0.000220419
7 *446:7 0.000193895
8 *446:5 *386:3 0.000126123428
9 *446:4 *452:4 0.000282764434
10 *1475:B *1474:B 0.000328898438

*RES
1 *446:7 *1493:Q 3.29991
2 *1952:A0 *446:7 8.76008
3 *446:6 *446:7 5.89325
4 *2250:A *446:6 13.5477781
5 *446:5 *446:6 6.10804
6 *446:4 *446:5 9.46066
7 *1475:B *446:4 7.14847
*END

*D_NET *447 0.00171435

*CONN
*I *2230:A I *C 43.1 55.385 *L 0.000395 *D INVX1
*I *1962:A0 I *C 41.7 57.095 *L 0.000391 *D OAI211X1
*I *1492:Q O *C 42.94 58.87 *L 0 *D DFFHQX1
*I *1477:B I *C 57.7 60.705 *L 0.00021 *D AND2XL

*CAP
1 *1477:B 2.84919e-05
2 *2230:A 8.38644e-05
3 *1492:Q 1.89536e-05
4 *447:4 9.61406e-05
5 *447:5 0.00044745207
6 *447:6 0.000385286
7 *447:7 0.000113251
8 *447:8 0.000193776
9 *447:9 0.000188826
10 *1477:B *95:98 0.000158309941

*RES
1 *447:9 *447:8 4.97214
2 *447:8 *447:7 1.87102
3 *1962:A0 *447:8 3.29994
4 *447:7 *1492:Q 3.71486
5 *447:6 *447:7 3.33634
6 *2230:A *447:9 8.03291
7 *447:5 *447:6 10.794878
8 *447:4 *447:5 4.87759
9 *1477:B *447:4 4.22235
*END

*D_NET *448 0.00119376

*CONN
*I *2152:A I *C 53.3 43.795 *L 0.000395 *D INVX1
*I *1941:A0 I *C 53.5 45.505 *L 0.000391 *D OAI211X1
*I *1491:Q O *C 54.54 43.73 *L 0 *D DFFHQX1
*I *1478:B I *C 63.9 48.735 *L 0.00021 *D AND2XL

*CAP
1 *1478:B 5.95474e-05
2 *1491:Q 2.47923e-05
3 *1941:A0 3.24869e-05
4 *448:4 0.000455556
5 *448:5 0.000470399844
6 *448:6 6.69334e-05
7 *448:7 8.40454e-05

*RES
1 *448:7 *448:6 3.99973
2 *448:5 *448:7 0.842862
3 *2152:A *448:7 3.29982
4 *1941:A0 *448:5 3.95396
5 *448:6 *1491:Q 0.903194
6 *448:4 *448:5 19.4773674
7 *1478:B *448:4 2.20553
*END

*D_NET *449 0.000876665

*CONN
*I *2227:A I *C 52.7 55.385 *L 0.000395 *D INVX1
*I *1965:A0 I *C 54.1 55.765 *L 0.000391 *D OAI211X1
*I *1490:Q O *C 55.94 57.41 *L 0 *D DFFHQX1
*I *1481:B I *C 62.3 58.995 *L 0.00021 *D AND2XL

*CAP
1 *1481:B 4.53013e-05
2 *1490:Q 0.000225128
3 *2227:A 9.45318e-05
4 *449:4 0.000237107285
5 *449:5 0.000106692
6 *449:6 0.000167905

*RES
1 *2227:A *449:6 12.2853
2 *1965:A0 *449:6 0.500133
3 *449:6 *449:5 8.05236
4 *449:5 *1490:Q 1.22273
5 *449:4 *1490:Q 18.0886993
6 *1481:B *449:4 1.71403
*END

*D_NET *450 0.000727058

*CONN
*I *2248:A I *C 53.7 58.805 *L 0.000395 *D INVX1
*I *1949:A0 I *C 54.5 59.185 *L 0.000391 *D OAI211X1
*I *1489:Q O *C 51.74 60.83 *L 0 *D DFFHQX1
*I *1482:B I *C 55.7 60.705 *L 0.00021 *D AND2XL

*CAP
1 *1482:B 4.05317e-05
2 *1949:A0 2.68831e-05
3 *2248:A 1.91926e-05
4 *1489:Q 0.000109316
5 *450:4 0.000115155
6 *450:5 0.000276923184
7 *450:6 0.00013906

*RES
1 *450:6 *450:5 5.31894
2 *450:5 *1489:Q 9.48393345
3 *2248:A *450:6 3.61914
4 *1949:A0 *450:6 3.83867
5 *450:4 *450:5 5.31083
6 *1482:B *450:4 4.14445
*END

*D_NET *451 0.00101662

*CONN
*I *2169:A I *C 46.9 58.805 *L 0.000395 *D INVX1
*I *1944:A0 I *C 46.9 60.515 *L 0.000391 *D OAI211X1
*I *1488:Q O *C 48.54 60.83 *L 0 *D DFFHQX1
*I *1484:B I *C 56.5 60.705 *L 0.00021 *D AND2XL

*CAP
1 *1484:B 0.000156701
2 *1488:Q 4.60164e-05
3 *2169:A 6.51461e-05
4 *1944:A0 1.49029e-05
5 *451:4 0.000242769727
6 *451:5 0.000120105
7 *451:4 *1488:CK 1.06096e-05
8 *451:4 *86:29 1.00136e-05
9 *1484:B *1489:CK 8.23736291e-05
10 *1484:B *452:4 0.00026798248

*RES
1 *451:5 *451:4 4.2047
2 *1944:A0 *451:5 3.48192
3 *2169:A *451:5 4.45538
4 *451:4 *1488:Q 7.20532
5 *1484:B *451:4 13.6903524
*END

*D_NET *452 0.00247234

*CONN
*I *2239:A I *C 49.1 47.215 *L 0.000395 *D INVX1
*I *1940:A0 I *C 48.5 48.925 *L 0.000391 *D OAI211X1
*I *1487:Q O *C 47.34 55.45 *L 0 *D DFFHQX1
*I *1485:B I *C 62.7 60.705 *L 0.00021 *D AND2XL

*CAP
1 *1485:B 1.65115e-05
2 *2239:A 0.000118316
3 *1940:A0 3.07558e-05
4 *1487:Q 8.2613e-05
5 *452:4 0.000189303
6 *452:5 0.000403761875
7 *452:6 0.000291108
8 *452:7 0.000402807
9 *452:8 0.000112414
10 *452:8 *1495:CK 5.1856e-06
11 *452:7 *1495:CK 5.48363e-06
12 *452:6 *86:29 4.76837e-07
13 *452:5 *86:29 9.66191e-05
14 *452:5 *1559:CK 4.35114e-06
15 *452:5 *1495:CK 2.02658933e-06
16 *452:4 *446:4 0.000282764434
17 *452:4 *1484:B 0.00026798248
18 *1485:B *1485:A 0.000159859658

*RES
1 *452:8 *1487:Q 4.94057
2 *452:7 *452:8 0.755918
3 *1940:A0 *452:6 3.79123
4 *452:6 *452:7 3.1144
5 *452:5 *452:7 26.3090134
6 *2239:A *452:6 6.05176
7 *452:4 *452:5 10.6776
8 *1485:B *452:4 6.86107
*END

*D_NET *453 0.00195843

*CONN
*I *2159:A I *C 38.7 57.475 *L 0.000395 *D INVX1
*I *1951:A0 I *C 35.5 57.095 *L 0.000391 *D OAI211X1
*I *1486:Q O *C 36.14 58.87 *L 0 *D DFFHQX1
*I *1427:B I *C 61.9 60.705 *L 0.00021 *D AND2XL

*CAP
1 *1427:B 6.33025e-05
2 *2159:A 1.99047e-05
3 *1486:Q 5.97227e-05
4 *1951:A0 2.58709e-05
5 *453:4 0.000443221
6 *453:5 7.06349e-05
7 *453:6 0.000566661367
8 *453:7 0.000247477
9 *453:8 0.000182393
10 *453:7 *380:4 0.000118196006
11 *1427:B *95:83 0.000161051748

*RES
1 *1951:A0 *453:8 3.79138
2 *453:8 *1486:Q 4.77071
3 *453:7 *453:8 5.74735
4 *453:6 *453:7 10.437
5 *2159:A *453:7 6.78871
6 *453:5 *453:4 3.35716
7 *453:4 *453:6 17.5983906
8 *1427:B *453:5 4.86201
*END

*D_NET *454 0.000239611

*CONN
*I *2195:A I *C 35.7 9.595 *L 0.000395 *D INVX1
*I *2039:B0 I *C 34.2 9.6 *L 0.000392 *D AOI21X1
*I *1620:Q O *C 34.14 10.99 *L 0 *D DFFHQX1

*CAP
1 *2195:A 3.05174e-05
2 *2039:B0 2.12786e-05
3 *1620:Q 3.21864e-05
4 *454:3 6.63401e-05
5 *454:4 8.92877539e-05

*RES
1 *454:4 *1620:Q 4.04906273
2 *2039:B0 *454:4 3.62634
3 *454:3 *454:4 3.97659
4 *2195:A *454:3 1.19187
*END

*D_NET *455 0.00034976

*CONN
*I *2200:A I *C 29.7 13.015 *L 0.000395 *D INVX1
*I *2047:B0 I *C 29.365 12.975 *L 0.000793 *D AOI21X2
*I *1619:Q O *C 27.14 14.41 *L 0 *D DFFHQX1

*CAP
1 *2200:A 6.79521e-06
2 *1619:Q 3.48679e-05
3 *455:3 8.54129e-05
4 *455:4 0.000113487246
5 *455:3 *121:24 0.000109195713

*RES
1 *455:4 *1619:Q 4.07865
2 *2047:B0 *455:3 0.499971
3 *455:3 *455:4 11.8846893
4 *2200:A *455:3 0.239558
*END

*D_NET *456 0.000309467

*CONN
*I *2186:A I *C 39.3 7.505 *L 0.000395 *D INVX1
*I *2043:B0 I *C 38.6 7.5 *L 0.000392 *D AOI21X1
*I *1618:Q O *C 37.54 6.11 *L 0 *D DFFHQX1

*CAP
1 *2186:A 7.25986e-05
2 *2043:B0 2.61655e-05
3 *1618:Q 5.59695e-05
4 *456:3 0.000154733662

*RES
1 *456:3 *1618:Q 4.66159
2 *2043:B0 *456:3 3.79135
3 *2186:A *456:3 5.20312786
*END

*D_NET *457 0.000420928

*CONN
*I *2188:A I *C 30.7 7.505 *L 0.000395 *D INVX1
*I *2044:B0 I *C 30.165 9.555 *L 0.000793 *D AOI21X2
*I *1617:Q O *C 30.34 12.95 *L 0 *D DFFHQX1

*CAP
1 *2188:A 7.89162e-05
2 *1617:Q 3.6e-05
3 *457:3 0.000131547
4 *457:4 0.000174462793

*RES
1 *2044:B0 *457:4 3.29995
2 *457:4 *457:3 1.852
3 *457:3 *1617:Q 3.935
4 *2188:A *457:4 5.39314747
*END

*D_NET *458 0.000597596

*CONN
*I *2190:A I *C 33.7 14.345 *L 0.000395 *D INVX1
*I *2090:B0 I *C 36.8 14.34 *L 0.000392 *D AOI21X1
*I *1616:Q O *C 34.34 16.37 *L 0 *D DFFHQX1

*CAP
1 *2090:B0 0.00015813
2 *1616:Q 7.33078e-06
3 *2190:A 5.00689e-05
4 *458:3 1.51389e-05
5 *458:4 0.000183999531
6 *458:5 6.81277e-05
7 *2090:B0 *329:3 0.000114798545

*RES
1 *458:5 *458:4 0.211621
2 *2190:A *458:5 4.36594
3 *458:4 *458:3 3.52112
4 *458:3 *1616:Q 0.282648
5 *2090:B0 *458:4 13.6504173
*END

*D_NET *459 0.000404716

*CONN
*I *2196:A I *C 26.3 14.345 *L 0.000395 *D INVX1
*I *2050:B0 I *C 24.6 14.34 *L 0.000392 *D AOI21X1
*I *1615:Q O *C 24.94 16.37 *L 0 *D DFFHQX1

*CAP
1 *2196:A 4.27373e-05
2 *2050:B0 4.95907e-05
3 *1615:Q 1.222e-05
4 *459:3 0.000118732
5 *459:4 3.40351e-05
6 *459:5 0.000147402285

*RES
1 *459:5 *459:4 3.64766
2 *459:4 *1615:Q 0.411571
3 *2050:B0 *459:5 4.07863
4 *459:3 *459:5 8.04674625
5 *2196:A *459:3 4.14444
*END

*D_NET *460 0.000510693

*CONN
*I *2134:A I *C 32.7 17.765 *L 0.000395 *D INVX1
*I *2046:B0 I *C 33.6 17.76 *L 0.000392 *D AOI21X1
*I *1614:Q O *C 29.34 17.83 *L 0 *D DFFHQX1

*CAP
1 *2046:B0 4.90548e-05
2 *2134:A 1.6988e-05
3 *1614:Q 0.000189303
4 *460:3 0.000255346289

*RES
1 *460:3 *1614:Q 13.7981176
2 *2134:A *460:3 3.64765
3 *2046:B0 *460:3 4.10895
*END

*D_NET *461 0.000329495

*CONN
*I *2212:A I *C 23.3 19.855 *L 0.000395 *D INVX1
*I *2034:B0 I *C 25 19.86 *L 0.000392 *D AOI21X1
*I *1613:Q O *C 23.74 17.83 *L 0 *D DFFHQX1

*CAP
1 *2034:B0 9.78708e-05
2 *2212:A 2.24713e-05
3 *1613:Q 6.97444e-06
4 *461:3 0.000157773496
5 *461:4 4.44058e-05

*RES
1 *461:4 *1613:Q 0.239594
2 *461:3 *461:4 3.9667
3 *2212:A *461:3 3.71487
4 *2034:B0 *461:3 11.6225481
*END

*D_NET *462 0.000500679

*CONN
*I *2132:A I *C 20.3 28.025 *L 0.000395 *D INVX1
*I *2042:B0 I *C 22.8 30.12 *L 0.000392 *D AOI21X1
*I *1612:Q O *C 23.54 28.09 *L 0 *D DFFHQX1

*CAP
1 *1612:Q 4.33321e-05
2 *2042:B0 7.12876e-05
3 *2132:A 0.000109314
4 *462:3 9.76912e-05
5 *462:4 0.000179052344

*RES
1 *2132:A *462:4 8.83090496
2 *462:3 *462:4 3.84573
3 *2042:B0 *462:3 4.43849
4 *462:4 *1612:Q 7.31916
*END

*D_NET *463 0.000275254

*CONN
*I *2209:A I *C 22.7 21.185 *L 0.000395 *D INVX1
*I *2052:B0 I *C 23.6 21.18 *L 0.000392 *D AOI21X1
*I *1611:Q O *C 22.74 23.21 *L 0 *D DFFHQX1

*CAP
1 *2052:B0 8.7797e-05
2 *1611:Q 4.98301e-05
3 *463:3 0.000137627129

*RES
1 *463:3 *1611:Q 4.50955
2 *2209:A *463:3 3.29998
3 *2052:B0 *463:3 4.94790077
*END

*D_NET *464 0.000358701

*CONN
*I *2208:A I *C 28.5 23.275 *L 0.000395 *D INVX1
*I *2089:B0 I *C 29.6 23.28 *L 0.000392 *D AOI21X1
*I *1610:Q O *C 27.54 24.67 *L 0 *D DFFHQX1

*CAP
1 *2089:B0 7.71882e-05
2 *2208:A 1.44239e-05
3 *1610:Q 2.01468e-05
4 *464:3 8.5413457e-05
5 *464:4 8.20157e-05
6 *464:5 7.9512e-05

*RES
1 *464:5 *1610:Q 3.64771
2 *464:4 *464:5 1.19823
3 *464:3 *464:4 3.35717
4 *2208:A *464:4 3.59674
5 *2089:B0 *464:3 7.8779459
*END

*D_NET *465 0.000251055

*CONN
*I *2127:A I *C 31.3 28.025 *L 0.000395 *D INVX1
*I *2059:B0 I *C 32.2 28.02 *L 0.000392 *D AOI21X1
*I *1609:Q O *C 31.14 26.63 *L 0 *D DFFHQX1

*CAP
1 *2059:B0 7.1884e-05
2 *2127:A 2.27093e-05
3 *1609:Q 3.09341e-05
4 *465:3 0.000125527383

*RES
1 *465:3 *1609:Q 4.08613
2 *2127:A *465:3 3.79132
3 *2059:B0 *465:3 4.77409363
*END

*D_NET *466 0.000454307

*CONN
*I *2210:A I *C 17.1 23.275 *L 0.000395 *D INVX1
*I *2058:B0 I *C 18.2 23.28 *L 0.000392 *D AOI21X1
*I *1608:Q O *C 20.14 24.67 *L 0 *D DFFHQX1

*CAP
1 *1608:Q 5.20345e-05
2 *2058:B0 2.65824e-05
3 *2210:A 6.42542e-05
4 *466:3 0.000136316
5 *466:4 0.000175118437

*RES
1 *2210:A *466:4 7.59458542
2 *466:4 *466:3 4.91917
3 *2058:B0 *466:4 6.84991
4 *466:3 *1608:Q 4.43141
*END

*D_NET *467 0.000370622

*CONN
*I *2143:A I *C 20.5 21.185 *L 0.000395 *D INVX1
*I *2069:B0 I *C 21.4 21.18 *L 0.000392 *D AOI21X1
*I *1607:Q O *C 19.54 23.21 *L 0 *D DFFHQX1

*CAP
1 *2069:B0 0.000106692
2 *2143:A 1.77633e-05
3 *1607:Q 2.56889e-05
4 *467:3 0.00015962124
5 *467:4 6.08575e-05

*RES
1 *467:4 *1607:Q 3.90565
2 *467:3 *467:4 0.918515
3 *2143:A *467:3 3.82175
4 *2069:B0 *467:3 5.29193878
*END

*D_NET *468 0.000397086

*CONN
*I *2202:A I *C 31.1 21.185 *L 0.000395 *D INVX1
*I *2084:B0 I *C 32.4 21.18 *L 0.000392 *D AOI21X1
*I *1606:Q O *C 30.34 23.21 *L 0 *D DFFHQX1

*CAP
1 *2084:B0 0.000102819
2 *2202:A 3.78482e-05
3 *1606:Q 2.37814e-05
4 *468:3 0.00017476082
5 *468:4 5.78749e-05

*RES
1 *468:4 *1606:Q 3.76233
2 *468:3 *468:4 0.768501
3 *2202:A *468:3 4.27062
4 *2084:B0 *468:3 11.5224123
*END

*D_NET *469 0.000445843

*CONN
*I *2123:A I *C 20.1 26.695 *L 0.000395 *D INVX1
*I *2041:B0 I *C 19.6 26.7 *L 0.000392 *D AOI21X1
*I *1605:Q O *C 23.74 26.63 *L 0 *D DFFHQX1

*CAP
1 *2123:A 1.68071e-05
2 *1605:Q 0.000180422
3 *2041:B0 2.56886e-05
4 *469:3 0.000222921367

*RES
1 *2041:B0 *469:3 3.7044
2 *469:3 *1605:Q 13.8782263
3 *2123:A *469:3 3.69318
*END

*D_NET *470 0.000527978

*CONN
*I *2118:A I *C 61.5 23.275 *L 0.000395 *D INVX1
*I *2036:B0 I *C 60.6 23.28 *L 0.000392 *D AOI21X1
*I *1604:Q O *C 58.34 19.79 *L 0 *D DFFHQX1

*CAP
1 *2118:A 6.2107e-05
2 *1604:Q 0.000201882
3 *470:3 0.000263988965

*RES
1 *470:3 *1604:Q 14.1390562
2 *2036:B0 *470:3 3.30003
3 *2118:A *470:3 10.9413
*END

*D_NET *471 0.000406861

*CONN
*I *2135:A I *C 60.9 26.695 *L 0.000395 *D INVX1
*I *2053:B0 I *C 60.4 26.7 *L 0.000392 *D AOI21X1
*I *1603:Q O *C 56.74 26.63 *L 0 *D DFFHQX1

*CAP
1 *2135:A 3.82649e-05
2 *2053:B0 1.973e-05
3 *1603:Q 0.000145436
4 *471:3 0.000203430645

*RES
1 *471:3 *1603:Q 13.1579638
2 *2053:B0 *471:3 3.48645
3 *2135:A *471:3 4.16929
*END

*D_NET *472 0.000455022

*CONN
*I *2144:A I *C 60.9 24.605 *L 0.000395 *D INVX1
*I *2055:B0 I *C 60.4 24.6 *L 0.000392 *D AOI21X1
*I *1602:Q O *C 56.94 23.21 *L 0 *D DFFHQX1

*CAP
1 *2144:A 3.43306e-05
2 *2055:B0 1.38274e-05
3 *1602:Q 0.00017935
4 *472:3 0.000227510938

*RES
1 *472:3 *1602:Q 14.6895647
2 *2055:B0 *472:3 3.46864
3 *2144:A *472:3 4.16192
*END

*D_NET *473 0.000367641

*CONN
*I *2203:A I *C 61.1 28.025 *L 0.000395 *D INVX1
*I *2056:B0 I *C 60.965 28.065 *L 0.000793 *D AOI21X2
*I *1601:Q O *C 56.34 28.09 *L 0 *D DFFHQX1

*CAP
1 *2203:A 6.01937e-06
2 *1601:Q 0.000177801
3 *2056:B0 0.000183820723

*RES
1 *2056:B0 *1601:Q 16.9575214
2 *2203:A *2056:B0 0.245814
*END

*D_NET *474 0.000504017

*CONN
*I *2187:A I *C 61.3 30.115 *L 0.000395 *D INVX1
*I *2099:B0 I *C 56.2 31.44 *L 0.000392 *D AOI21X1
*I *1600:Q O *C 56.34 30.05 *L 0 *D DFFHQX1

*CAP
1 *2187:A 5.55511e-05
2 *1600:Q 6.25928e-06
3 *2099:B0 6.55666e-05
4 *474:3 0.000180185
5 *474:4 0.000196456914

*RES
1 *2099:B0 *474:4 4.39607
2 *474:4 *1600:Q 3.43152
3 *474:3 *474:4 12.4729872
4 *2187:A *474:3 2.17482
*END

*D_NET *475 0.00043869

*CONN
*I *2125:A I *C 61.3 33.535 *L 0.000395 *D INVX1
*I *2068:B0 I *C 59.8 33.54 *L 0.000392 *D AOI21X1
*I *1599:Q O *C 58.14 31.51 *L 0 *D DFFHQX1

*CAP
1 *2125:A 7.15857e-05
2 *1599:Q 0.000102996
3 *475:3 0.000174582012
4 *2125:A *710:5 8.95261719e-05

*RES
1 *475:3 *1599:Q 12.174964
2 *2068:B0 *475:3 3.29993
3 *2125:A *475:3 11.3949
*END

*D_NET *476 0.000389695

*CONN
*I *2137:A I *C 62.9 17.765 *L 0.000395 *D INVX1
*I *2054:B0 I *C 62.565 17.805 *L 0.000793 *D AOI21X2
*I *1598:Q O *C 57.94 17.83 *L 0 *D DFFHQX1

*CAP
1 *2137:A 6.25897e-06
2 *1598:Q 2.29467e-05
3 *476:3 0.000171899
4 *476:4 0.000188589102

*RES
1 *476:4 *1598:Q 6.805
2 *2054:B0 *476:3 0.499971
3 *476:3 *476:4 10.3428364
4 *2137:A *476:3 0.239569
*END

*D_NET *477 0.000384927

*CONN
*I *2139:A I *C 30.7 31.445 *L 0.000395 *D INVX1
*I *2035:B0 I *C 32.6 31.44 *L 0.000392 *D AOI21X1
*I *1597:Q O *C 30.34 30.05 *L 0 *D DFFHQX1

*CAP
1 *2035:B0 0.000115633
2 *2139:A 1.07283e-05
3 *1597:Q 5.87102e-05
4 *477:3 0.000123023984
5 *477:4 7.68311e-05

*RES
1 *477:4 *1597:Q 4.27107
2 *477:3 *477:4 3.35715
3 *2139:A *477:4 3.71154
4 *2035:B0 *477:3 8.5735321
*END

*D_NET *478 0.000408173

*CONN
*I *2204:A I *C 61.5 43.795 *L 0.000395 *D INVX1
*I *2075:B0 I *C 60.8 43.8 *L 0.000392 *D AOI21X1
*I *1596:Q O *C 57.94 45.19 *L 0 *D DFFHQX1

*CAP
1 *2204:A 3.49274e-05
2 *2075:B0 2.28287e-05
3 *1596:Q 1.99087e-05
4 *478:3 0.000184178359
5 *478:4 0.000146328

*RES
1 *478:4 *1596:Q 3.71489
2 *478:3 *478:4 9.16051865
3 *2075:B0 *478:3 3.64766
4 *2204:A *478:3 4.15967
*END

*D_NET *479 0.000457644

*CONN
*I *2194:A I *C 45.1 38.285 *L 0.000395 *D INVX1
*I *2083:B0 I *C 48 38.28 *L 0.000392 *D AOI21X1
*I *1595:Q O *C 47.14 40.31 *L 0 *D DFFHQX1

*CAP
1 *1595:Q 8.86902e-05
2 *2194:A 0.000140132
3 *479:3 0.000228822227

*RES
1 *2194:A *479:3 12.4483109
2 *479:3 *1595:Q 5.23511
3 *2083:B0 *479:3 3.29993
*END

*D_NET *480 0.000305772

*CONN
*I *2215:A I *C 60.3 40.375 *L 0.000395 *D INVX1
*I *2057:B0 I *C 59.365 40.335 *L 0.000793 *D AOI21X2
*I *1594:Q O *C 57.94 41.77 *L 0 *D DFFHQX1

*CAP
1 *2215:A 5.50141e-05
2 *2057:B0 1.59153e-05
3 *1594:Q 2.11594e-05
4 *480:3 0.00013172627
5 *480:4 8.19563e-05

*RES
1 *480:4 *1594:Q 3.64766
2 *480:3 *480:4 1.39845
3 *2057:B0 *480:3 3.6191
4 *2215:A *480:3 4.55486774
*END

*D_NET *481 0.000481129

*CONN
*I *2131:A I *C 59.9 36.955 *L 0.000395 *D INVX1
*I *2064:B0 I *C 59.4 36.96 *L 0.000392 *D AOI21X1
*I *1593:Q O *C 55.54 34.93 *L 0 *D DFFHQX1

*CAP
1 *2131:A 4.61343e-05
2 *2064:B0 2.19953e-05
3 *1593:Q 0.000172435
4 *481:3 0.000240564355

*RES
1 *481:3 *1593:Q 13.6306286
2 *2064:B0 *481:3 3.64767
3 *2131:A *481:3 4.31302
*END

*D_NET *482 0.000614882

*CONN
*I *2206:A I *C 52.7 41.705 *L 0.000395 *D INVX1
*I *2065:B0 I *C 54.2 40.38 *L 0.000392 *D AOI21X1
*I *1592:Q O *C 49.34 41.77 *L 0 *D DFFHQX1

*CAP
1 *2065:B0 9.52479e-05
2 *2206:A 2.04438e-05
3 *1592:Q 0.000133814
4 *482:3 0.000153183
5 *482:4 0.000212192539

*RES
1 *482:4 *1592:Q 9.43565
2 *2206:A *482:4 6.805
3 *482:3 *482:4 4.47601
4 *2065:B0 *482:3 14.6875381
*END

*D_NET *483 0.000564933

*CONN
*I *2126:A I *C 60.7 34.865 *L 0.000395 *D INVX1
*I *2061:B0 I *C 59.4 34.86 *L 0.000392 *D AOI21X1
*I *1591:Q O *C 55.54 33.47 *L 0 *D DFFHQX1

*CAP
1 *2126:A 7.73674e-05
2 *2061:B0 7.62898e-06
3 *1591:Q 0.00019747
4 *483:3 0.000282466406

*RES
1 *483:3 *1591:Q 14.1518116
2 *2061:B0 *483:3 6.73148
3 *2126:A *483:3 11.4055
*END

*D_NET *484 0.000692248

*CONN
*I *2140:A I *C 53.5 38.285 *L 0.000395 *D INVX1
*I *2062:B0 I *C 52.6 36.96 *L 0.000392 *D AOI21X1
*I *1590:Q O *C 50.54 40.31 *L 0 *D DFFHQX1

*CAP
1 *2140:A 6.54461e-05
2 *2062:B0 2.36615e-05
3 *1590:Q 0.000102281
4 *484:3 0.000116228
5 *484:4 0.000178398
6 *484:5 0.00020623207

*RES
1 *484:5 *1590:Q 5.43615
2 *484:4 *484:5 5.16391
3 *2062:B0 *484:4 10.0970268
4 *484:3 *484:4 4.1657
5 *2140:A *484:3 4.43132
*END

*D_NET *485 0.000349522

*CONN
*I *2218:A I *C 57.5 38.285 *L 0.000395 *D INVX1
*I *2037:B0 I *C 56.2 38.28 *L 0.000392 *D AOI21X1
*I *1589:Q O *C 55.54 36.89 *L 0 *D DFFHQX1

*CAP
1 *2218:A 6.28243e-05
2 *2037:B0 1.56161e-05
3 *1589:Q 9.63205e-05
4 *485:3 0.00017476082

*RES
1 *485:3 *1589:Q 5.16712666
2 *2037:B0 *485:3 3.46867
3 *2218:A *485:3 4.67112
*END

*D_NET *486 0.000853658

*CONN
*I *2121:A I *C 42.1 38.285 *L 0.000395 *D INVX1
*I *2040:B0 I *C 41.6 38.28 *L 0.000392 *D AOI21X1
*I *1588:Q O *C 35.54 36.89 *L 0 *D DFFHQX1

*CAP
1 *2121:A 2.58102e-05
2 *2040:B0 2.28899e-05
3 *1588:Q 1.8536e-05
4 *486:3 0.00023311377
5 *486:4 0.000202953
6 *486:3 *670:17 0.000151872637
7 *486:3 *683:5 0.000114560127
8 *2121:A *738:4 8.39233398e-05

*RES
1 *486:4 *1588:Q 3.71497
2 *486:3 *486:4 12.8715038
3 *2040:B0 *486:3 3.64761
4 *2121:A *486:3 4.07105
*END

*D_NET *487 0.000359178

*CONN
*I *2197:A I *C 36.3 40.375 *L 0.000395 *D INVX1
*I *2095:B0 I *C 35.8 40.38 *L 0.000392 *D AOI21X1
*I *1587:Q O *C 33.74 38.35 *L 0 *D DFFHQX1

*CAP
1 *2197:A 3.48079e-05
2 *2095:B0 1.97278e-05
3 *1587:Q 0.00012505
4 *487:3 0.000179588789

*RES
1 *487:3 *1587:Q 12.4025345
2 *2095:B0 *487:3 3.50411
3 *2197:A *487:3 4.0711
*END

*D_NET *488 0.000353336

*CONN
*I *2128:A I *C 31.5 34.865 *L 0.000395 *D INVX1
*I *2092:B0 I *C 32.6 34.86 *L 0.000392 *D AOI21X1
*I *1586:Q O *C 30.74 33.47 *L 0 *D DFFHQX1

*CAP
1 *2092:B0 8.70825e-05
2 *1586:Q 6.83671e-05
3 *488:3 0.000108301641
4 *488:4 8.95862e-05

*RES
1 *488:4 *1586:Q 8.11898708
2 *488:3 *488:4 6.80505
3 *2128:A *488:4 0.500004
4 *2092:B0 *488:3 7.60003
*END

*D_NET *489 0.000514746

*CONN
*I *2211:A I *C 39.7 40.375 *L 0.000395 *D INVX1
*I *2091:B0 I *C 40.6 38.28 *L 0.000392 *D AOI21X1
*I *1585:Q O *C 36.94 38.35 *L 0 *D DFFHQX1

*CAP
1 *2091:B0 5.93062e-05
2 *2211:A 6.5923e-05
3 *1585:Q 0.000124096
4 *489:3 0.000191450117
5 *489:4 7.39684e-05

*RES
1 *489:4 *489:3 3.35722
2 *489:3 *1585:Q 8.98218155
3 *2211:A *489:4 4.71847
4 *2091:B0 *489:3 7.42453
*END

*D_NET *490 0.000395656

*CONN
*I *2141:A I *C 21.7 31.445 *L 0.000395 *D INVX1
*I *2087:B0 I *C 23.6 31.44 *L 0.000392 *D AOI21X1
*I *1584:Q O *C 23.74 30.05 *L 0 *D DFFHQX1

*CAP
1 *1584:Q 1.39467e-05
2 *2141:A 9.60833e-05
3 *490:3 6.69962e-05
4 *490:4 8.77984e-05
5 *490:5 0.000130832197

*RES
1 *2141:A *490:5 7.7726841
2 *490:5 *490:4 3.99593
3 *490:4 *490:3 1.07406
4 *2087:B0 *490:4 3.29997
5 *490:3 *1584:Q 3.64772
*END

*D_NET *491 0.000647068

*CONN
*I *2119:A I *C 36.7 45.125 *L 0.000395 *D INVX1
*I *2085:B0 I *C 36.2 45.12 *L 0.000392 *D AOI21X1
*I *1583:Q O *C 31.54 45.19 *L 0 *D DFFHQX1

*CAP
1 *2119:A 8.70064e-06
2 *2085:B0 2.60456e-05
3 *1583:Q 3.05755e-05
4 *491:3 0.000230848789
5 *491:4 0.000226678
6 *491:3 *1575:D 0.000124216084

*RES
1 *491:4 *1583:Q 4.00114
2 *2085:B0 *491:3 3.68927
3 *491:3 *491:4 11.7734671
4 *2119:A *491:3 3.3571
*END

*D_NET *492 0.000635266

*CONN
*I *2136:A I *C 23.3 34.865 *L 0.000395 *D INVX1
*I *2081:B0 I *C 24.8 34.86 *L 0.000392 *D AOI21X1
*I *1582:Q O *C 20.14 33.47 *L 0 *D DFFHQX1

*CAP
1 *2081:B0 9.97183e-05
2 *2136:A 4.07694e-05
3 *1582:Q 0.000113488
4 *492:3 0.000253975391
5 *2081:B0 *2081:A0 0.000127315518

*RES
1 *492:3 *1582:Q 9.40036774
2 *2136:A *492:3 7.18267
3 *2081:B0 *492:3 8.87682
*END

*D_NET *493 0.000311732

*CONN
*I *2217:A I *C 36.7 47.215 *L 0.000395 *D INVX1
*I *2074:B0 I *C 36 47.22 *L 0.000392 *D AOI21X1
*I *1581:Q O *C 36.74 50.57 *L 0 *D DFFHQX1

*CAP
1 *2217:A 1.38871e-05
2 *1581:Q 7.69494e-05
3 *2074:B0 2.67633e-05
4 *493:3 0.000115215781
5 *493:4 7.89167e-05

*RES
1 *2074:B0 *493:4 3.64399
2 *493:4 *493:3 0.744577
3 *493:3 *1581:Q 5.08403778
4 *2217:A *493:4 3.58891
*END

*D_NET *494 0.000742316

*CONN
*I *2214:A I *C 25.3 36.955 *L 0.000395 *D INVX1
*I *2072:B0 I *C 27.365 36.915 *L 0.000793 *D AOI21X2
*I *1580:Q O *C 23.34 33.47 *L 0 *D DFFHQX1

*CAP
1 *2072:B0 4.26178e-05
2 *1580:Q 0.000193121
3 *2214:A 4.36914e-05
4 *494:3 0.000122251
5 *494:4 0.000284850605
6 *494:5 5.57879e-05

*RES
1 *494:5 *494:4 0.30238
2 *2214:A *494:5 4.22221
3 *494:4 *1580:Q 13.7425661
4 *2072:B0 *494:3 4.12071
5 *494:3 *494:4 7.97658
*END

*D_NET *495 0.000406504

*CONN
*I *2183:A I *C 29.1 41.705 *L 0.000395 *D INVX1
*I *2097:B0 I *C 29.2 40.38 *L 0.000392 *D AOI21X1
*I *1579:Q O *C 27.34 38.35 *L 0 *D DFFHQX1

*CAP
1 *2183:A 6.09771e-05
2 *1579:Q 0.000142278
3 *495:3 0.000203251836

*RES
1 *495:3 *1579:Q 12.3926401
2 *2183:A *495:3 4.50958
3 *2097:B0 *495:3 3.29993
*END

*D_NET *496 0.000585675

*CONN
*I *2142:A I *C 26.3 40.375 *L 0.000395 *D INVX1
*I *2096:B0 I *C 27.8 40.38 *L 0.000392 *D AOI21X1
*I *1578:Q O *C 24.14 38.35 *L 0 *D DFFHQX1

*CAP
1 *2096:B0 0.000116885
2 *2142:A 2.58096e-05
3 *1578:Q 0.000150143
4 *496:3 0.000292837617

*RES
1 *496:3 *1578:Q 9.57131386
2 *2142:A *496:3 7.06165
3 *2096:B0 *496:3 8.87292
*END

*D_NET *497 0.000237942

*CONN
*I *2216:A I *C 31.7 40.375 *L 0.000395 *D INVX1
*I *2060:B0 I *C 31.2 40.38 *L 0.000392 *D AOI21X1
*I *1577:Q O *C 30.54 38.35 *L 0 *D DFFHQX1

*CAP
1 *2216:A 3.92195e-05
2 *2060:B0 1.89544e-05
3 *1577:Q 6.0797e-05
4 *497:3 0.000118970869

*RES
1 *497:3 *1577:Q 4.75001335
2 *2060:B0 *497:3 3.50416
3 *2216:A *497:3 4.16938
*END

*D_NET *498 0.000560403

*CONN
*I *2120:A I *C 25.1 48.545 *L 0.000395 *D INVX1
*I *2063:B0 I *C 29.165 47.175 *L 0.000793 *D AOI21X2
*I *1576:Q O *C 24.34 47.15 *L 0 *D DFFHQX1

*CAP
1 *2063:B0 0.000103831
2 *2120:A 4.72656e-05
3 *1576:Q 1.96707e-05
4 *498:3 0.000170767305
5 *2063:B0 *379:6 0.000108540059
6 *2063:B0 *374:5 0.000110328193

*RES
1 *498:3 *1576:Q 3.71495
2 *2120:A *498:3 4.56442
3 *2063:B0 *498:3 14.0974522
*END

*D_NET *499 0.000504613

*CONN
*I *2182:A I *C 30.3 47.215 *L 0.000395 *D INVX1
*I *2093:B0 I *C 31.8 47.22 *L 0.000392 *D AOI21X1
*I *1575:Q O *C 27.94 45.19 *L 0 *D DFFHQX1

*CAP
1 *2093:B0 0.00010115
2 *2182:A 5.47771e-05
3 *1575:Q 9.63796e-05
4 *499:3 0.000252306465

*RES
1 *499:3 *1575:Q 8.62829
2 *2182:A *499:3 7.9648
3 *2093:B0 *499:3 8.66186619
*END

*D_NET *500 0.000274658

*CONN
*I *2201:A I *C 29.7 51.965 *L 0.000395 *D INVX1
*I *2094:B0 I *C 29.165 52.005 *L 0.000793 *D AOI21X2
*I *1574:Q O *C 27.14 50.57 *L 0 *D DFFHQX1

*CAP
1 *2201:A 1.17411e-05
2 *1574:Q 0.000125588
3 *500:3 0.000137329102

*RES
1 *2094:B0 *500:3 0.50003
2 *500:3 *1574:Q 15.823245
3 *2201:A *500:3 0.485302
*END

*D_NET *501 0.000217676

*CONN
*I *2213:A I *C 33.1 51.965 *L 0.000395 *D INVX1
*I *2077:B0 I *C 34 51.96 *L 0.000392 *D AOI21X1
*I *1573:Q O *C 33.54 50.57 *L 0 *D DFFHQX1

*CAP
1 *2077:B0 4.73268e-05
2 *1573:Q 2.43185e-05
3 *2213:A 3.71928e-05
4 *501:3 0.000108838086

*RES
1 *2213:A *501:3 4.09485
2 *501:3 *1573:Q 3.87619
3 *2077:B0 *501:3 4.12392616
*END

*D_NET *502 0.000613093

*CONN
*I *2198:A I *C 36.5 51.965 *L 0.000395 *D INVX1
*I *2073:B0 I *C 38.965 48.585 *L 0.000793 *D AOI21X2
*I *1572:Q O *C 38.74 53.99 *L 0 *D DFFHQX1

*CAP
1 *2073:B0 0.000145555
2 *1572:Q 8.52437e-06
3 *2198:A 3.76095e-05
4 *502:3 0.000223457813
5 *502:4 0.000106991
6 *502:4 *1572:CK 5.48959e-05
7 *502:3 *1572:CK 1.69873e-05
8 *2073:B0 *1572:CK 1.90734897e-05

*RES
1 *502:4 *502:3 8.41712952
2 *2198:A *502:4 4.14448
3 *502:3 *1572:Q 3.57243
4 *2073:B0 *502:3 6.69558
*END

*D_NET *503 0.000378132

*CONN
*I *2191:A I *C 42.3 47.215 *L 0.000395 *D INVX1
*I *2066:B0 I *C 44.8 47.22 *L 0.000392 *D AOI21X1
*I *1571:Q O *C 42.74 45.19 *L 0 *D DFFHQX1

*CAP
1 *2066:B0 0.000122608
2 *2191:A 1.76426e-05
3 *1571:Q 7.27066e-06
4 *503:3 0.00018179416
5 *503:4 4.88169e-05

*RES
1 *503:4 *1571:Q 0.239562
2 *503:3 *503:4 4.11021
3 *2191:A *503:3 3.57243
4 *2066:B0 *503:3 12.4012232
*END

*D_NET *504 0.000796199

*CONN
*I *2124:A I *C 60.3 48.545 *L 0.000395 *D INVX1
*I *2048:B0 I *C 62.365 47.175 *L 0.000793 *D AOI21X2
*I *1570:Q O *C 54.34 47.15 *L 0 *D DFFHQX1

*CAP
1 *2048:B0 8.08232e-05
2 *2124:A 3.85047e-05
3 *1570:Q 0.000131608
4 *504:3 0.000250935547
5 *2048:B0 *95:94 0.000116229053
6 *2048:B0 *730:5 0.000178098672

*RES
1 *504:3 *1570:Q 11.6599798
2 *2124:A *504:3 7.25475
3 *2048:B0 *504:3 8.93874
*END

*D_NET *505 0.000144601

*CONN
*I *2130:A I *C 58.5 48.545 *L 0.000395 *D INVX1
*I *2049:B0 I *C 57.765 48.585 *L 0.000793 *D AOI21X2
*I *1569:Q O *C 57.54 47.15 *L 0 *D DFFHQX1

*CAP
1 *2130:A 2.50931e-05
2 *2049:B0 7.23004346e-05
3 *505:3 4.72074e-05

*RES
1 *505:3 *1569:Q 3.29996
2 *2049:B0 *505:3 4.36592102
3 *2130:A *2049:B0 0.983025
*END

*D_NET *506 0.000386596

*CONN
*I *2205:A I *C 57.5 54.055 *L 0.000395 *D INVX1
*I *2079:B0 I *C 56.565 54.015 *L 0.000793 *D AOI21X2
*I *1568:Q O *C 55.14 52.03 *L 0 *D DFFHQX1

*CAP
1 *2205:A 2.64632e-05
2 *1568:Q 0.000166835
3 *506:3 0.000193297871

*RES
1 *2079:B0 *506:3 0.500055
2 *506:3 *1568:Q 16.5932178
3 *2205:A *506:3 0.976816
*END

*D_NET *507 0.000571012

*CONN
*I *2184:A I *C 52.1 48.545 *L 0.000395 *D INVX1
*I *2080:B0 I *C 50.4 48.54 *L 0.000392 *D AOI21X1
*I *1567:Q O *C 49.94 52.03 *L 0 *D DFFHQX1

*CAP
1 *2184:A 0.000123204
2 *2080:B0 2.20532e-05
3 *1567:Q 8.56512e-05
4 *507:3 0.000230908398
5 *2080:B0 *2080:A1 0.000109195713

*RES
1 *507:3 *1567:Q 5.57152
2 *2080:B0 *507:3 3.87032
3 *2184:A *507:3 12.1158361
*END

*D_NET *508 0.000335693

*CONN
*I *2199:A I *C 46.5 50.635 *L 0.000395 *D INVX1
*I *2098:B0 I *C 46 48.54 *L 0.000392 *D AOI21X1
*I *1566:Q O *C 45.34 52.03 *L 0 *D DFFHQX1

*CAP
1 *2199:A 1.35302e-05
2 *2098:B0 8.24926e-05
3 *1566:Q 4.60741e-05
4 *508:3 8.98838086e-05
5 *508:4 3.92795e-05
6 *508:5 6.44322e-05

*RES
1 *508:5 *1566:Q 4.28782
2 *508:4 *508:5 3.76258
3 *508:3 *508:4 3.35716
4 *2098:B0 *508:3 4.72438335
5 *2199:A *508:4 0.485299
*END

*D_NET *509 0.000332713

*CONN
*I *2189:A I *C 44.9 57.475 *L 0.000395 *D INVX1
*I *2078:B0 I *C 43.2 57.48 *L 0.000392 *D AOI21X1
*I *1565:Q O *C 43.94 55.45 *L 0 *D DFFHQX1

*CAP
1 *2189:A 6.44319e-05
2 *1565:Q 3.44521e-05
3 *2078:B0 5.92471e-05
4 *509:3 4.26762e-05
5 *509:4 0.000131905078

*RES
1 *2078:B0 *509:4 10.892868
2 *509:3 *1565:Q 4.00122
3 *509:4 *509:3 3.35715
4 *2189:A *509:4 7.87812
*END

*D_NET *510 0.000463605

*CONN
*I *2193:A I *C 39.1 57.475 *L 0.000395 *D INVX1
*I *2076:B0 I *C 41.2 57.48 *L 0.000392 *D AOI21X1
*I *1564:Q O *C 39.94 55.45 *L 0 *D DFFHQX1

*CAP
1 *2076:B0 9.1493e-05
2 *1564:Q 7.09345e-06
3 *2193:A 1.35304e-05
4 *510:3 9.73343848e-05
5 *510:4 7.72482e-05
6 *510:5 8.95265e-05
7 *2076:B0 *381:3 8.73804102e-05

*RES
1 *510:5 *510:4 4.73678
2 *510:3 *510:5 3.35714
3 *2193:A *510:5 3.50415
4 *510:4 *1564:Q 0.239623
5 *2076:B0 *510:3 8.34870338
*END

*D_NET *511 0.000262737

*CONN
*I *2207:A I *C 43.5 55.385 *L 0.000395 *D INVX1
*I *2086:B0 I *C 42.6 54.06 *L 0.000392 *D AOI21X1
*I *1563:Q O *C 43.34 53.99 *L 0 *D DFFHQX1

*CAP
1 *2207:A 9.28642e-05
2 *1563:Q 6.25789e-06
3 *2086:B0 2.36628e-05
4 *511:3 1.4841e-05
5 *511:4 0.000125110146

*RES
1 *2086:B0 *511:4 3.64396
2 *511:3 *1563:Q 0.239586
3 *511:4 *511:3 3.34926
4 *2207:A *511:4 14.7432089
*END

*D_NET *512 0.000441551

*CONN
*I *2138:A I *C 53.1 45.125 *L 0.000395 *D INVX1
*I *2067:B0 I *C 50.565 43.755 *L 0.000793 *D AOI21X2
*I *1562:Q O *C 49.54 45.19 *L 0 *D DFFHQX1

*CAP
1 *2138:A 0.000110566
2 *2067:B0 4.2021e-05
3 *1562:Q 1.25774e-05
4 *512:3 0.000208199023
5 *512:4 6.81893e-05

*RES
1 *512:4 *1562:Q 3.5725
2 *2067:B0 *512:3 7.35825
3 *512:3 *512:4 4.17357
4 *2138:A *512:3 8.85605812
*END

*D_NET *513 0.000280023

*CONN
*I *2129:A I *C 53.1 55.385 *L 0.000395 *D INVX1
*I *2082:B0 I *C 52.165 55.425 *L 0.000793 *D AOI21X2
*I *1561:Q O *C 51.74 53.99 *L 0 *D DFFHQX1

*CAP
1 *2129:A 7.28968e-05
2 *1561:Q 5.88295e-05
3 *513:3 8.11815283e-05
4 *513:4 6.71143e-05

*RES
1 *513:4 *1561:Q 4.54216
2 *513:3 *513:4 3.35718
3 *2082:B0 *513:4 3.29992
4 *2129:A *513:3 7.81750679
*END

*D_NET *514 0.000386357

*CONN
*I *2192:A I *C 54.1 57.475 *L 0.000395 *D INVX1
*I *2088:B0 I *C 53.565 58.845 *L 0.000793 *D AOI21X2
*I *1560:Q O *C 50.94 57.41 *L 0 *D DFFHQX1

*CAP
1 *1560:Q 0.000128806
2 *2088:B0 6.43723e-05
3 *514:3 0.000193178652

*RES
1 *2088:B0 *514:3 4.81424
2 *514:3 *1560:Q 12.7220154
3 *2192:A *514:3 3.29989
*END

*D_NET *515 0.000173688

*CONN
*I *2185:A I *C 47.3 58.805 *L 0.000395 *D INVX1
*I *2051:B0 I *C 47.2 57.48 *L 0.000392 *D AOI21X1
*I *1559:Q O *C 47.74 57.41 *L 0 *D DFFHQX1

*CAP
1 *2185:A 5.09018e-05
2 *1559:Q 1.65101e-05
3 *2051:B0 1.94307e-05
4 *515:3 8.68439648e-05

*RES
1 *2051:B0 *515:3 3.55326
2 *515:3 *1559:Q 3.55372
3 *2185:A *515:3 4.30643559
*END

*D_NET *516 0.000400245

*CONN
*I *2122:A I *C 48.7 47.215 *L 0.000395 *D INVX1
*I *2045:B0 I *C 48.2 47.22 *L 0.000392 *D AOI21X1
*I *1558:Q O *C 46.34 45.19 *L 0 *D DFFHQX1

*CAP
1 *2122:A 3.32605e-05
2 *2045:B0 1.97881e-05
3 *1558:Q 0.000100076
4 *516:3 0.000153124336
5 *516:3 *729:8 9.39965234e-05

*RES
1 *516:3 *1558:Q 12.2531652
2 *2045:B0 *516:3 3.50416
3 *2122:A *516:3 4.07872
*END

*D_NET *517 0.000322938

*CONN
*I *2133:A I *C 36.5 57.475 *L 0.000395 *D INVX1
*I *2038:B0 I *C 38.2 57.48 *L 0.000392 *D AOI21X1
*I *1557:Q O *C 36.74 55.45 *L 0 *D DFFHQX1

*CAP
1 *2038:B0 9.7692e-05
2 *2133:A 3.91606e-05
3 *517:3 0.000161468984
4 *517:4 2.46164e-05

*RES
1 *517:4 *1557:Q 0.499978
2 *517:3 *517:4 3.72852
3 *2133:A *517:3 4.0491
4 *2038:B0 *517:3 5.17475605
*END

*D_NET *518 0.0003618

*CONN
*I *2258:Y O *C 46.32 15.785 *L 0 *D NAND2BX1
*I *1817:B0 I *C 44.065 17.995 *L 0.00039 *D OAI2BB1X1
*I *1777:A I *C 44.61 16.24 *L 0.000792 *D NAND2X2

*CAP
1 *2258:Y 1.51984e-05
2 *1817:B0 6.44928e-05
3 *518:3 0.000116409
4 *518:4 0.000165700918

*RES
1 *518:4 *518:3 11.6816759
2 *1817:B0 *518:4 7.87483
3 *1777:A *518:4 3.29991
4 *518:3 *2258:Y 0.48537
*END

*D_NET *519 0.00107098

*CONN
*I *2257:Y O *C 37.72 15.785 *L 0 *D NAND2BX1
*I *1815:B I *C 38.2 12.775 *L 0.000212 *D NAND2XL
*I *1809:B0 I *C 41.7 12.825 *L 0.000389 *D AOI32X1
*I *1780:B1 I *C 41.5 16.435 *L 0.000392 *D AOI221X1

*CAP
1 *1809:B0 0.000183403
2 *1780:B1 0.000186445
3 *1815:B 1.54367e-05
4 *519:4 0.000212131
5 *519:5 9.98992e-05
6 *519:6 0.000273048887
7 *519:6 *1815:A 0.000100612637

*RES
1 *519:6 *519:5 2.3585
2 *519:5 *2257:Y 3.29987
3 *519:4 *519:5 3.76919
4 *1815:B *519:6 3.71152
5 *1780:B1 *519:4 9.71553
6 *1809:B0 *519:6 13.6458874
*END

*D_NET *520 9.83477e-05

*CONN
*I *2256:Y O *C 40.695 16.11 *L 0 *D AO21XL
*I *1780:A1 I *C 41.34 16.355 *L 0.000392 *D AOI221X1

*CAP
1 *2256:Y 4.9173833e-05
2 *1780:A1 4.9173833e-05

*RES
1 *1780:A1 *2256:Y 7.47311
*END

*D_NET *521 0.000582218

*CONN
*I *2255:Y O *C 52.92 13.155 *L 0 *D NOR2BX1
*I *1784:B1 I *C 52.7 11.115 *L 0.00039 *D OAI221X1
*I *1778:A1 I *C 51.5 9.405 *L 0.000391 *D OAI211X1
*I *1762:A1 I *C 53.3 9.405 *L 0.000391 *D OAI211X1

*CAP
1 *1762:A1 4.09489e-05
2 *2255:Y 4.11271e-05
3 *1778:A1 6.96773e-05
4 *521:4 0.000110149
5 *521:5 0.000179648398
6 *521:4 *255:13 0.000140666963

*RES
1 *1778:A1 *521:5 7.89177418
2 *521:5 *521:4 4.90779
3 *1784:B1 *521:4 3.29996
4 *521:4 *2255:Y 4.50957
5 *1762:A1 *521:5 7.43334
*END

*D_NET *522 0.000530481

*CONN
*I *2254:Y O *C 44.12 26.835 *L 0 *D NOR2BX1
*I *1772:B I *C 40.1 26.695 *L 0.000796 *D NAND2X2
*I *1771:B I *C 41.1 26.695 *L 0.000796 *D NAND2X2

*CAP
1 *2254:Y 3.52872e-05
2 *1771:B 2.21715e-05
3 *1772:B 6.40165e-05
4 *522:3 0.000136195
5 *522:4 0.000187098984
6 *522:3 *1722:C0 8.57114746e-05

*RES
1 *1772:B *522:4 7.6001
2 *1771:B *522:4 13.4267807
3 *522:4 *522:3 2.23008
4 *522:3 *2254:Y 10.5425
*END

*D_NET *523 0.000449419

*CONN
*I *2253:Y O *C 48.52 26.835 *L 0 *D NOR2BX1
*I *1773:B I *C 46.7 26.695 *L 0.000796 *D NAND2X2
*I *1768:B I *C 48.9 28.025 *L 0.000796 *D NAND2X2

*CAP
1 *1768:B 6.926e-05
2 *2253:Y 0.000142695
3 *1773:B 8.20166e-05
4 *523:3 0.000155448916

*RES
1 *1773:B *523:3 7.68489
2 *523:3 *2253:Y 7.44712
3 *1768:B *2253:Y 7.98714161
*END

*D_NET *524 0.000490904

*CONN
*I *2252:Y O *C 53.12 22.625 *L 0 *D NAND2BX1
*I *1687:B I *C 52.765 25.05 *L 0.000793 *D NOR2X2
*I *1685:B I *C 51.165 26.25 *L 0.000793 *D NOR2X2

*CAP
1 *2252:Y 2.10984e-05
2 *1687:B 5.96012e-06
3 *1685:B 0.000136792
4 *524:3 0.000102698
5 *524:4 0.000224351875

*RES
1 *1685:B *524:4 15.7066584
2 *524:4 *524:3 1.58754
3 *1687:B *524:4 6.72091
4 *524:3 *2252:Y 3.6477
*END

*D_NET *525 0.000184894

*CONN
*I *2251:Y O *C 54.13 11.55 *L 0 *D INVX1
*I *1784:B0 I *C 52.9 11.115 *L 0.00039 *D OAI221X1

*CAP
1 *2251:Y 2.47357e-05
2 *1784:B0 6.77111e-05
3 *525:2 9.24468066e-05

*RES
1 *1784:B0 *525:2 7.89940357
2 *525:2 *2251:Y 0.774198
*END

*D_NET *526 0.000270545

*CONN
*I *2250:Y O *C 40.93 60.27 *L 0 *D INVX1
*I *2076:A1 I *C 40.92 57.43 *L 0.000392 *D AOI21X1

*CAP
1 *2250:Y 9.44733594e-05
2 *2076:A1 9.44733594e-05
3 *2076:A1 *1172:A 8.15987598e-05

*RES
1 *2076:A1 *2250:Y 9.19759
*END

*D_NET *527 0.000147939

*CONN
*I *2249:Y O *C 25.73 19.23 *L 0 *D INVX1
*I *2034:A1 I *C 24.72 19.81 *L 0.000392 *D AOI21X1

*CAP
1 *2249:Y 1.26358e-05
2 *2034:A1 6.13336e-05
3 *527:2 7.39693652e-05

*RES
1 *2034:A1 *527:2 7.61675835
2 *527:2 *2249:Y 0.41166
*END

*D_NET *528 0.000196815

*CONN
*I *2248:Y O *C 53.93 59.43 *L 0 *D INVX1
*I *2088:A1 I *C 52.3 58.995 *L 0.000793 *D AOI21X2

*CAP
1 *2088:A1 1.74636e-05
2 *2248:Y 8.09437e-05
3 *528:2 9.84072656e-05

*RES
1 *528:2 *2248:Y 8.03673267
2 *2088:A1 *528:2 6.74923
*END

*D_NET *529 0.000245214

*CONN
*I *2247:Y O *C 62.13 43.17 *L 0 *D INVX1
*I *2075:A1 I *C 60.52 43.75 *L 0.000392 *D AOI21X1

*CAP
1 *2075:A1 2.53913e-05
2 *2247:Y 9.72155e-05
3 *529:2 0.000122606758

*RES
1 *529:2 *2247:Y 8.06319714
2 *2075:A1 *529:2 6.85081
*END

*D_NET *530 0.000224233

*CONN
*I *2246:Y O *C 60.13 39.75 *L 0 *D INVX1
*I *2057:A1 I *C 58.1 40.185 *L 0.000793 *D AOI21X2

*CAP
1 *2057:A1 1.68085e-05
2 *2246:Y 9.53079e-05
3 *530:2 0.000112116338

*RES
1 *530:2 *2246:Y 8.37743282
2 *2057:A1 *530:2 6.74927
*END

*D_NET *531 0.0003196

*CONN
*I *2245:Y O *C 47.13 50.01 *L 0 *D INVX1
*I *2098:A1 I *C 45.72 48.59 *L 0.000392 *D AOI21X1

*CAP
1 *2245:Y 2.11603e-05
2 *2098:A1 9.84067e-05
3 *531:2 0.000119566914
4 *2098:A1 *99:15 8.04662695e-05

*RES
1 *2098:A1 *531:2 11.8219852
2 *531:2 *2245:Y 3.71493
*END

*D_NET *532 0.000531912

*CONN
*I *2244:Y O *C 61.73 32.07 *L 0 *D INVX1
*I *2099:A1 I *C 55.92 31.49 *L 0.000392 *D AOI21X1

*CAP
1 *2099:A1 2.3066e-05
2 *2244:Y 0.000124396
3 *532:2 0.000147461895
4 *532:2 *1599:D 9.70363574e-05
5 *2099:A1 *2017:B0 0.000139951709

*RES
1 *532:2 *2244:Y 11.1727715
2 *2099:A1 *532:2 6.86126
*END

*D_NET *533 0.000198007

*CONN
*I *2243:Y O *C 25.53 35.49 *L 0 *D INVX1
*I *2081:A1 I *C 24.52 34.91 *L 0.000392 *D AOI21X1

*CAP
1 *2243:Y 1.25765e-05
2 *2081:A1 8.64268e-05
3 *533:2 9.90033105e-05

*RES
1 *2081:A1 *533:2 8.37790966
2 *533:2 *2243:Y 0.411634
*END

*D_NET *534 0.000169396

*CONN
*I *2242:Y O *C 34.33 53.43 *L 0 *D INVX1
*I *2077:A1 I *C 33.72 52.01 *L 0.000392 *D AOI21X1

*CAP
1 *2077:A1 5.97242e-05
2 *2242:Y 1.71667e-05
3 *534:2 6.75320605e-05
4 *534:3 2.49745e-05

*RES
1 *534:3 *2242:Y 0.485294
2 *534:2 *534:3 3.35717
3 *2077:A1 *534:2 4.43017483
*END

*D_NET *535 0.000145078

*CONN
*I *2241:Y O *C 60.53 35.49 *L 0 *D INVX1
*I *2061:A1 I *C 59.12 34.91 *L 0.000392 *D AOI21X1

*CAP
1 *2241:Y 1.93714e-05
2 *2061:A1 5.31675e-05
3 *535:2 7.25388525e-05

*RES
1 *2061:A1 *535:2 7.54487514
2 *535:2 *2241:Y 0.700309
*END

*D_NET *536 0.000222087

*CONN
*I *2240:Y O *C 30.53 8.97 *L 0 *D INVX1
*I *2044:A1 I *C 28.9 9.405 *L 0.000793 *D AOI21X2

*CAP
1 *2240:Y 2.37218e-05
2 *2044:A1 8.732e-05
3 *536:2 0.000111043457

*RES
1 *2044:A1 *536:2 8.07499886
2 *536:2 *2240:Y 6.84987
*END

*D_NET *537 0.000202537

*CONN
*I *2239:Y O *C 49.33 46.59 *L 0 *D INVX1
*I *2045:A1 I *C 47.92 47.17 *L 0.000392 *D AOI21X1

*CAP
1 *2045:A1 3.07568e-05
2 *2239:Y 7.05115e-05
3 *537:2 0.000101268291

*RES
1 *537:2 *2239:Y 7.84575939
2 *2045:A1 *537:2 6.99445
*END

*D_NET *538 0.000137448

*CONN
*I *2238:Y O *C 28.53 39.75 *L 0 *D INVX1
*I *2096:A1 I *C 27.52 40.33 *L 0.000392 *D AOI21X1

*CAP
1 *2238:Y 1.41863e-05
2 *2096:A1 5.45378e-05
3 *538:2 6.87241553e-05

*RES
1 *2096:A1 *538:2 7.47311115
2 *538:2 *2238:Y 0.442439
*END

*D_NET *539 0.000103474

*CONN
*I *2237:Y O *C 24.33 21.81 *L 0 *D INVX1
*I *2052:A1 I *C 23.32 21.23 *L 0.000392 *D AOI21X1

*CAP
1 *2237:Y 5.84117e-06
2 *2052:A1 4.58957e-05
3 *539:2 5.17368311e-05

*RES
1 *2052:A1 *539:2 7.46178627
2 *539:2 *2237:Y 0.208815
*END

*D_NET *540 0.000364065

*CONN
*I *2236:Y O *C 40.53 50.01 *L 0 *D INVX1
*I *2073:A1 I *C 37.7 48.735 *L 0.000793 *D AOI21X2

*CAP
1 *2073:A1 6.31808e-05
2 *2236:Y 0.000110567
3 *540:2 0.00011885166
4 *540:3 7.14652e-05

*RES
1 *540:3 *540:2 3.35722
2 *540:2 *2236:Y 8.98218155
3 *2073:A1 *540:3 4.26426
*END

*D_NET *541 0.000124574

*CONN
*I *2235:Y O *C 34.73 46.59 *L 0 *D INVX1
*I *2074:A1 I *C 35.72 47.17 *L 0.000392 *D AOI21X1

*CAP
1 *2235:Y 6.22868555e-05
2 *2074:A1 6.22868555e-05

*RES
1 *2074:A1 *2235:Y 8.00955
*END

*D_NET *542 0.000221491

*CONN
*I *2234:Y O *C 63.33 19.23 *L 0 *D INVX1
*I *2054:A1 I *C 61.3 17.955 *L 0.000793 *D AOI21X2

*CAP
1 *2054:A1 4.37498e-05
2 *2234:Y 5.93663e-05
3 *542:2 5.13792e-05
4 *542:3 6.69956201e-05

*RES
1 *542:3 *2234:Y 2.20547
2 *542:2 *542:3 3.35715
3 *2054:A1 *542:2 4.25386429
*END

*D_NET *543 0.000151277

*CONN
*I *2233:Y O *C 44.33 56.85 *L 0 *D INVX1
*I *2078:A1 I *C 42.92 57.43 *L 0.000392 *D AOI21X1

*CAP
1 *2233:Y 2.10405e-05
2 *2078:A1 5.45978e-05
3 *543:2 7.56382959e-05

*RES
1 *2078:A1 *543:2 7.53736496
2 *543:2 *2233:Y 0.700302
*END

*D_NET *544 0.000149012

*CONN
*I *2232:Y O *C 61.53 49.17 *L 0 *D INVX1
*I *2048:A1 I *C 61.1 47.025 *L 0.000793 *D AOI21X2

*CAP
1 *2232:Y 1.66895e-05
2 *2048:A1 5.78163e-05
3 *544:2 7.45058057e-05

*RES
1 *2048:A1 *544:2 4.24253941
2 *544:2 *2232:Y 3.64768
*END

*D_NET *545 0.000142574

*CONN
*I *2231:Y O *C 29.33 21.81 *L 0 *D INVX1
*I *2089:A1 I *C 29.32 23.23 *L 0.000392 *D AOI21X1

*CAP
1 *2089:A1 7.12871533e-05
2 *545:2 7.12871533e-05

*RES
1 *545:2 *2231:Y 3.29995
2 *2089:A1 *545:2 4.50956821
*END

*D_NET *546 0.000235677

*CONN
*I *2230:Y O *C 43.33 56.01 *L 0 *D INVX1
*I *2086:A1 I *C 42.32 54.01 *L 0.000392 *D AOI21X1

*CAP
1 *2230:Y 1.41857e-05
2 *2086:A1 5.35257e-05
3 *546:2 6.4314e-05
4 *546:3 0.00010365248

*RES
1 *546:3 *546:2 4.24540043
2 *2086:A1 *546:3 4.22227
3 *546:2 *2230:Y 0.485329
*END

*D_NET *547 0.000216007

*CONN
*I *2229:Y O *C 29.53 53.43 *L 0 *D INVX1
*I *2094:A1 I *C 27.9 52.155 *L 0.000793 *D AOI21X2

*CAP
1 *2094:A1 5.38226e-05
2 *2229:Y 5.41806201e-05
3 *547:2 5.38226e-05
4 *547:3 5.41806201e-05

*RES
1 *547:3 *2229:Y 1.88617
2 *547:2 *547:3 6.60002232
3 *2094:A1 *547:2 4.33469
*END

*D_NET *548 0.000181913

*CONN
*I *2228:Y O *C 61.13 32.91 *L 0 *D INVX1
*I *2068:A1 I *C 59.52 33.49 *L 0.000392 *D AOI21X1

*CAP
1 *2228:Y 3.0219e-05
2 *2068:A1 6.07377e-05
3 *548:2 9.09566895e-05

*RES
1 *2068:A1 *548:2 7.63583183
2 *548:2 *2228:Y 0.97685
*END

*D_NET *549 0.000239611

*CONN
*I *2227:Y O *C 52.93 56.01 *L 0 *D INVX1
*I *2082:A1 I *C 50.9 55.575 *L 0.000793 *D AOI21X2

*CAP
1 *2227:Y 9.36981e-05
2 *2082:A1 2.61073e-05
3 *549:2 0.000119805332

*RES
1 *2082:A1 *549:2 6.88623
2 *549:2 *2227:Y 8.15320015
*END

*D_NET *550 0.000180364

*CONN
*I *2226:Y O *C 33.13 21.81 *L 0 *D INVX1
*I *2084:A1 I *C 32.12 21.23 *L 0.000392 *D AOI21X1

*CAP
1 *2226:Y 1.68089e-05
2 *2084:A1 7.33729e-05
3 *550:2 9.01818262e-05

*RES
1 *2084:A1 *550:2 4.66823578
2 *550:2 *2226:Y 3.6477
*END

*D_NET *551 0.000115275

*CONN
*I *2225:Y O *C 21.93 29.49 *L 0 *D INVX1
*I *2042:A1 I *C 22.52 30.07 *L 0.000392 *D AOI21X1

*CAP
1 *2225:Y 5.76376904e-05
2 *2042:A1 5.76376904e-05

*RES
1 *2042:A1 *2225:Y 7.66587
*END

*D_NET *552 0.000212789

*CONN
*I *2224:Y O *C 60.73 36.33 *L 0 *D INVX1
*I *2064:A1 I *C 59.12 36.91 *L 0.000392 *D AOI21X1

*CAP
1 *2064:A1 2.57499e-05
2 *2224:Y 8.06444e-05
3 *552:2 0.000106394287

*RES
1 *552:2 *2224:Y 8.07499886
2 *2064:A1 *552:2 6.81476
*END

*D_NET *553 0.000146747

*CONN
*I *2223:Y O *C 41.13 39.75 *L 0 *D INVX1
*I *2040:A1 I *C 41.32 38.33 *L 0.000392 *D AOI21X1

*CAP
1 *2040:A1 5.126e-05
2 *2223:Y 2.21133e-05
3 *553:2 7.33733154e-05

*RES
1 *553:2 *2223:Y 3.68548
2 *2040:A1 *553:2 4.36592102
*END

*D_NET *554 0.000166416

*CONN
*I *2222:Y O *C 53.93 36.33 *L 0 *D INVX1
*I *2062:A1 I *C 52.32 36.91 *L 0.000392 *D AOI21X1

*CAP
1 *2222:Y 2.61667e-05
2 *2062:A1 5.70414e-05
3 *554:2 8.32080859e-05

*RES
1 *2062:A1 *554:2 7.53355026
2 *554:2 *2222:Y 0.946177
*END

*D_NET *555 0.000329733

*CONN
*I *2221:Y O *C 33.73 39.75 *L 0 *D INVX1
*I *2060:A1 I *C 30.92 40.33 *L 0.000392 *D AOI21X1

*CAP
1 *2221:Y 4.63719e-05
2 *2060:A1 0.000118495
3 *555:2 0.000164866445

*RES
1 *2060:A1 *555:2 9.04691219
2 *555:2 *2221:Y 7.31914
*END

*D_NET *556 0.000151992

*CONN
*I *2220:Y O *C 61.53 26.07 *L 0 *D INVX1
*I *2053:A1 I *C 60.12 26.65 *L 0.000392 *D AOI21X1

*CAP
1 *2053:A1 1.91929e-05
2 *2220:Y 5.6803e-05
3 *556:2 7.59959229e-05

*RES
1 *556:2 *2220:Y 4.41884995
2 *2053:A1 *556:2 3.50414
*END

*D_NET *557 0.000225663

*CONN
*I *2219:Y O *C 62.13 28.65 *L 0 *D INVX1
*I *2056:A1 I *C 59.7 28.215 *L 0.000793 *D AOI21X2

*CAP
1 *2219:Y 1.41851e-05
2 *2056:A1 9.86465e-05
3 *557:2 0.000112831592

*RES
1 *2056:A1 *557:2 8.67974758
2 *557:2 *2219:Y 6.78092
*END

*D_NET *558 8.76188e-05

*CONN
*I *2218:Y O *C 57.73 38.91 *L 0 *D INVX1
*I *1947:A1 I *C 58.5 38.475 *L 0.000391 *D OAI211X1

*CAP
1 *2218:Y 4.38094141e-05
2 *1947:A1 4.38094141e-05

*RES
1 *1947:A1 *2218:Y 7.47514
*END

*D_NET *559 5.98431e-05

*CONN
*I *2217:Y O *C 36.93 46.59 *L 0 *D INVX1
*I *1939:A1 I *C 37.3 47.025 *L 0.000391 *D OAI211X1

*CAP
1 *2217:Y 2.99215308e-05
2 *1939:A1 2.99215308e-05

*RES
1 *1939:A1 *2217:Y 7.03084
*END

*D_NET *560 6.81877e-05

*CONN
*I *2216:Y O *C 31.93 39.75 *L 0 *D INVX1
*I *2030:A1 I *C 32.3 40.185 *L 0.000391 *D OAI211X1

*CAP
1 *2216:Y 3.40938574e-05
2 *2030:A1 3.40938574e-05

*RES
1 *2030:A1 *2216:Y 7.04598
*END

*D_NET *561 7.96318e-05

*CONN
*I *2215:Y O *C 60.53 39.75 *L 0 *D INVX1
*I *1957:A1 I *C 61.3 40.185 *L 0.000391 *D OAI211X1

*CAP
1 *2215:Y 3.98159033e-05
2 *1957:A1 3.98159033e-05

*RES
1 *1957:A1 *2215:Y 7.49779
*END

*D_NET *562 0.000244379

*CONN
*I *2214:Y O *C 25.53 36.33 *L 0 *D INVX1
*I *2033:A1 I *C 25.1 40.185 *L 0.000391 *D OAI211X1

*CAP
1 *2033:A1 0.000106930732
2 *2214:Y 1.52593e-05
3 *562:2 0.000106930732
4 *562:3 1.52593e-05

*RES
1 *562:3 *2214:Y 0.411592
2 *562:2 *562:3 3.29999
3 *2033:A1 *562:2 5.65850735
*END

*D_NET *563 0.000148296

*CONN
*I *2213:Y O *C 33.33 52.59 *L 0 *D INVX1
*I *2023:A1 I *C 32.9 53.865 *L 0.000391 *D OAI211X1

*CAP
1 *2023:A1 6.01412e-05
2 *2213:Y 7.15295e-06
3 *563:2 6.69956201e-05
4 *563:3 1.40074e-05

*RES
1 *563:3 *2213:Y 0.239595
2 *563:2 *563:3 3.3468
3 *2023:A1 *563:2 4.28783894
*END

*D_NET *564 0.000234604

*CONN
*I *2212:Y O *C 23.53 19.23 *L 0 *D INVX1
*I *2016:A1 I *C 22.3 19.665 *L 0.000391 *D OAI211X1

*CAP
1 *2212:Y 2.60467e-05
2 *2016:A1 4.88763e-05
3 *564:2 7.49230371e-05
4 *2016:A1 *2034:A0 8.47578027e-05

*RES
1 *2016:A1 *564:2 7.74812698
2 *564:2 *2212:Y 6.84984
*END

*D_NET *565 0.000214338

*CONN
*I *2211:Y O *C 39.93 39.75 *L 0 *D INVX1
*I *1942:A1 I *C 38.9 40.185 *L 0.000391 *D OAI211X1

*CAP
1 *2211:Y 5.81152e-05
2 *1942:A1 4.9054e-05
3 *565:2 0.00010716915

*RES
1 *1942:A1 *565:2 7.16841
2 *565:2 *2211:Y 7.47025013
*END

*D_NET *566 0.000176311

*CONN
*I *2210:Y O *C 17.33 22.65 *L 0 *D INVX1
*I *2009:A1 I *C 16.3 23.085 *L 0.000391 *D OAI211X1

*CAP
1 *2210:Y 2.1875e-05
2 *2009:A1 6.62802e-05
3 *566:2 8.81552734e-05

*RES
1 *2009:A1 *566:2 4.72199917
2 *566:2 *2210:Y 3.6477
*END

*D_NET *567 0.000311255

*CONN
*I *2209:Y O *C 22.93 21.81 *L 0 *D INVX1
*I *2013:A1 I *C 20.7 19.665 *L 0.000391 *D OAI211X1

*CAP
1 *2209:Y 1.74044e-05
2 *2013:A1 0.000138223
3 *567:2 0.000155627725

*RES
1 *2013:A1 *567:2 15.5320168
2 *567:2 *2209:Y 0.485376
*END

*D_NET *568 0.000234246

*CONN
*I *2208:Y O *C 28.73 22.65 *L 0 *D INVX1
*I *2011:A1 I *C 27.1 21.375 *L 0.000391 *D OAI211X1

*CAP
1 *2208:Y 1.37095e-05
2 *2011:A1 0.000103414
3 *568:2 0.000117123125

*RES
1 *2011:A1 *568:2 8.49032402
2 *568:2 *2208:Y 0.485302
*END

*D_NET *569 0.000292897

*CONN
*I *2207:Y O *C 43.73 56.01 *L 0 *D INVX1
*I *1962:A1 I *C 41.9 57.285 *L 0.000391 *D OAI211X1

*CAP
1 *1962:A1 6.68164e-05
2 *2207:Y 7.96322e-05
3 *569:2 0.000146448613

*RES
1 *569:2 *2207:Y 11.4781857
2 *1962:A1 *569:2 4.22235
*END

*D_NET *570 6.54459e-05

*CONN
*I *2206:Y O *C 52.93 42.33 *L 0 *D INVX1
*I *1946:A1 I *C 53.3 41.895 *L 0.000391 *D OAI211X1

*CAP
1 *2206:Y 3.27229492e-05
2 *1946:A1 3.27229492e-05

*RES
1 *1946:A1 *2206:Y 7.04598
*END

*D_NET *571 0.000152588

*CONN
*I *2205:Y O *C 57.73 53.43 *L 0 *D INVX1
*I *2014:A1 I *C 57.7 55.575 *L 0.000391 *D OAI211X1

*CAP
1 *2014:A1 7.09294e-05
2 *2205:Y 5.3645e-06
3 *571:2 7.62939453e-05

*RES
1 *571:2 *2205:Y 0.165829
2 *2014:A1 *571:2 7.88664818
*END

*D_NET *572 0.000126123

*CONN
*I *2204:Y O *C 61.73 43.17 *L 0 *D INVX1
*I *1961:A1 I *C 62.5 43.605 *L 0.000391 *D OAI211X1

*CAP
1 *2204:Y 6.30617139e-05
2 *1961:A1 6.30617139e-05

*RES
1 *1961:A1 *2204:Y 7.96068
*END

*D_NET *573 0.000198007

*CONN
*I *2203:Y O *C 61.33 28.65 *L 0 *D INVX1
*I *2003:A1 I *C 62.1 29.925 *L 0.000391 *D OAI211X1

*CAP
1 *2203:Y 9.90033105e-05
2 *2003:A1 9.90033105e-05

*RES
1 *2003:A1 *2203:Y 8.50081
*END

*D_NET *574 0.000120878

*CONN
*I *2202:Y O *C 31.33 21.81 *L 0 *D INVX1
*I *2008:A1 I *C 30.1 21.375 *L 0.000391 *D OAI211X1

*CAP
1 *2202:Y 4.6849e-05
2 *2008:A1 1.35902e-05
3 *574:2 6.04391113e-05

*RES
1 *2008:A1 *574:2 3.50416
2 *574:2 *2202:Y 4.15849686
*END

*D_NET *575 0.0001719

*CONN
*I *2201:Y O *C 29.93 52.59 *L 0 *D INVX1
*I *2026:A1 I *C 30.9 53.865 *L 0.000391 *D OAI211X1

*CAP
1 *2026:A1 5.41812e-05
2 *2201:Y 3.17687e-05
3 *575:2 8.59499023e-05

*RES
1 *575:2 *2201:Y 4.32360172
2 *2026:A1 *575:2 4.28784
*END

*D_NET *576 0.000322938

*CONN
*I *2200:Y O *C 29.93 12.39 *L 0 *D INVX1
*I *2025:A1 I *C 26.9 12.825 *L 0.000391 *D OAI211X1

*CAP
1 *2200:Y 0.000105798
2 *2025:A1 5.56709e-05
3 *576:2 0.000161468984

*RES
1 *2025:A1 *576:2 7.39896
2 *576:2 *2200:Y 8.80241394
*END

*D_NET *577 0.000136018

*CONN
*I *2199:Y O *C 46.73 50.01 *L 0 *D INVX1
*I *2004:A1 I *C 46.7 48.735 *L 0.000391 *D OAI211X1

*CAP
1 *2004:A1 6.80089014e-05
2 *577:2 6.80089014e-05

*RES
1 *2004:A1 *577:2 4.36592102
2 *577:2 *2199:Y 3.29996
*END

*D_NET *578 5.53131e-05

*CONN
*I *2198:Y O *C 36.73 52.59 *L 0 *D INVX1
*I *2020:A1 I *C 37.1 52.155 *L 0.000391 *D OAI211X1

*CAP
1 *2198:Y 2.76565552e-05
2 *2020:A1 2.76565552e-05

*RES
1 *2020:A1 *2198:Y 6.98221
*END

*D_NET *579 0.000211716

*CONN
*I *2197:Y O *C 36.53 39.75 *L 0 *D INVX1
*I *1953:A1 I *C 36.9 41.895 *L 0.000391 *D OAI211X1

*CAP
1 *2197:Y 0.000105857852
2 *1953:A1 0.000105857852

*RES
1 *1953:A1 *2197:Y 14.7395
*END

*D_NET *580 0.000193834

*CONN
*I *2196:Y O *C 26.53 14.97 *L 0 *D INVX1
*I *1960:A1 I *C 25.5 14.535 *L 0.000391 *D OAI211X1

*CAP
1 *2196:Y 8.09425e-05
2 *1960:A1 1.59747e-05
3 *580:2 9.69171484e-05

*RES
1 *1960:A1 *580:2 6.78863
2 *580:2 *2196:Y 7.62140751
*END

*D_NET *581 0.000106931

*CONN
*I *2195:Y O *C 35.93 8.97 *L 0 *D INVX1
*I *2027:A1 I *C 37.1 9.405 *L 0.000391 *D OAI211X1

*CAP
1 *2195:Y 5.34653662e-05
2 *2027:A1 5.34653662e-05

*RES
1 *2027:A1 *2195:Y 7.98929
*END

*D_NET *582 0.000249505

*CONN
*I *2194:Y O *C 45.33 38.91 *L 0 *D INVX1
*I *1958:A1 I *C 46.7 38.475 *L 0.000391 *D OAI211X1

*CAP
1 *1958:A1 9.48907e-05
2 *2194:Y 2.98618e-05
3 *582:2 0.00012475252

*RES
1 *582:2 *2194:Y 6.85084
2 *1958:A1 *582:2 7.91203976
*END

*D_NET *583 7.58171e-05

*CONN
*I *2193:Y O *C 39.33 56.85 *L 0 *D INVX1
*I *1952:A1 I *C 39.7 57.285 *L 0.000391 *D OAI211X1

*CAP
1 *2193:Y 3.79085547e-05
2 *1952:A1 3.79085547e-05

*RES
1 *1952:A1 *2193:Y 7.04598
*END

*D_NET *584 0.000120401

*CONN
*I *2192:Y O *C 54.33 56.85 *L 0 *D INVX1
*I *1949:A1 I *C 54.7 58.995 *L 0.000391 *D OAI211X1

*CAP
1 *1949:A1 4.73265e-05
2 *2192:Y 1.28742e-05
3 *584:2 6.02006934e-05

*RES
1 *584:2 *2192:Y 3.5968
2 *1949:A1 *584:2 4.28783894
*END

*D_NET *585 0.000182033

*CONN
*I *2191:Y O *C 42.53 46.59 *L 0 *D INVX1
*I *2001:A1 I *C 43.1 48.735 *L 0.000391 *D OAI211X1

*CAP
1 *2001:A1 5.48959e-05
2 *2191:Y 3.61204e-05
3 *585:2 9.10162891e-05

*RES
1 *585:2 *2191:Y 4.09709
2 *2001:A1 *585:2 4.22227383
*END

*D_NET *586 0.000290036

*CONN
*I *2190:Y O *C 33.93 14.97 *L 0 *D INVX1
*I *2019:A1 I *C 35.5 14.535 *L 0.000391 *D OAI211X1

*CAP
1 *2190:Y 0.000145018105
2 *2019:A1 0.000145018105

*RES
1 *2019:A1 *2190:Y 15.7003
*END

*D_NET *587 7.06911e-05

*CONN
*I *2189:Y O *C 45.13 56.85 *L 0 *D INVX1
*I *2002:A1 I *C 45.7 57.285 *L 0.000391 *D OAI211X1

*CAP
1 *2189:Y 3.53455542e-05
2 *2002:A1 3.53455542e-05

*RES
1 *2002:A1 *2189:Y 10.7274
*END

*D_NET *588 0.000125051

*CONN
*I *2188:Y O *C 30.93 8.13 *L 0 *D INVX1
*I *2021:A1 I *C 31.3 9.405 *L 0.000391 *D OAI211X1

*CAP
1 *2021:A1 5.00088e-05
2 *2188:Y 1.25165e-05
3 *588:2 6.25252734e-05

*RES
1 *588:2 *2188:Y 3.58639
2 *2021:A1 *588:2 4.28783894
*END

*D_NET *589 0.000179291

*CONN
*I *2187:Y O *C 61.53 29.49 *L 0 *D INVX1
*I *2017:A1 I *C 62.3 31.635 *L 0.000391 *D OAI211X1

*CAP
1 *2187:Y 8.96453906e-05
2 *2017:A1 8.96453906e-05

*RES
1 *2017:A1 *2187:Y 8.36289
*END

*D_NET *590 6.93798e-05

*CONN
*I *2186:Y O *C 39.53 8.13 *L 0 *D INVX1
*I *2024:A1 I *C 40.3 7.695 *L 0.000391 *D OAI211X1

*CAP
1 *2186:Y 3.46899023e-05
2 *2024:A1 3.46899023e-05

*RES
1 *2024:A1 *2186:Y 7.24065
*END

*D_NET *591 0.000163674

*CONN
*I *2185:Y O *C 47.53 59.43 *L 0 *D INVX1
*I *1944:A1 I *C 47.1 60.705 *L 0.000391 *D OAI211X1

*CAP
1 *2185:Y 1.46029e-05
2 *1944:A1 6.72342e-05
3 *591:2 8.18371777e-05

*RES
1 *1944:A1 *591:2 4.41122055
2 *591:2 *2185:Y 3.64766
*END

*D_NET *592 0.000103951

*CONN
*I *2184:Y O *C 52.33 49.17 *L 0 *D INVX1
*I *2007:A1 I *C 53.3 48.735 *L 0.000391 *D OAI211X1

*CAP
1 *2184:Y 5.1975249e-05
2 *2007:A1 5.1975249e-05

*RES
1 *2007:A1 *2184:Y 11.2189
*END

*D_NET *593 0.00011003

*CONN
*I *2183:Y O *C 29.33 42.33 *L 0 *D INVX1
*I *2032:A1 I *C 30.5 41.895 *L 0.000391 *D OAI211X1

*CAP
1 *2183:Y 5.50150879e-05
2 *2032:A1 5.50150879e-05

*RES
1 *2032:A1 *2183:Y 7.96664
*END

*D_NET *594 0.000133872

*CONN
*I *2182:Y O *C 30.53 46.59 *L 0 *D INVX1
*I *2028:A1 I *C 30.7 48.735 *L 0.000391 *D OAI211X1

*CAP
1 *2028:A1 5.84719e-05
2 *2182:Y 8.46416e-06
3 *594:2 6.69360156e-05

*RES
1 *594:2 *2182:Y 3.3468
2 *2028:A1 *594:2 4.28783894
*END

*D_NET *595 0.00060153

*CONN
*I *2181:Y O *C 48.73 8.13 *L 0 *D INVX1
*I *2105:A I *C 48.85 11.08 *L 0.000211 *D OR2X1
*I *2104:A I *C 48.9 7.505 *L 0.000211 *D NAND2XL
*I *2102:A I *C 49.3 10.925 *L 0.000392 *D NOR2X1
*I *2100:A I *C 49.3 9.405 *L 0.00039 *D NAND2X1
*I *1778:A0 I *C 51.3 9.215 *L 0.000391 *D OAI211X1

*CAP
1 *1778:A0 7.40292e-05
2 *2100:A 3.93347e-06
3 *2181:Y 7.46256e-05
4 *2104:A 6.67666e-06
5 *2105:A 4.78638e-05
6 *595:6 0.000114977
7 *595:7 0.000172197813
8 *595:8 0.000107229

*RES
1 *2105:A *595:8 4.11643
2 *2104:A *2181:Y 0.24567
3 *595:7 *2181:Y 4.90141
4 *595:8 *595:7 1.20691
5 *2102:A *595:8 6.60003
6 *2100:A *595:7 3.3363
7 *595:6 *595:7 4.02425
8 *1778:A0 *595:6 7.93898106
*END

*D_NET *596 0.000354528

*CONN
*I *2180:Y O *C 52.93 8.97 *L 0 *D INVX1
*I *2116:B I *C 50.7 10.735 *L 0.000392 *D NAND2X1
*I *2115:B I *C 50.975 9.175 *L 0.000392 *D NOR2X1
*I *1762:A0 I *C 53.1 9.215 *L 0.000391 *D OAI211X1

*CAP
1 *1762:A0 7.03418e-06
2 *2115:B 3.90413e-05
3 *2116:B 2.87887e-05
4 *2180:Y 0.000109435
5 *596:4 0.000170230859

*RES
1 *596:4 *2180:Y 11.8426085
2 *2116:B *596:4 3.85803
3 *2115:B *596:4 3.95398
4 *1762:A0 *2180:Y 0.245757
*END

*D_NET *597 0.00163412

*CONN
*I *2179:Y O *C 59.13 21.81 *L 0 *D INVX1
*I *1856:B0 I *C 49.97 24.645 *L 0.000392 *D OAI32X1
*I *1706:A0 I *C 56.1 16.055 *L 0.000391 *D OAI211X1

*CAP
1 *2179:Y 0.000121412
2 *1706:A0 5.10831e-05
3 *1856:B0 0.000418721
4 *597:3 0.00023645
5 *597:4 5.84149e-05
6 *597:5 0.000541090977
7 *1856:B0 *2113:A 9.09566895e-05
8 *1856:B0 *1011:5 0.000115990635

*RES
1 *1856:B0 *597:5 24.3811607
2 *1706:A0 *597:4 4.28798
3 *597:4 *597:5 3.35717
4 *597:5 *597:3 5.6749
5 *597:3 *2179:Y 6.01047
*END

*D_NET *598 0.00120252

*CONN
*I *2178:Y O *C 55.13 19.23 *L 0 *D INVX1
*I *1861:B0 I *C 49.1 21.185 *L 0.00039 *D OAI211X1
*I *1859:B0 I *C 47.77 23.235 *L 0.000392 *D OAI32X1
*I *1686:A0 I *C 56.7 18.145 *L 0.000391 *D OAI211X1

*CAP
1 *1686:A0 0.000159619
2 *1859:B0 0.000120105
3 *598:4 0.00039041043
4 *598:5 0.00035089
5 *598:5 *112:7 9.70959668e-05
6 *598:5 *1695:B 8.44001758e-05

*RES
1 *1859:B0 *598:5 5.99695
2 *598:5 *598:4 12.3710632
3 *1861:B0 *598:5 3.30003
4 *598:4 *2178:Y 3.30003
5 *1686:A0 *598:4 10.3935
*END

*D_NET *599 2.52724e-05

*CONN
*I *2177:Y O *C 56.13 14.97 *L 0 *D INVX1
*I *1705:A0 I *C 56.5 14.725 *L 0.000391 *D OAI211X1

*CAP
1 *2177:Y 1.26361841e-05
2 *1705:A0 1.26361841e-05

*RES
1 *1705:A0 *2177:Y 0.4915
*END

*D_NET *600 0.000165462

*CONN
*I *2176:Y O *C 56.33 56.01 *L 0 *D INVX1
*I *2079:A1 I *C 55.3 53.865 *L 0.000793 *D AOI21X2

*CAP
1 *2079:A1 4.33325e-05
2 *2176:Y 3.30211e-05
3 *600:2 4.97102734e-05
4 *600:3 3.93988e-05

*RES
1 *600:3 *2176:Y 0.976813
2 *600:2 *600:3 3.35715
3 *2079:A1 *600:2 4.25386429
*END

*D_NET *601 0.000106096

*CONN
*I *2175:Y O *C 43.53 46.59 *L 0 *D INVX1
*I *2066:A1 I *C 44.52 47.17 *L 0.000392 *D AOI21X1

*CAP
1 *2175:Y 5.30481348e-05
2 *2066:A1 5.30481348e-05

*RES
1 *2066:A1 *2175:Y 7.76231
*END

*D_NET *602 0.000250816

*CONN
*I *2174:Y O *C 37.53 45.75 *L 0 *D INVX1
*I *2085:A1 I *C 35.92 45.17 *L 0.000392 *D AOI21X1

*CAP
1 *2174:Y 1.63919e-05
2 *2085:A1 0.000109016
3 *602:2 0.000125408174

*RES
1 *2085:A1 *602:2 8.14962387
2 *602:2 *2174:Y 6.76681
*END

*D_NET *603 0.000137448

*CONN
*I *2173:Y O *C 40.53 39.75 *L 0 *D INVX1
*I *2091:A1 I *C 40.32 38.33 *L 0.000392 *D AOI21X1

*CAP
1 *2173:Y 1.54974e-05
2 *2091:A1 4.42863e-05
3 *603:2 2.4438e-05
4 *603:3 5.32269482e-05

*RES
1 *603:3 *603:2 0.211706
2 *2091:A1 *603:3 4.22227383
3 *603:2 *2173:Y 3.64772
*END

*D_NET *604 0.000158429

*CONN
*I *2172:Y O *C 29.33 11.55 *L 0 *D INVX1
*I *2047:A1 I *C 28.1 12.825 *L 0.000793 *D AOI21X2

*CAP
1 *2172:Y 1.38884e-05
2 *2047:A1 6.53262e-05
3 *604:2 7.92145752e-05

*RES
1 *2047:A1 *604:2 8.00418854
2 *604:2 *2172:Y 0.485361
*END

*D_NET *605 0.00012207

*CONN
*I *2171:Y O *C 61.33 22.65 *L 0 *D INVX1
*I *2036:A1 I *C 60.32 23.23 *L 0.000392 *D AOI21X1

*CAP
1 *2171:Y 7.15267e-06
2 *2036:A1 5.38825e-05
3 *605:2 6.10351563e-05

*RES
1 *2036:A1 *605:2 7.31813908
2 *605:2 *2171:Y 0.208815
*END

*D_NET *606 0.000145674

*CONN
*I *2170:Y O *C 28.53 49.17 *L 0 *D INVX1
*I *2063:A1 I *C 27.9 47.025 *L 0.000793 *D AOI21X2

*CAP
1 *2063:A1 4.82801e-05
2 *2170:Y 1.67489e-05
3 *606:2 5.60879688e-05
4 *606:3 2.45568e-05

*RES
1 *606:3 *2170:Y 0.48527
2 *606:2 *606:3 3.3572
3 *2063:A1 *606:2 4.2642355
*END

*D_NET *607 0.000148773

*CONN
*I *2169:Y O *C 47.13 59.43 *L 0 *D INVX1
*I *2051:A1 I *C 46.92 57.43 *L 0.000392 *D AOI21X1

*CAP
1 *2169:Y 7.43865967e-05
2 *2051:A1 7.43865967e-05

*RES
1 *2051:A1 *2169:Y 7.79438
*END

*D_NET *608 0.000147223

*CONN
*I *2168:Y O *C 37.53 14.97 *L 0 *D INVX1
*I *2090:A1 I *C 36.52 14.39 *L 0.000392 *D AOI21X1

*CAP
1 *2168:Y 7.36117383e-05
2 *2090:A1 7.36117383e-05

*RES
1 *2090:A1 *2168:Y 7.90775
*END

*D_NET *609 0.000380039

*CONN
*I *2167:Y O *C 38.73 8.97 *L 0 *D INVX1
*I *2039:A1 I *C 33.92 9.55 *L 0.000392 *D AOI21X1

*CAP
1 *2039:A1 0.000190019609
2 *609:2 0.000190019609

*RES
1 *2039:A1 *609:2 17.401577
2 *609:2 *2167:Y 0.499987
*END

*D_NET *610 0.000185966

*CONN
*I *2166:Y O *C 57.53 50.01 *L 0 *D INVX1
*I *2049:A1 I *C 56.5 48.735 *L 0.000793 *D AOI21X2

*CAP
1 *2049:A1 5.51935e-05
2 *2166:Y 3.65969e-05
3 *610:2 3.77894e-05
4 *610:3 5.63859961e-05

*RES
1 *610:3 *610:2 3.32466
2 *610:2 *2166:Y 1.2655
3 *2049:A1 *610:3 4.20951843
*END

*D_NET *611 0.00015223

*CONN
*I *2165:Y O *C 56.93 38.91 *L 0 *D INVX1
*I *2037:A1 I *C 55.92 38.33 *L 0.000392 *D AOI21X1

*CAP
1 *2165:Y 7.61151318e-05
2 *2037:A1 7.61151318e-05

*RES
1 *2037:A1 *2165:Y 7.91538
*END

*D_NET *612 0.000123501

*CONN
*I *2164:Y O *C 23.73 14.97 *L 0 *D INVX1
*I *2050:A1 I *C 24.32 14.39 *L 0.000392 *D AOI21X1

*CAP
1 *2164:Y 6.17504102e-05
2 *2050:A1 6.17504102e-05

*RES
1 *2050:A1 *2164:Y 7.60543
*END

*D_NET *613 0.000212073

*CONN
*I *2163:Y O *C 37.13 39.75 *L 0 *D INVX1
*I *2095:A1 I *C 35.52 40.33 *L 0.000392 *D AOI21X1

*CAP
1 *2095:A1 2.95045e-05
2 *2163:Y 7.65321e-05
3 *613:2 0.00010603666

*RES
1 *613:2 *2163:Y 7.99679756
2 *2095:A1 *613:2 6.99451
*END

*D_NET *614 0.000139713

*CONN
*I *2162:Y O *C 32.93 28.65 *L 0 *D INVX1
*I *2059:A1 I *C 31.92 28.07 *L 0.000392 *D AOI21X1

*CAP
1 *2162:Y 6.98566455e-05
2 *2059:A1 6.98566455e-05

*RES
1 *2059:A1 *2162:Y 8.22532
*END

*D_NET *615 0.000220656

*CONN
*I *2161:Y O *C 29.93 39.75 *L 0 *D INVX1
*I *2097:A1 I *C 28.92 40.33 *L 0.000392 *D AOI21X1

*CAP
1 *2161:Y 3.35572e-05
2 *2097:A1 7.6771e-05
3 *615:2 0.000110328193

*RES
1 *2097:A1 *615:2 7.89034367
2 *615:2 *2161:Y 7.16784
*END

*D_NET *616 0.000287175

*CONN
*I *2160:Y O *C 41.33 8.13 *L 0 *D INVX1
*I *2043:A1 I *C 38.32 7.55 *L 0.000392 *D AOI21X1

*CAP
1 *2043:A1 2.21138e-05
2 *2160:Y 0.000121474
3 *616:2 0.000143587588

*RES
1 *616:2 *2160:Y 9.13333893
2 *2043:A1 *616:2 6.9254
*END

*D_NET *617 0.000159144

*CONN
*I *2159:Y O *C 38.93 56.85 *L 0 *D INVX1
*I *2038:A1 I *C 37.92 57.43 *L 0.000392 *D AOI21X1

*CAP
1 *2159:Y 7.95722021e-05
2 *2038:A1 7.95722021e-05

*RES
1 *2038:A1 *2159:Y 7.96831
*END

*D_NET *618 0.000169158

*CONN
*I *2158:Y O *C 33.93 15.81 *L 0 *D INVX1
*I *2046:A1 I *C 33.32 17.81 *L 0.000392 *D AOI21X1

*CAP
1 *2046:A1 5.85319e-05
2 *2158:Y 1.91924e-05
3 *618:2 6.53862939e-05
4 *618:3 2.60468e-05

*RES
1 *618:3 *2158:Y 0.485293
2 *618:2 *618:3 3.34679
3 *2046:A1 *618:2 4.15360928
*END

*D_NET *619 0.000105739

*CONN
*I *2157:Y O *C 19.33 25.23 *L 0 *D INVX1
*I *2041:A1 I *C 19.32 26.65 *L 0.000392 *D AOI21X1

*CAP
1 *2041:A1 5.25119e-05
2 *2157:Y 3.57383e-07
3 *619:2 5.28693213e-05

*RES
1 *619:2 *2157:Y 3.31221
2 *2041:A1 *619:2 4.36592102
*END

*D_NET *620 0.000192165

*CONN
*I *2156:Y O *C 33.93 32.07 *L 0 *D INVX1
*I *2035:A1 I *C 32.32 31.49 *L 0.000392 *D AOI21X1

*CAP
1 *2156:Y 3.48689e-05
2 *2035:A1 6.12138e-05
3 *620:2 9.60826855e-05

*RES
1 *2035:A1 *620:2 7.56180286
2 *620:2 *2156:Y 0.976841
*END

*D_NET *621 0.000444174

*CONN
*I *2155:Y O *C 52.13 50.01 *L 0 *D INVX1
*I *2080:A1 I *C 50.12 48.59 *L 0.000392 *D AOI21X1

*CAP
1 *2080:A1 7.17646e-05
2 *2155:Y 9.57245e-05
3 *621:2 0.000167489043
4 *2080:A1 *2080:B0 0.000109195713

*RES
1 *621:2 *2155:Y 11.6397142
2 *2080:A1 *621:2 5.22771
*END

*D_NET *622 0.000293136

*CONN
*I *2154:Y O *C 33.53 49.17 *L 0 *D INVX1
*I *2093:A1 I *C 31.52 47.17 *L 0.000392 *D AOI21X1

*CAP
1 *2154:Y 5.23337e-05
2 *2093:A1 9.42342e-05
3 *622:2 0.000146567822

*RES
1 *2093:A1 *622:2 11.7019415
2 *622:2 *2154:Y 4.28788
*END

*D_NET *623 0.000105977

*CONN
*I *2153:Y O *C 22.13 21.81 *L 0 *D INVX1
*I *2069:A1 I *C 21.12 21.23 *L 0.000392 *D AOI21X1

*CAP
1 *2153:Y 5.78196e-06
2 *2069:A1 4.72066e-05
3 *623:2 5.29885303e-05

*RES
1 *2069:A1 *623:2 7.43150711
2 *623:2 *2153:Y 0.208875
*END

*D_NET *624 0.000450611

*CONN
*I *2152:Y O *C 53.53 43.17 *L 0 *D INVX1
*I *2067:A1 I *C 49.3 43.605 *L 0.000793 *D AOI21X2

*CAP
1 *2152:Y 2.3961e-05
2 *2067:A1 0.00015676
3 *624:2 0.000180721289
4 *2067:A1 *425:5 8.91685449e-05

*RES
1 *2067:A1 *624:2 13.6938095
2 *624:2 *2152:Y 3.64766
*END

*D_NET *625 0.000146866

*CONN
*I *2151:Y O *C 33.53 35.49 *L 0 *D INVX1
*I *2092:A1 I *C 32.32 34.91 *L 0.000392 *D AOI21X1

*CAP
1 *2151:Y 1.59147e-05
2 *2092:A1 5.75183e-05
3 *625:2 7.34329199e-05

*RES
1 *2092:A1 *625:2 7.29453564
2 *625:2 *2151:Y 0.454684
*END

*D_NET *626 0.000152469

*CONN
*I *2150:Y O *C 18.93 22.65 *L 0 *D INVX1
*I *2058:A1 I *C 17.92 23.23 *L 0.000392 *D AOI21X1

*CAP
1 *2150:Y 7.62343408e-05
2 *2058:A1 7.62343408e-05

*RES
1 *2058:A1 *2150:Y 7.96831
*END

*D_NET *627 0.000101209

*CONN
*I *2149:Y O *C 22.33 32.07 *L 0 *D INVX1
*I *2087:A1 I *C 23.32 31.49 *L 0.000392 *D AOI21X1

*CAP
1 *2149:Y 5.06043457e-05
2 *2087:A1 5.06043457e-05

*RES
1 *2087:A1 *2149:Y 7.79259
*END

*D_NET *628 0.000231147

*CONN
*I *2148:Y O *C 26.13 39.75 *L 0 *D INVX1
*I *2072:A1 I *C 26.1 36.765 *L 0.000793 *D AOI21X2

*CAP
1 *2072:A1 0.000115573408
2 *628:2 0.000115573408

*RES
1 *628:2 *2148:Y 3.29999
2 *2072:A1 *628:2 5.62655926
*END

*D_NET *629 0.00030601

*CONN
*I *2147:Y O *C 56.93 39.75 *L 0 *D INVX1
*I *2065:A1 I *C 53.92 40.33 *L 0.000392 *D AOI21X1

*CAP
1 *2065:A1 3.55249e-05
2 *2147:Y 0.00011748
3 *629:2 0.000153005127

*RES
1 *629:2 *2147:Y 9.13333893
2 *2065:A1 *629:2 7.06908
*END

*D_NET *630 0.000169158

*CONN
*I *2146:Y O *C 61.53 25.23 *L 0 *D INVX1
*I *2055:A1 I *C 60.12 24.65 *L 0.000392 *D AOI21X1

*CAP
1 *2146:Y 8.45789941e-05
2 *2055:A1 8.45789941e-05

*RES
1 *2055:A1 *2146:Y 8.36134
*END

*D_NET *631 0.000229955

*CONN
*I *2145:Y O *C 46.73 39.75 *L 0 *D INVX1
*I *2083:A1 I *C 47.72 38.33 *L 0.000392 *D AOI21X1

*CAP
1 *2145:Y 0.000114977363
2 *2083:A1 0.000114977363

*RES
1 *2083:A1 *2145:Y 8.8073
*END

*D_NET *632 0.000140667

*CONN
*I *2144:Y O *C 61.13 25.23 *L 0 *D INVX1
*I *2005:A1 I *C 62.1 24.795 *L 0.000391 *D OAI211X1

*CAP
1 *2144:Y 7.03334814e-05
2 *2005:A1 7.03334814e-05

*RES
1 *2005:A1 *2144:Y 8.11183
*END

*D_NET *633 0.000316501

*CONN
*I *2143:Y O *C 20.73 21.81 *L 0 *D INVX1
*I *1948:A1 I *C 18.1 21.375 *L 0.000391 *D OAI211X1

*CAP
1 *2143:Y 3.5465e-05
2 *1948:A1 6.09154e-05
3 *633:2 5.31669e-05
4 *633:3 7.86185254e-05
5 *1948:A1 *403:8 8.8334082e-05

*RES
1 *1948:A1 *633:3 7.96866417
2 *633:3 *633:2 6.74922
3 *633:2 *2143:Y 1.22261
*END

*D_NET *634 0.000154734

*CONN
*I *2142:Y O *C 26.53 39.75 *L 0 *D INVX1
*I *2031:A1 I *C 26.5 41.895 *L 0.000391 *D OAI211X1

*CAP
1 *2031:A1 7.73668311e-05
2 *634:2 7.73668311e-05

*RES
1 *634:2 *2142:Y 0.499972
2 *2031:A1 *634:2 7.96067715
*END

*D_NET *635 0.000252604

*CONN
*I *2141:Y O *C 21.93 32.07 *L 0 *D INVX1
*I *1945:A1 I *C 20.7 31.635 *L 0.000391 *D OAI211X1

*CAP
1 *2141:Y 3.61205e-05
2 *1945:A1 9.01817e-05
3 *635:2 0.000126302246

*RES
1 *1945:A1 *635:2 7.75039196
2 *635:2 *2141:Y 6.86118
*END

*D_NET *636 9.88245e-05

*CONN
*I *2140:Y O *C 53.73 38.91 *L 0 *D INVX1
*I *1950:A1 I *C 54.7 38.475 *L 0.000391 *D OAI211X1

*CAP
1 *2140:Y 4.9412251e-05
2 *1950:A1 4.9412251e-05

*RES
1 *1950:A1 *2140:Y 7.71332
*END

*D_NET *637 0.00028491

*CONN
*I *2139:Y O *C 30.93 32.07 *L 0 *D INVX1
*I *1963:A1 I *C 28.9 31.635 *L 0.000391 *D OAI211X1

*CAP
1 *2139:Y 5.82936e-05
2 *1963:A1 7.77843e-05
3 *637:2 6.46711e-05
4 *637:3 8.41617578e-05

*RES
1 *1963:A1 *637:3 7.66634941
2 *637:3 *637:2 0.204129
3 *637:2 *2139:Y 7.62143
*END

*D_NET *638 6.36578e-05

*CONN
*I *2138:Y O *C 53.33 45.75 *L 0 *D INVX1
*I *1941:A1 I *C 53.7 45.315 *L 0.000391 *D OAI211X1

*CAP
1 *2138:Y 3.18288794e-05
2 *1941:A1 3.18288794e-05

*RES
1 *1941:A1 *2138:Y 10.4539
*END

*D_NET *639 3.3617e-05

*CONN
*I *2137:Y O *C 63.13 18.39 *L 0 *D INVX1
*I *1964:A1 I *C 63.5 17.955 *L 0.000391 *D OAI211X1

*CAP
1 *2137:Y 1.68085095e-05
2 *1964:A1 1.68085095e-05

*RES
1 *1964:A1 *2137:Y 0.4915
*END

*D_NET *640 0.000261545

*CONN
*I *2136:Y O *C 23.53 35.49 *L 0 *D INVX1
*I *1937:A1 I *C 22.3 35.055 *L 0.000391 *D OAI211X1

*CAP
1 *2136:Y 6.38967e-05
2 *1937:A1 6.68759e-05
3 *640:2 0.000130772588

*RES
1 *1937:A1 *640:2 7.42067
2 *640:2 *2136:Y 7.47025013
*END

*D_NET *641 0.000160933

*CONN
*I *2135:Y O *C 61.13 26.07 *L 0 *D INVX1
*I *1966:A1 I *C 62.1 26.505 *L 0.000391 *D OAI211X1

*CAP
1 *2135:Y 8.04662695e-05
2 *1966:A1 8.04662695e-05

*RES
1 *1966:A1 *2135:Y 8.37052
*END

*D_NET *642 0.000236273

*CONN
*I *2134:Y O *C 32.93 18.39 *L 0 *D INVX1
*I *2018:A1 I *C 31.9 16.245 *L 0.000391 *D OAI211X1

*CAP
1 *2134:Y 2.21131e-05
2 *2018:A1 5.44783e-05
3 *642:2 6.36579e-05
4 *642:3 9.60230859e-05

*RES
1 *2018:A1 *642:3 4.3361187
2 *642:3 *642:2 4.12439
3 *642:2 *2134:Y 0.731111
*END

*D_NET *643 0.000220656

*CONN
*I *2133:Y O *C 36.73 56.85 *L 0 *D INVX1
*I *1951:A1 I *C 35.7 57.285 *L 0.000391 *D OAI211X1

*CAP
1 *2133:Y 9.25656e-05
2 *1951:A1 1.77626e-05
3 *643:2 0.000110328193

*RES
1 *1951:A1 *643:2 10.1040602
2 *643:2 *2133:Y 7.58313
*END

*D_NET *644 0.00015378

*CONN
*I *2132:Y O *C 20.53 28.65 *L 0 *D INVX1
*I *2015:A1 I *C 20.3 29.925 *L 0.000391 *D OAI211X1

*CAP
1 *2015:A1 5.74584e-05
2 *2132:Y 1.94316e-05
3 *644:2 7.68899902e-05

*RES
1 *644:2 *2132:Y 3.71575
2 *2015:A1 *644:2 4.22227383
*END

*D_NET *645 0.00022161

*CONN
*I *2131:Y O *C 60.13 36.33 *L 0 *D INVX1
*I *1956:A1 I *C 61.7 36.765 *L 0.000391 *D OAI211X1

*CAP
1 *1956:A1 8.63666e-05
2 *2131:Y 2.44385e-05
3 *645:2 0.000110805039

*RES
1 *645:2 *2131:Y 6.84984
2 *1956:A1 *645:2 8.11994076
*END

*D_NET *646 0.000132799

*CONN
*I *2130:Y O *C 58.73 49.17 *L 0 *D INVX1
*I *2012:A1 I *C 58.1 50.445 *L 0.000391 *D OAI211X1

*CAP
1 *2012:A1 4.72071e-05
2 *2130:Y 1.33513e-05
3 *646:2 5.30481348e-05
4 *646:3 1.91924e-05

*RES
1 *646:3 *2130:Y 0.485274
2 *646:2 *646:3 3.3468
3 *2012:A1 *646:2 4.28783894
*END

*D_NET *647 9.48906e-05

*CONN
*I *2129:Y O *C 53.33 56.01 *L 0 *D INVX1
*I *1965:A1 I *C 54.3 55.575 *L 0.000391 *D OAI211X1

*CAP
1 *2129:Y 4.74452979e-05
2 *1965:A1 4.74452979e-05

*RES
1 *1965:A1 *2129:Y 7.72083
*END

*D_NET *648 0.000326633

*CONN
*I *2128:Y O *C 31.73 35.49 *L 0 *D INVX1
*I *1943:A1 I *C 29.3 35.055 *L 0.000391 *D OAI211X1

*CAP
1 *2128:Y 7.9751e-05
2 *1943:A1 2.03252e-05
3 *648:2 0.000100076201
4 *648:2 *424:9 0.000126481055

*RES
1 *1943:A1 *648:2 6.92965
2 *648:2 *2128:Y 8.67974758
*END

*D_NET *649 0.000216246

*CONN
*I *2127:Y O *C 31.53 28.65 *L 0 *D INVX1
*I *2010:A1 I *C 29.5 28.215 *L 0.000391 *D OAI211X1

*CAP
1 *2127:Y 9.27446e-05
2 *2010:A1 1.53782e-05
3 *649:2 0.000108122822

*RES
1 *2010:A1 *649:2 6.78864
2 *649:2 *2127:Y 8.37743282
*END

*D_NET *650 0.000101328

*CONN
*I *2126:Y O *C 60.93 35.49 *L 0 *D INVX1
*I *1954:A1 I *C 62.1 35.055 *L 0.000391 *D OAI211X1

*CAP
1 *2126:Y 5.06639502e-05
2 *1954:A1 5.06639502e-05

*RES
1 *1954:A1 *2126:Y 7.96664
*END

*D_NET *651 6.79493e-05

*CONN
*I *2125:Y O *C 61.53 32.91 *L 0 *D INVX1
*I *1936:A1 I *C 62.1 33.345 *L 0.000391 *D OAI211X1

*CAP
1 *2125:Y 3.39746484e-05
2 *1936:A1 3.39746484e-05

*RES
1 *1936:A1 *2125:Y 7.2521
*END

*D_NET *652 0.000192165

*CONN
*I *2124:Y O *C 60.53 49.17 *L 0 *D INVX1
*I *2022:A1 I *C 59.5 48.735 *L 0.000391 *D OAI211X1

*CAP
1 *2124:Y 2.05038e-05
2 *2022:A1 7.55789e-05
3 *652:2 9.60826855e-05

*RES
1 *2022:A1 *652:2 4.66156006
2 *652:2 *2124:Y 3.64768
*END

*D_NET *653 0.00048089

*CONN
*I *2123:Y O *C 20.33 26.07 *L 0 *D INVX1
*I *1959:A1 I *C 17.1 24.795 *L 0.000391 *D OAI211X1

*CAP
1 *2123:Y 1.69271e-05
2 *1959:A1 7.79028e-05
3 *653:2 0.000162542
4 *653:3 0.000223517422

*RES
1 *1959:A1 *653:3 5.14898
2 *653:3 *653:2 9.66250896
3 *653:2 *2123:Y 3.57243
*END

*D_NET *654 0.000150919

*CONN
*I *2122:Y O *C 48.93 46.59 *L 0 *D INVX1
*I *1940:A1 I *C 48.7 48.735 *L 0.000391 *D OAI211X1

*CAP
1 *1940:A1 5.30479e-05
2 *2122:Y 2.24116e-05
3 *654:2 7.54594824e-05

*RES
1 *654:2 *2122:Y 3.71575
2 *1940:A1 *654:2 4.22227383
*END

*D_NET *655 0.000185847

*CONN
*I *2121:Y O *C 42.33 38.91 *L 0 *D INVX1
*I *1955:A1 I *C 41.5 40.185 *L 0.000391 *D OAI211X1

*CAP
1 *2121:Y 4.65519e-05
2 *1955:A1 4.63718e-05
3 *655:2 9.29236426e-05

*RES
1 *1955:A1 *655:2 4.28271294
2 *655:2 *2121:Y 4.07863
*END

*D_NET *656 6.31809e-05

*CONN
*I *2120:Y O *C 25.33 49.17 *L 0 *D INVX1
*I *2029:A1 I *C 25.9 48.735 *L 0.000391 *D OAI211X1

*CAP
1 *2120:Y 3.15904614e-05
2 *2029:A1 3.15904614e-05

*RES
1 *2029:A1 *2120:Y 7.22182
*END

*D_NET *657 0.0001508

*CONN
*I *2119:Y O *C 36.93 45.75 *L 0 *D INVX1
*I *1938:A1 I *C 37.9 45.315 *L 0.000391 *D OAI211X1

*CAP
1 *2119:Y 7.53998779e-05
2 *1938:A1 7.53998779e-05

*RES
1 *1938:A1 *2119:Y 8.02684
*END

*D_NET *658 8.21352e-05

*CONN
*I *2118:Y O *C 61.73 22.65 *L 0 *D INVX1
*I *2006:A1 I *C 62.3 23.085 *L 0.000391 *D OAI211X1

*CAP
1 *2118:Y 4.10676025e-05
2 *2006:A1 4.10676025e-05

*RES
1 *2006:A1 *2118:Y 7.19714
*END

*D_NET *659 0.000577092

*CONN
*I *2114:Y O *C 50.315 23.21 *L 0 *D NOR2X1
*I *1860:B0 I *C 44.57 23.235 *L 0.000392 *D OAI32X1

*CAP
1 *2114:Y 0.0002144
2 *1860:B0 2.65821e-05
3 *659:2 0.000240981582
4 *659:2 *256:14 9.51290137e-05

*RES
1 *1860:B0 *659:2 6.83788
2 *659:2 *2114:Y 11.0197067
*END

*D_NET *660 0.000367284

*CONN
*I *2113:Y O *C 50.915 23.21 *L 0 *D NOR2X1
*I *1856:B1 I *C 49.7 24.795 *L 0.000392 *D OAI32X1

*CAP
1 *2113:Y 1.1206e-05
2 *1856:B1 0.000172436
3 *660:2 0.000183641914

*RES
1 *1856:B1 *660:2 19.151926
2 *660:2 *2113:Y 0.411759
*END

*D_NET *661 0.000320315

*CONN
*I *2117:Y O *C 51.555 11.16 *L 0 *D NAND2X1
*I *2102:B I *C 49.575 11.345 *L 0.000392 *D NOR2X1
*I *2101:B I *C 49.5 13.015 *L 0.00021 *D OR2X1

*CAP
1 *2102:B 7.09365e-06
2 *2117:Y 8.66652e-05
3 *2101:B 6.11544e-05
4 *661:3 9.19103613e-05
5 *661:4 7.34932e-05

*RES
1 *2101:B *661:4 4.47169
2 *661:4 *661:3 3.33635
3 *661:3 *2117:Y 8.22615623
4 *2102:B *661:4 3.4315
*END

*D_NET *662 0.000399709

*CONN
*I *2116:Y O *C 50.955 11.16 *L 0 *D NAND2X1
*I *2105:B I *C 48.5 10.925 *L 0.00021 *D OR2X1
*I *2103:B I *C 50.3 13.015 *L 0.00021 *D OR2X1

*CAP
1 *2103:B 5.25114e-05
2 *2105:B 0.000120401
3 *662:3 7.94529e-05
4 *662:4 0.000147342686

*RES
1 *2105:B *662:4 12.152195
2 *2103:B *662:3 4.22219
3 *662:3 *662:4 0.710559
4 *662:4 *2116:Y 3.29987
*END

*D_NET *663 0.000374317

*CONN
*I *2115:Y O *C 51.115 9.53 *L 0 *D NOR2X1
*I *2106:B I *C 48.4 9.355 *L 0.000212 *D NAND2XL
*I *2100:B I *C 49.5 9.785 *L 0.000392 *D NAND2X1

*CAP
1 *2100:B 2.73591e-05
2 *2115:Y 0.000116527
3 *2106:B 3.60616e-05
4 *663:3 0.000123739238
5 *663:4 7.06315e-05

*RES
1 *2106:B *663:4 3.98034
2 *663:4 *663:3 3.35712
3 *663:3 *2115:Y 8.5285902
4 *2100:B *663:4 3.84252
*END

*D_NET *664 0.000229359

*CONN
*I *2112:Y O *C 54.52 11.575 *L 0 *D NAND2BX1
*I *2108:A I *C 55.1 10.925 *L 0.000395 *D INVX1
*I *1801:B I *C 54.9 12.825 *L 0.00039 *D NAND3X1

*CAP
1 *2108:A 2.24705e-05
2 *1801:B 5.47767e-05
3 *2112:Y 1.65704e-05
4 *664:3 7.56382959e-05
5 *664:4 5.99024e-05

*RES
1 *664:4 *2112:Y 3.52296
2 *664:3 *664:4 0.498939
3 *1801:B *664:3 7.80951977
4 *2108:A *664:4 3.67418
*END

*D_NET *665 0.000210285

*CONN
*I *2108:Y O *C 55.33 11.55 *L 0 *D INVX1
*I *1802:A I *C 55.9 10.925 *L 0.000392 *D NOR2X1
*I *1800:A1 I *C 56.7 11.115 *L 0.000793 *D AOI21X2

*CAP
1 *1800:A1 8.2314e-05
2 *2108:Y 0.000105142598
3 *1802:A 2.28286e-05

*RES
1 *1802:A *2108:Y 1.00129
2 *1800:A1 *2108:Y 14.683485
*END

*D_NET *666 0.0011642

*CONN
*I *2111:Y O *C 50.515 21.25 *L 0 *D NOR2X1
*I *1864:B0 I *C 40.5 21.185 *L 0.000394 *D OAI31X1
*I *1861:C0 I *C 49.385 21.375 *L 0.000392 *D OAI211X1
*I *1860:B1 I *C 44.3 23.085 *L 0.000392 *D OAI32X1

*CAP
1 *1861:C0 1.3172e-05
2 *2111:Y 4.42246e-05
3 *1860:B1 2.81332e-05
4 *1864:B0 0.00016016
5 *666:4 0.00028056
6 *666:5 0.000411450859
7 *666:5 *1814:A0 0.000100612637
8 *1860:B1 *1860:A1 0.00012588501

*RES
1 *1864:B0 *666:5 11.3251209
2 *1860:B1 *666:5 7.07215
3 *666:5 *666:4 8.24811
4 *666:4 *2111:Y 4.05268
5 *1861:C0 *666:4 3.40206
*END

*D_NET *667 0.000357509

*CONN
*I *2110:Y O *C 51.715 7.57 *L 0 *D NOR2X1
*I *2107:B I *C 47.9 7.315 *L 0.000392 *D NAND2X1
*I *2104:B I *C 49.2 7.745 *L 0.000212 *D NAND2XL

*CAP
1 *2104:B 2.15182e-05
2 *2110:Y 8.47579e-05
3 *2107:B 7.24782e-05
4 *667:3 0.000178754336

*RES
1 *2107:B *667:3 7.8827
2 *667:3 *2110:Y 8.80849361
3 *2104:B *667:3 6.80502
*END

*D_NET *668 0.000704169

*CONN
*I *2109:Y O *C 49.355 23.04 *L 0 *D NAND2X1
*I *1862:B0 I *C 45.7 26.695 *L 0.000394 *D OAI31X1
*I *1859:B1 I *C 47.5 23.085 *L 0.000392 *D OAI32X1

*CAP
1 *2109:Y 0.000105382
2 *1862:B0 0.00024146
3 *668:3 0.000110626
4 *668:4 0.000246703633

*RES
1 *1862:B0 *668:4 14.3004656
2 *1859:B1 *668:4 3.29996
3 *668:4 *668:3 3.3364
4 *668:3 *2109:Y 8.27117
*END

*D_NET *669 0.000438094

*CONN
*I *1264:A I *C 44.9 7.505 *L 0.000395 *D INVX1
*I *2107:Y O *C 48.155 7.74 *L 0 *D NAND2X1

*CAP
1 *2107:Y 4.70282e-05
2 *1264:A 0.000172019
3 *669:2 0.00021904707

*RES
1 *1264:A *669:2 15.204072
2 *669:2 *2107:Y 4.14437
*END

*D_NET *670 0.00395834

*CONN
*I *1786:A0 I *C 40.9 14.725 *L 0.000391 *D OAI211X1
*I *1904:B1 I *C 37.1 29.735 *L 0.00021 *D OA22X1
*I *1889:B1 I *C 37.7 31.825 *L 0.000392 *D OAI22X1
*I *1900:B1 I *C 38.3 35.245 *L 0.000392 *D OAI22X1
*I *1887:B1 I *C 39.9 35.245 *L 0.000392 *D OAI22X1
*I *1898:B1 I *C 41.1 35.245 *L 0.00021 *D OA22X1
*I *1871:B1 I *C 46.7 33.345 *L 0.00039 *D OAI221X1
*I *1893:B1 I *C 46.3 31.825 *L 0.000392 *D OAI22X1
*I *1267:Y O *C 43.93 11.55 *L 0 *D INVX1

*CAP
1 *1893:B1 6.59848e-05
2 *1267:Y 4.31498e-05
3 *1786:A0 5.61463e-05
4 *1887:B1 1.59117e-05
5 *1889:B1 2.15192e-05
6 *1904:B1 3.9101e-05
7 *670:9 0.000218391
8 *670:10 0.000314772
9 *670:11 0.000663340078
10 *670:12 0.000142749
11 *670:13 0.000521542
12 *670:14 0.00025737
13 *670:15 0.000121473
14 *670:16 0.000138286
15 *670:17 9.65024e-05
16 *670:18 0.000209807
17 *670:19 0.000225486
18 *670:20 7.24831e-05
19 *670:17 *486:3 0.000151872637
20 *670:16 *1898:A1 0.000142097471
21 *670:13 *927:4 0.000114798545
22 *670:10 *1725:A 9.95397559e-05
23 *670:9 *1871:B0 0.000141263008
24 *670:9 *1039:2 8.47578027e-05

*RES
1 *670:20 *670:19 0.710596
2 *1904:B1 *670:20 4.50961
3 *670:19 *670:18 3.5076
4 *1889:B1 *670:19 3.65525
5 *1900:B1 *670:18 3.29988
6 *670:18 *670:17 4.75853
7 *1887:B1 *670:17 6.78862
8 *670:17 *670:16 4.59316
9 *1786:A0 *670:15 7.62137
10 *670:16 *670:14 5.17238
11 *1898:B1 *670:16 3.29988
12 *670:15 *670:13 4.17542
13 *670:13 *670:12 9.44042206
14 *670:11 *670:13 8.04703
15 *670:14 *670:10 3.35722
16 *670:10 *670:11 7.99417
17 *670:12 *1267:Y 4.00112
18 *1893:B1 *670:9 4.76659
19 *670:9 *670:14 7.28429
20 *1871:B1 *670:9 3.29988
*END

*D_NET *671 0.000520706

*CONN
*I *1268:A I *C 43.3 9.595 *L 0.000395 *D INVX1
*I *1788:A0 I *C 46.9 9.215 *L 0.000391 *D OAI211X1
*I *2106:Y O *C 48.54 9.695 *L 0 *D NAND2XL

*CAP
1 *2106:Y 2.19937e-05
2 *1788:A0 2.46779e-05
3 *1268:A 0.000142455
4 *671:3 9.32231e-05
5 *671:4 0.000238358965

*RES
1 *1268:A *671:4 9.76467133
2 *671:4 *671:3 4.87369
3 *1788:A0 *671:4 6.86176
4 *671:3 *2106:Y 3.71494
*END

*D_NET *672 0.000447154

*CONN
*I *2071:Y O *C 40.53 14.97 *L 0 *D INVX1
*I *1830:A0 I *C 42.3 16.625 *L 0.000391 *D AOI21X1
*I *1809:A0 I *C 40.7 12.825 *L 0.000391 *D AOI32X1

*CAP
1 *1830:A0 0.00015086
2 *1809:A0 6.45516e-05
3 *2071:Y 0.000159025195
4 *672:3 7.2717e-05

*RES
1 *672:3 *2071:Y 3.35721
2 *1809:A0 *672:3 4.28778
3 *1830:A0 *2071:Y 15.8445835
*END

*D_NET *673 0.00428921

*CONN
*I *2105:Y O *C 49.15 11.2 *L 0 *D OR2X1
*I *2071:A I *C 40.3 14.345 *L 0.000395 *D INVX1
*I *1901:A1 I *C 39.125 23.0375 *L 0.000212 *D OA22X1
*I *1896:A1 I *C 38.5 26.505 *L 0.000391 *D OAI22X1
*I *1894:A1 I *C 47.1 28.215 *L 0.000391 *D OAI22X1
*I *1890:A1 I *C 36.3 23.085 *L 0.000391 *D OAI22X1
*I *1886:A1 I *C 35.9 21.375 *L 0.000391 *D OAI22X1
*I *1884:B1 I *C 40.5 29.735 *L 0.00021 *D OA22X1
*I *1870:A1 I *C 37.225 21.63 *L 0.000391 *D OAI221X1
*I *1821:B0 I *C 43.465 12.785 *L 0.00039 *D OAI2BB1X1
*I *1799:B0 I *C 45.1 11.115 *L 0.000392 *D OAI22X1

*CAP
1 *2105:Y 8.27935e-05
2 *1894:A1 0.000240443
3 *1799:B0 3.409e-05
4 *1884:B1 0.000227155
5 *2071:A 3.80269e-05
6 *1901:A1 4.72661e-05
7 *1896:A1 5.97234e-05
8 *1870:A1 1.99078e-05
9 *1890:A1 6.40755e-05
10 *673:11 0.000157474
11 *673:12 0.000216007
12 *673:13 0.000249506
13 *673:14 0.000477197
14 *673:15 0.000108419
15 *673:16 0.000129756
16 *673:17 0.000523328789
17 *673:18 0.000411157
18 *673:19 9.10745e-05
19 *673:20 0.000110503
20 *673:20 *123:13 6.27637e-05
21 *673:19 *123:13 3.31998e-05
22 *673:16 *123:13 4.00543004e-05
23 *673:17 *1809:A1 9.8466875e-05
24 *1884:B1 *1892:B1 8.16583643e-05
25 *1884:B1 *1896:B0 0.00022614002
26 *673:12 *1805:B 8.44001758e-05
27 *1894:A1 *1089:15 0.000130355361
28 *1894:A1 *401:4 0.00013053417
29 *1894:A1 *891:4 0.000113725664

*RES
1 *673:20 *673:19 4.32475
2 *1886:A1 *673:20 3.30002
3 *1890:A1 *673:20 4.69329
4 *673:19 *673:18 0.513858
5 *1870:A1 *673:19 6.80499
6 *673:18 *673:17 14.9436
7 *673:16 *673:18 5.07449
8 *673:15 *673:16 2.34348
9 *673:14 *673:15 0.332759
10 *1896:A1 *673:15 10.481
11 *1901:A1 *673:16 10.7258
12 *673:17 *673:13 6.38466
13 *2071:A *673:17 7.07216
14 *1884:B1 *673:14 14.2051
15 *673:13 *673:12 5.38787
16 *1821:B0 *673:13 6.60004
17 *673:12 *673:11 2.23392
18 *1799:B0 *673:12 7.12768
19 *1894:A1 *673:14 24.4207382
20 *673:11 *2105:Y 8.12
*END

*D_NET *674 0.000717997

*CONN
*I *1265:A I *C 41.1 9.595 *L 0.000395 *D INVX1
*I *1266:Y O *C 45.53 8.13 *L 0 *D INVX1
*I *1794:A0 I *C 40.16 11.25 *L 0.000212 *D AOI211XL

*CAP
1 *1266:Y 1.81783e-05
2 *1794:A0 8.18381e-05
3 *674:3 0.000220179
4 *674:4 0.000258982188
5 *674:5 0.000138819

*RES
1 *1794:A0 *674:5 10.8675957
2 *674:4 *674:3 10.811
3 *674:5 *674:4 4.48726
4 *1265:A *674:4 3.29994
5 *674:3 *1266:Y 3.71484
*END

*D_NET *675 0.000309944

*CONN
*I *1266:A I *C 45.3 7.505 *L 0.000395 *D INVX1
*I *2104:Y O *C 49.34 7.405 *L 0 *D NAND2XL

*CAP
1 *1266:A 1.47819e-05
2 *2104:Y 0.00014019
3 *675:2 0.00015497208

*RES
1 *675:2 *2104:Y 9.88924503
2 *1266:A *675:2 6.77818
*END

*D_NET *676 0.00327706

*CONN
*I *2258:AN I *C 46.7 16.245 *L 0.00021 *D NAND2BX1
*I *2103:Y O *C 50.95 12.74 *L 0 *D OR2X1
*I *1967:A I *C 47.1 16.245 *L 0.00039 *D NAND2X1
*I *1897:A1 I *C 48.9 31.635 *L 0.000391 *D OAI22X1
*I *1893:A1 I *C 45.9 31.635 *L 0.000391 *D OAI22X1
*I *1874:A1 I *C 52.225 31.89 *L 0.000391 *D OAI221X1
*I *1873:A1 I *C 50.425 31.89 *L 0.000391 *D OAI221X1
*I *1872:A1 I *C 49.425 29.67 *L 0.000391 *D OAI221X1
*I *1871:A1 I *C 46.425 33.09 *L 0.000391 *D OAI221X1
*I *1869:A1 I *C 51.025 25.05 *L 0.000391 *D OAI221X1
*I *1829:A0 I *C 48.025 14.4 *L 0.000391 *D OAI21X1

*CAP
1 *1874:A1 9.50679e-05
2 *1869:A1 3.0635e-05
3 *2103:Y 4.86365e-05
4 *1873:A1 2.1815e-05
5 *1872:A1 7.01533e-05
6 *1897:A1 2.13361e-05
7 *1829:A0 8.64829e-05
8 *2258:AN 1.57332e-05
9 *1871:A1 5.96615e-05
10 *1893:A1 6.49751e-06
11 *676:11 5.59112e-05
12 *676:12 0.000140849
13 *676:13 0.000592231758
14 *676:14 0.000340636
15 *676:15 9.85833e-05
16 *676:16 0.000144247
17 *676:17 0.000566603
18 *676:18 0.000186142
19 *676:19 0.0001536
20 *676:20 0.000178397
21 *1874:A1 *1874:B1 0.000164151191
22 *1874:A1 *714:8 0.000199675566

*RES
1 *676:20 *676:19 5.89916
2 *1893:A1 *676:20 3.43145
3 *1871:A1 *676:20 4.5877
4 *2258:AN *676:18 3.49326
5 *676:18 *676:17 10.1952
6 *1967:A *676:18 3.29986
7 *1829:A0 *676:16 9.07295
8 *676:19 *676:15 0.362971
9 *1897:A1 *676:19 6.82536
10 *676:14 *676:13 11.0505
11 *676:15 *676:14 4.55149
12 *1872:A1 *676:14 10.4332
13 *676:13 *676:17 14.4693851
14 *676:12 *676:15 0.816464
15 *1873:A1 *676:12 6.80504
16 *676:11 *2103:Y 4.07857
17 *676:16 *676:11 3.35726
18 *676:17 *676:16 4.34505
19 *1869:A1 *676:13 4.06753
20 *1874:A1 *676:12 8.2938
*END

*D_NET *677 0.00264686

*CONN
*I *2070:Y O *C 39.73 8.97 *L 0 *D INVX1
*I *1902:B1 I *C 41.3 22.895 *L 0.000392 *D OAI22X1
*I *1901:B1 I *C 39.3 22.895 *L 0.00021 *D OA22X1
*I *1896:B1 I *C 38.9 26.315 *L 0.000392 *D OAI22X1
*I *1892:B1 I *C 39.5 28.405 *L 0.000392 *D OAI22X1
*I *1890:B1 I *C 36.7 22.895 *L 0.000392 *D OAI22X1
*I *1886:B1 I *C 36.3 21.565 *L 0.000392 *D OAI22X1
*I *1870:B1 I *C 37.5 21.375 *L 0.00039 *D OAI221X1
*I *1803:C0 I *C 40.1 13.205 *L 0.000392 *D OAI222X1

*CAP
1 *1902:B1 7.06308e-05
2 *1803:C0 3.29006e-05
3 *2070:Y 2.62281e-05
4 *1892:B1 0.000118495
5 *1896:B1 2.07419e-05
6 *1870:B1 5.15581e-05
7 *1886:B1 5.48371e-05
8 *677:9 0.000104366
9 *677:10 0.00024736
10 *677:11 0.000148235
11 *677:12 0.000277638438
12 *677:13 9.38764e-05
13 *677:14 0.000118732
14 *677:15 0.000244856
15 *677:16 8.14804e-05
16 *677:17 8.37427e-05
17 *677:18 0.000105679
18 *677:19 7.6295e-05
19 *1892:B1 *1884:B1 8.16583643e-05
20 *677:12 *1803:B0 0.000282645234
21 *677:10 *928:4 0.000129520889
22 *1902:B1 *1860:A1 0.000195384023

*RES
1 *1886:B1 *677:19 4.623
2 *1890:B1 *677:19 3.29994
3 *677:19 *677:18 3.60664
4 *677:18 *677:17 1.68577
5 *1870:B1 *677:16 4.1999
6 *677:16 *677:18 3.77294
7 *1896:B1 *677:15 3.69312
8 *677:15 *677:14 2.46056
9 *677:14 *677:17 3.43754
10 *677:17 *677:13 0.21164
11 *1901:B1 *677:14 3.29994
12 *1892:B1 *677:15 5.68121
13 *677:12 *677:11 7.14133
14 *677:13 *677:10 3.35719
15 *677:10 *677:12 8.42115
16 *677:9 *2070:Y 3.90563
17 *677:11 *677:9 1.63273
18 *1803:C0 *677:11 4.07859
19 *1902:B1 *677:13 11.4723444
*END

*D_NET *678 0.00100887

*CONN
*I *2102:Y O *C 49.715 10.99 *L 0 *D NOR2X1
*I *2070:A I *C 39.5 9.595 *L 0.000395 *D INVX1
*I *1820:A0 I *C 38.7 10.735 *L 0.000391 *D AOI21X1
*I *1789:B0 I *C 47.5 10.925 *L 0.00039 *D AOI221X1

*CAP
1 *2102:Y 2.32484e-05
2 *1789:B0 4.4405e-05
3 *2070:A 2.78346e-05
4 *1820:A0 3.08165e-05
5 *678:4 9.29824e-05
6 *678:5 0.000371515742
7 *678:6 0.000316022
8 *678:6 *1806:B0 0.000102043154

*RES
1 *1820:A0 *678:6 4.01103
2 *678:6 *678:5 10.2778673
3 *2070:A *678:6 4.10042
4 *678:5 *678:4 4.85115
5 *1789:B0 *678:5 7.08517
6 *678:4 *2102:Y 3.64766
*END

*D_NET *679 0.00330329

*CONN
*I *2101:Y O *C 50.15 12.74 *L 0 *D OR2X1
*I *1967:B I *C 47.3 16.625 *L 0.000392 *D NAND2X1
*I *1903:B1 I *C 47.3 24.985 *L 0.000392 *D OAI22X1
*I *1897:B1 I *C 49.3 31.825 *L 0.000392 *D OAI22X1
*I *1894:B1 I *C 47.5 28.405 *L 0.000392 *D OAI22X1
*I *1874:B1 I *C 52.5 31.635 *L 0.00039 *D OAI221X1
*I *1873:B1 I *C 50.7 31.635 *L 0.00039 *D OAI221X1
*I *1872:B1 I *C 49.7 29.925 *L 0.00039 *D OAI221X1
*I *1869:B1 I *C 51.3 24.795 *L 0.00039 *D OAI221X1
*I *1829:B0 I *C 48.395 14.71 *L 0.000393 *D OAI21X1

*CAP
1 *1874:B1 8.82161e-05
2 *1869:B1 4.06492e-05
3 *1873:B1 3.96369e-05
4 *2101:Y 4.19601e-05
5 *1872:B1 9.35763e-05
6 *1897:B1 2.35433e-05
7 *1894:B1 0.000108839
8 *1967:B 5.6029e-05
9 *1903:B1 3.83261e-05
10 *679:10 0.000251533
11 *679:11 0.000176848
12 *679:12 0.000137451
13 *679:13 0.000148476
14 *679:14 0.000110689
15 *679:15 0.000147107
16 *679:16 0.000418245
17 *679:17 0.000425279141
18 *679:18 0.000182987
19 *679:16 *1774:B 0.000118374824
20 *1897:B1 *725:8 0.00012469292
21 *679:12 *1096:11 0.000103116035
22 *1869:B1 *1856:A2 0.000107765195
23 *1874:B1 *1874:A1 0.000164151191
24 *1874:B1 *934:5 0.000155806543

*RES
1 *1903:B1 *679:18 4.08619
2 *1967:B *679:17 7.60497
3 *1894:B1 *679:18 5.15309
4 *679:18 *679:16 4.3096
5 *679:15 *679:14 8.44721
6 *679:17 *679:15 4.96354
7 *679:16 *679:17 13.6964321
8 *1829:B0 *679:15 6.59993
9 *1897:B1 *679:13 7.21667
10 *1872:B1 *679:13 8.69256
11 *679:13 *679:12 0.747561
12 *679:14 *2101:Y 4.1445
13 *1873:B1 *679:11 10.2916
14 *679:10 *679:16 2.43412
15 *679:11 *679:10 8.14229
16 *679:12 *679:11 3.68974
17 *1869:B1 *679:10 7.2662
18 *1874:B1 *679:12 8.33916
*END

*D_NET *680 0.000305653

*CONN
*I *1288:A I *C 47.3 7.695 *L 0.00021 *D BUFX2
*I *2100:Y O *C 49.755 9.36 *L 0 *D NAND2X1

*CAP
1 *2100:Y 9.56649e-05
2 *1288:A 4.83997e-05
3 *680:2 0.000104427334
4 *680:3 5.71606e-05

*RES
1 *1288:A *680:3 4.2803
2 *680:3 *680:2 3.35712
3 *680:2 *2100:Y 8.5285902
*END

*D_NET *681 0.000876784

*CONN
*I *2099:Y O *C 56.38 31.89 *L 0 *D AOI21X1
*I *1877:D I *C 53.54 30.0025 *L 0.000212 *D NAND4XL
*I *1874:B0 I *C 52.7 31.635 *L 0.00039 *D OAI221X1
*I *1744:B0 I *C 51.9 29.925 *L 0.000392 *D OAI22X1
*I *1676:B0 I *C 54.5 29.925 *L 0.000212 *D AOI21XL

*CAP
1 *2099:Y 4.05914e-05
2 *1676:B0 2.28883e-05
3 *1877:D 2.1994e-05
4 *1874:B0 0.000109375
5 *1744:B0 2.27699e-05
6 *681:5 0.000168146
7 *681:6 0.000194072715
8 *681:7 0.000115215
9 *681:8 0.000181736

*RES
1 *1744:B0 *681:8 3.83214
2 *681:8 *681:7 4.08374
3 *1874:B0 *681:8 4.97211
4 *681:7 *681:6 0.816504
5 *1877:D *681:7 6.80428
6 *681:6 *681:5 5.22051
7 *1676:B0 *681:6 6.80505
8 *681:5 *2099:Y 7.2350502
*END

*D_NET *682 0.00219011

*CONN
*I *2098:Y O *C 46.18 48.99 *L 0 *D AOI21X1
*I *1885:B0 I *C 49.3 35.245 *L 0.000211 *D OA22X1
*I *1853:C I *C 45.35 39.94 *L 0.000389 *D NAND4BX1
*I *1742:B0 I *C 46.7 35.055 *L 0.000392 *D OAI22X1
*I *1672:B0 I *C 48.1 48.735 *L 0.000212 *D AOI21XL

*CAP
1 *1885:B0 6.8532e-06
2 *1672:B0 4.99491e-05
3 *1742:B0 0.000102283
4 *2098:Y 2.2765e-05
5 *1853:C 8.01718e-05
6 *682:5 0.000329795
7 *682:6 0.000307201
8 *682:7 0.000535309297
9 *1742:B0 *1888:A1 0.000125288965
10 *1742:B0 *1895:A0 0.000173091895
11 *1742:B0 *1885:A0 9.58442676e-05
12 *682:5 *1899:B0 0.000153899189
13 *1672:B0 *1092:14 0.000124096875
14 *1672:B0 *99:14 8.35657129e-05

*RES
1 *1853:C *682:7 7.73024
2 *682:7 *682:6 14.9314404
3 *682:6 *2098:Y 6.805
4 *1742:B0 *682:5 12.286
5 *1672:B0 *682:6 8.44496
6 *1885:B0 *682:5 3.43143
7 *682:5 *682:7 8.86053
*END

*D_NET *683 0.00145757

*CONN
*I *2097:Y O *C 29.38 39.93 *L 0 *D AOI21X1
*I *1898:A0 I *C 40.7 34.865 *L 0.000212 *D OA22X1
*I *1882:D I *C 34.74 34.9775 *L 0.000212 *D NAND4XL
*I *1733:A0 I *C 40.7 33.345 *L 0.000392 *D OAI221X1
*I *1645:B0 I *C 30.7 36.765 *L 0.000212 *D AOI21XL

*CAP
1 *1733:A0 3.62995e-05
2 *1898:A0 8.40384e-06
3 *1882:D 3.7847e-05
4 *2097:Y 0.000113427
5 *683:5 0.000235618
6 *683:6 0.000299155703
7 *683:7 4.62554e-05
8 *683:8 0.000139592
9 *683:9 0.000153182
10 *683:6 *1079:13 8.44001758e-05
11 *1882:D *1882:C 9.20295703e-05
12 *683:5 *486:3 0.000114560127
13 *1733:A0 *689:8 9.67979395e-05

*RES
1 *683:9 *2097:Y 8.90367
2 *683:8 *683:9 1.21639
3 *1645:B0 *683:8 0.499951
4 *683:7 *683:6 3.35716
5 *683:6 *683:8 9.97710228
6 *1882:D *683:7 4.15368
7 *683:5 *683:6 8.90961
8 *1898:A0 *683:5 3.35716
9 *1733:A0 *683:5 4.43136
*END

*D_NET *684 0.00146437

*CONN
*I *2096:Y O *C 27.98 39.93 *L 0 *D AOI21X1
*I *1900:A0 I *C 37.745 35.285 *L 0.000392 *D OAI22X1
*I *1882:C I *C 34.54 34.9775 *L 0.000211 *D NAND4XL
*I *1753:A0 I *C 37.945 33.115 *L 0.000392 *D OAI22X1
*I *1631:B0 I *C 28.7 36.765 *L 0.000212 *D AOI21XL

*CAP
1 *1753:A0 0.000109017
2 *1882:C 2.70634e-05
3 *1631:B0 3.39129e-05
4 *2096:Y 0.000111461
5 *684:5 0.000195024
6 *684:6 0.000381413
7 *684:7 0.00041371582
8 *1882:C *1882:D 9.20295703e-05
9 *1753:A0 *1753:B0 0.000100731846

*RES
1 *684:7 *2096:Y 5.55701
2 *1631:B0 *684:7 4.0883
3 *684:6 *684:7 9.77885723
4 *1882:C *684:6 6.8404
5 *684:5 *684:6 5.67787
6 *1900:A0 *684:5 3.30001
7 *1753:A0 *684:5 4.88048
*END

*D_NET *685 0.001423

*CONN
*I *2095:Y O *C 35.98 39.93 *L 0 *D AOI21X1
*I *1898:B0 I *C 41.5 35.245 *L 0.000211 *D OA22X1
*I *1883:D I *C 36.54 34.9775 *L 0.000212 *D NAND4XL
*I *1733:B0 I *C 41.5 33.345 *L 0.00039 *D OAI221X1
*I *1660:B0 I *C 34.9 36.765 *L 0.000212 *D AOI21XL

*CAP
1 *1733:B0 3.61232e-05
2 *1898:B0 6.28253e-05
3 *2095:Y 5.04263e-05
4 *1660:B0 8.47007e-05
5 *685:5 0.00031918
6 *685:6 0.000362753867
7 *685:7 0.000277638
8 *685:6 *1121:2 8.8691709e-05
9 *685:5 *695:5 0.000140666963

*RES
1 *1660:B0 *685:7 5.25444
2 *685:7 *2095:Y 4.40791
3 *685:6 *685:7 9.48946
4 *1883:D *685:6 3.30004
5 *1898:B0 *685:5 4.50958
6 *1733:B0 *685:5 3.64764
7 *685:5 *685:6 11.8771791
*END

*D_NET *686 0.00257266

*CONN
*I *2094:Y O *C 28.865 52.32 *L 0 *D AOI21X2
*I *1904:A0 I *C 36.7 30.115 *L 0.000212 *D OA22X1
*I *1850:B I *C 34.5 31.635 *L 0.000211 *D NAND3BXL
*I *1741:A0 I *C 35.145 29.695 *L 0.000392 *D OAI22X1
*I *1633:B0 I *C 29.9 48.735 *L 0.000212 *D AOI21XL

*CAP
1 *1904:A0 0.000103952
2 *1633:B0 3.20643e-05
3 *2094:Y 3.73107e-05
4 *686:5 0.000556349766
5 *686:6 0.000201342
6 *686:7 0.000294564
7 *686:8 0.000145193
8 *686:9 9.49534e-05
9 *686:10 0.000409781
10 *686:7 *687:6 0.00014793873
11 *686:5 *88:28 9.41753e-06
12 *686:5 *88:31 2.3663e-05
13 *686:5 *88:36 7.52807e-05
14 *686:5 *1574:CK 4.12464254e-05
15 *686:5 *1096:18 0.000112771992
16 *686:5 *703:5 0.000286817559

*RES
1 *686:10 *2094:Y 4.14432
2 *686:9 *686:10 4.78293
3 *1633:B0 *686:9 0.976904
4 *1850:B *686:8 3.2999
5 *686:8 *686:7 7.61362
6 *1741:A0 *686:6 3.2999
7 *686:6 *686:8 1.89751
8 *686:7 *686:5 9.31319
9 *686:5 *686:10 17.1595802
10 *1904:A0 *686:6 11.7818
*END

*D_NET *687 0.0021714

*CONN
*I *2093:Y O *C 31.98 46.77 *L 0 *D AOI21X1
*I *1887:A0 I *C 39.345 35.285 *L 0.000392 *D OAI22X1
*I *1850:C I *C 34.365 31.51 *L 0.000212 *D NAND3BXL
*I *1759:A0 I *C 39.145 33.115 *L 0.000392 *D OAI22X1
*I *1643:B0 I *C 34.5 43.605 *L 0.000212 *D AOI21XL

*CAP
1 *1887:A0 7.39665e-05
2 *1759:A0 8.46799e-06
3 *1643:B0 3.32017e-05
4 *1850:C 9.38182e-05
5 *2093:Y 0.000158546
6 *687:5 0.000264709
7 *687:6 0.000732123828
8 *687:7 0.000620007
9 *687:8 3.86199e-05
10 *687:6 *686:7 0.00014793873

*RES
1 *687:8 *687:7 3.33634
2 *687:7 *2093:Y 10.8774
3 *1850:C *687:6 5.11485
4 *1643:B0 *687:8 0.976634
5 *687:6 *687:7 24.0619183
6 *1759:A0 *687:5 3.35727
7 *687:5 *687:6 10.0803
8 *1887:A0 *687:5 4.80093
*END

*D_NET *688 0.000892997

*CONN
*I *2092:Y O *C 32.78 35.31 *L 0 *D AOI21X1
*I *1900:B0 I *C 38.5 35.055 *L 0.000392 *D OAI22X1
*I *1883:C I *C 36.34 34.9775 *L 0.000211 *D NAND4XL
*I *1753:B0 I *C 38.7 33.345 *L 0.000392 *D OAI22X1
*I *1671:B0 I *C 34.4 33.54 *L 0.000392 *D AOI21X1

*CAP
1 *1753:B0 4.94701e-05
2 *1900:B0 1.5736e-05
3 *1883:C 1.53765e-05
4 *2092:Y 9.96593e-05
5 *1671:B0 7.5577e-05
6 *688:5 6.27627e-05
7 *688:6 0.000102522
8 *688:7 0.000142396
9 *688:8 0.000228762617
10 *1753:B0 *1753:A0 0.000100731846

*RES
1 *1671:B0 *688:8 7.74191
2 *688:8 *2092:Y 8.42225552
3 *688:7 *688:8 1.42123
4 *1883:C *688:7 6.7715
5 *688:6 *688:7 5.05996
6 *1900:B0 *688:6 3.54607
7 *688:5 *688:6 0.306119
8 *1753:B0 *688:5 4.22231
*END

*D_NET *689 0.00141621

*CONN
*I *2091:Y O *C 40.78 38.73 *L 0 *D AOI21X1
*I *1893:B0 I *C 46.5 31.635 *L 0.000392 *D OAI22X1
*I *1852:B I *C 38.9 31.445 *L 0.000392 *D NAND2BX1
*I *1748:B0 I *C 40.9 31.635 *L 0.000392 *D OAI22X1
*I *1646:B0 I *C 40.6 36.96 *L 0.000392 *D AOI21X1

*CAP
1 *1893:B0 0.000218332
2 *1748:B0 2.15158e-05
3 *2091:Y 5.62051e-05
4 *1646:B0 1.03108e-05
5 *1852:B 9.20298e-05
6 *689:5 0.000262556
7 *689:6 6.30614e-05
8 *689:7 0.000189723
9 *689:8 0.000287294395
10 *689:8 *1733:A0 9.67979395e-05
11 *1893:B0 *1036:2 0.000118374824

*RES
1 *1852:B *689:8 8.19085
2 *689:8 *689:7 7.16521
3 *689:7 *689:6 0.121019
4 *1646:B0 *689:7 3.40208
5 *689:6 *2091:Y 4.34369
6 *689:5 *689:8 0.434644
7 *1748:B0 *689:5 6.8146
8 *1893:B0 *689:5 11.9986534
*END

*D_NET *690 0.00109172

*CONN
*I *2090:Y O *C 36.98 14.79 *L 0 *D AOI21X1
*I *1890:B0 I *C 36.9 23.085 *L 0.000392 *D OAI22X1
*I *1878:D I *C 35.74 19.7425 *L 0.000212 *D NAND4XL
*I *1743:B0 I *C 36.7 24.795 *L 0.000392 *D OAI22X1
*I *1661:B0 I *C 37.1 17.955 *L 0.000212 *D AOI21XL

*CAP
1 *1661:B0 3.08762e-05
2 *1890:B0 8.58258e-06
3 *1743:B0 7.82591e-05
4 *2090:Y 3.91615e-05
5 *1878:D 2.11009e-05
6 *690:5 0.000246584414
7 *690:6 0.000196575
8 *690:7 0.000208138
9 *690:8 5.1439e-05
10 *690:9 0.000211001

*RES
1 *1878:D *690:9 3.6439
2 *690:8 *690:7 3.6793
3 *690:7 *690:6 13.0338669
4 *690:9 *690:7 0.699266
5 *690:6 *2090:Y 7.16787
6 *1743:B0 *690:5 4.90083
7 *690:5 *690:9 3.39788
8 *1890:B0 *690:5 3.35453
9 *1661:B0 *690:8 0.976705
*END

*D_NET *691 0.00134265

*CONN
*I *2089:Y O *C 29.78 22.83 *L 0 *D AOI21X1
*I *1901:A0 I *C 38.9 23.275 *L 0.000212 *D OA22X1
*I *1880:C I *C 35.9 27.075 *L 0.00039 *D NAND4X1
*I *1755:A0 I *C 37.945 25.025 *L 0.000392 *D OAI22X1
*I *1625:B0 I *C 31.9 24.795 *L 0.000212 *D AOI21XL

*CAP
1 *1901:A0 7.76058e-05
2 *1755:A0 4.071e-05
3 *1880:C 0.000133694
4 *1625:B0 4.42865e-05
5 *2089:Y 4.02926e-05
6 *691:5 0.000199851
7 *691:6 0.000420808789
8 *691:7 9.19121e-05
9 *691:8 0.000293491

*RES
1 *691:8 *2089:Y 4.37555
2 *691:7 *691:8 4.26012
3 *1625:B0 *691:7 1.43751
4 *691:6 *691:8 7.91746
5 *1880:C *691:6 8.9212656
6 *691:5 *691:6 1.72351
7 *1755:A0 *691:5 7.19054
8 *1901:A0 *691:5 7.99655
*END

*D_NET *692 0.00338203

*CONN
*I *2088:Y O *C 53.265 59.16 *L 0 *D AOI21X2
*I *1891:A0 I *C 49.9 34.865 *L 0.000212 *D OA22X1
*I *1866:B I *C 44.7 43.605 *L 0.000211 *D NAND3BXL
*I *1746:A0 I *C 44.745 36.535 *L 0.000392 *D OAI22X1
*I *1636:B0 I *C 51.7 48.735 *L 0.000212 *D AOI21XL

*CAP
1 *2088:Y 3.11114e-05
2 *1636:B0 3.24839e-05
3 *1891:A0 3.8568e-05
4 *1746:A0 0.00034827
5 *1866:B 3.75556e-05
6 *692:5 0.000381231
7 *692:6 0.000567977
8 *692:7 0.00022399
9 *692:8 0.000255647
10 *692:9 0.000444408
11 *692:10 0.000637948516
12 *692:10 *90:25 8.52346e-06
13 *692:10 *1562:CK 4.54187e-05
14 *692:10 *1592:CK 7.15256e-07
15 *692:10 *90:28 2.26498e-05
16 *692:10 *1524:CK 1.78814e-07
17 *1746:A0 *90:28 2.21133341e-05
18 *692:8 *1891:B0 0.000172257422
19 *692:7 *105:9 0.000110983848

*RES
1 *1866:B *692:10 7.20468
2 *1746:A0 *692:10 20.6209
3 *692:10 *692:9 13.0009
4 *1891:A0 *692:8 10.373
5 *692:8 *692:7 7.80113
6 *692:9 *692:6 6.93762
7 *692:7 *692:9 3.35726
8 *692:6 *692:5 21.5011826
9 *1636:B0 *692:6 3.728
10 *692:5 *2088:Y 3.89729
*END

*D_NET *693 0.00152314

*CONN
*I *2087:Y O *C 23.78 31.89 *L 0 *D AOI21X1
*I *1889:B0 I *C 37.9 31.635 *L 0.000392 *D OAI22X1
*I *1857:D I *C 36.3 33.535 *L 0.000392 *D NAND4BX1
*I *1745:B0 I *C 36.5 31.635 *L 0.000392 *D OAI22X1
*I *1670:B0 I *C 26.7 31.635 *L 0.000212 *D AOI21XL

*CAP
1 *1889:B0 0.000107766
2 *1745:B0 4.56579e-05
3 *1857:D 2.89077e-05
4 *2087:Y 7.43854e-05
5 *1670:B0 4.16654e-05
6 *693:5 0.000389458
7 *693:6 7.88582e-05
8 *693:7 0.000393450273
9 *693:5 *2035:A0 0.000178813926
10 *693:5 *1582:D 0.000184178359

*RES
1 *1670:B0 *693:7 13.8349
2 *693:7 *2087:Y 15.8760548
3 *693:6 *693:5 3.33626
4 *693:5 *693:7 7.7561
5 *1857:D *693:6 3.72798
6 *1745:B0 *693:6 4.09765
7 *1889:B0 *693:5 8.45014
*END

*D_NET *694 0.00175095

*CONN
*I *2086:Y O *C 42.78 53.61 *L 0 *D AOI21X1
*I *1876:D I *C 42.94 43.6825 *L 0.000212 *D NAND4XL
*I *1875:A0 I *C 41.7 36.765 *L 0.000392 *D OAI221X1
*I *1750:A0 I *C 43.145 36.535 *L 0.000392 *D OAI22X1
*I *1640:B0 I *C 43.3 50.445 *L 0.000212 *D AOI21XL

*CAP
1 *1640:B0 2.9687e-05
2 *1750:A0 5.75749e-05
3 *2086:Y 7.45633e-05
4 *1875:A0 7.379e-05
5 *694:5 0.000116289
6 *694:6 0.000298563
7 *694:7 0.000533461563
8 *694:8 0.000437677
9 *1640:B0 *2175:A 0.00012934208

*RES
1 *1875:A0 *694:8 7.73996
2 *694:8 *694:7 16.5442238
3 *694:6 *694:5 0.76718
4 *694:5 *2086:Y 5.06177
5 *694:7 *694:6 5.79058
6 *1876:D *694:7 3.29996
7 *1750:A0 *694:8 7.43955
8 *1640:B0 *694:6 4.06739
*END

*D_NET *695 0.00151348

*CONN
*I *2085:Y O *C 36.38 45.57 *L 0 *D AOI21X1
*I *1887:B0 I *C 40.1 35.055 *L 0.000392 *D OAI22X1
*I *1857:C I *C 36.55 33.1 *L 0.000389 *D NAND4BX1
*I *1759:B0 I *C 39.9 33.345 *L 0.000392 *D OAI22X1
*I *1668:B0 I *C 35.3 45.315 *L 0.000212 *D AOI21XL

*CAP
1 *1887:B0 6.89646e-05
2 *1759:B0 2.34864e-05
3 *1857:C 2.80117e-05
4 *2085:Y 8.64133e-06
5 *1668:B0 6.82469e-05
6 *695:5 0.00018078
7 *695:6 0.000388681875
8 *695:7 0.00037271
9 *695:8 0.000128386
10 *695:9 0.000104906
11 *695:5 *685:5 0.000140666963

*RES
1 *1668:B0 *695:9 4.73256
2 *695:9 *2085:Y 3.35717
3 *695:8 *695:7 3.44136
4 *695:7 *695:6 9.02998447
5 *695:6 *695:9 6.92598
6 *1857:C *695:8 6.99846
7 *695:5 *695:8 5.88817
8 *1759:B0 *695:5 3.68979
9 *1887:B0 *695:5 4.38478
*END

*D_NET *696 0.000966907

*CONN
*I *2084:Y O *C 32.58 21.63 *L 0 *D AOI21X1
*I *1870:A0 I *C 36.9 21.375 *L 0.000392 *D OAI221X1
*I *1843:B I *C 34.74 21.44 *L 0.000787 *D NAND3BX2
*I *1739:A0 I *C 37.745 22.855 *L 0.000392 *D OAI22X1
*I *1626:B0 I *C 34.3 23.085 *L 0.000212 *D AOI21XL

*CAP
1 *1739:A0 8.23736e-05
2 *1870:A0 0.000110447
3 *1843:B 6.87855e-05
4 *2084:Y 0.000110983
5 *696:5 0.00028550625
6 *696:6 0.000179647
7 *696:7 0.000129163

*RES
1 *696:7 *2084:Y 9.02547
2 *1626:B0 *696:7 0.500138
3 *1843:B *696:6 4.40788
4 *696:6 *696:7 3.63301
5 *696:5 *696:6 5.15641
6 *1870:A0 *696:5 18.3727741
7 *1739:A0 *696:5 7.92371
*END

*D_NET *697 0.00130212

*CONN
*I *2083:Y O *C 48.18 38.73 *L 0 *D AOI21X1
*I *1897:A0 I *C 48.745 31.865 *L 0.000392 *D OAI22X1
*I *1879:D I *C 53.54 34.9775 *L 0.000212 *D NAND4XL
*I *1752:A0 I *C 48.3 33.535 *L 0.000212 *D OA22X1
*I *1650:B0 I *C 49.9 38.475 *L 0.000212 *D AOI21XL

*CAP
1 *1879:D 0.000191809
2 *1650:B0 3.94553e-05
3 *2083:Y 2.66424e-05
4 *1897:A0 8.89899e-05
5 *697:5 0.000257671
6 *697:6 5.25702e-05
7 *697:7 0.000482857227
8 *697:8 0.000162124

*RES
1 *697:8 *697:7 4.61417
2 *1752:A0 *697:8 3.30005
3 *1897:A0 *697:8 5.25909
4 *697:6 *697:5 3.40198
5 *697:5 *2083:Y 3.83873
6 *697:7 *697:5 14.0930414
7 *1650:B0 *697:6 1.14876
8 *1879:D *697:7 10.4302
*END

*D_NET *698 0.00258708

*CONN
*I *2082:Y O *C 51.865 55.74 *L 0 *D AOI21X2
*I *1895:A0 I *C 47.145 35.285 *L 0.000392 *D OAI22X1
*I *1866:C I *C 44.565 43.73 *L 0.000212 *D NAND3BXL
*I *1734:A0 I *C 44.345 35.285 *L 0.000392 *D OAI22X1
*I *1639:B0 I *C 51.4 50.64 *L 0.000392 *D AOI21X1

*CAP
1 *2082:Y 5.06054e-05
2 *1639:B0 4.03554e-05
3 *1895:A0 6.45477e-05
4 *1866:C 6.70558e-05
5 *1734:A0 7.76628e-05
6 *698:5 0.000211243
7 *698:6 0.000464853
8 *698:7 0.000570714492
9 *698:8 0.000382009
10 *698:8 *117:15 0.000104069707
11 *698:6 *1639:A0 0.000154137607
12 *1895:A0 *1742:B0 0.000173091895
13 *1895:A0 *1885:A0 0.000102877617
14 *1639:B0 *1096:9 0.000123858447

*RES
1 *1734:A0 *698:8 7.86801
2 *1866:C *698:7 10.8516
3 *698:7 *698:6 12.7083
4 *698:8 *698:7 10.4026
5 *1895:A0 *698:8 7.90066
6 *698:6 *698:5 13.7166977
7 *1639:B0 *698:6 7.3209
8 *698:5 *2082:Y 3.92584
*END

*D_NET *699 0.00181139

*CONN
*I *2081:Y O *C 24.98 35.31 *L 0 *D AOI21X1
*I *1904:B0 I *C 37.5 29.735 *L 0.000211 *D OA22X1
*I *1857:B I *C 36.74 33.28 *L 0.000392 *D NAND4BX1
*I *1741:B0 I *C 35.9 29.925 *L 0.000392 *D OAI22X1
*I *1669:B0 I *C 27.1 33.345 *L 0.000212 *D AOI21XL

*CAP
1 *1904:B0 4.43427e-05
2 *1857:B 6.04398e-05
3 *1741:B0 6.56812e-05
4 *2081:Y 0.000110924
5 *1669:B0 4.33909e-05
6 *699:5 0.000114796
7 *699:6 0.000421464453
8 *699:7 0.000247477
9 *699:8 0.000403998
10 *699:6 *1882:A 0.000174403184
11 *699:5 *718:5 0.000124454502

*RES
1 *1669:B0 *699:8 7.22579
2 *699:8 *2081:Y 8.74942
3 *1741:B0 *699:7 7.64973
4 *699:7 *699:6 9.12725925
5 *699:6 *699:8 7.56088
6 *1857:B *699:6 7.88399
7 *1904:B0 *699:5 4.22228
8 *699:5 *699:7 4.41921
*END

*D_NET *700 0.00165719

*CONN
*I *2080:Y O *C 50.58 48.99 *L 0 *D AOI21X1
*I *1888:B0 I *C 50.5 36.575 *L 0.000211 *D OA22X1
*I *1881:C I *C 45.94 38.3975 *L 0.000211 *D NAND4XL
*I *1758:B0 I *C 47.1 36.765 *L 0.000392 *D OAI22X1
*I *1662:B0 I *C 50.7 47.025 *L 0.000212 *D AOI21XL

*CAP
1 *2080:Y 1.99693e-05
2 *1881:C 0.000114562
3 *700:5 7.44443e-05
4 *700:6 0.000449659
5 *700:7 0.000534594063
6 *700:8 0.000253972
7 *700:8 *741:7 0.00011307001
8 *700:8 *117:10 9.69171484e-05

*RES
1 *1881:C *700:8 12.0842457
2 *700:8 *700:7 10.4063
3 *1758:B0 *700:8 3.29986
4 *1888:B0 *700:7 3.29986
5 *700:7 *700:6 8.57252
6 *700:5 *2080:Y 3.62549
7 *1662:B0 *700:6 3.29986
8 *700:6 *700:5 0.990179
*END

*D_NET *701 0.00254321

*CONN
*I *2079:Y O *C 56.265 53.7 *L 0 *D AOI21X2
*I *1891:B0 I *C 50.7 35.245 *L 0.000211 *D OA22X1
*I *1881:D I *C 46.14 38.3975 *L 0.000212 *D NAND4XL
*I *1746:B0 I *C 45.5 36.765 *L 0.000392 *D OAI22X1
*I *1663:B0 I *C 55.5 48.735 *L 0.000212 *D AOI21XL

*CAP
1 *2079:Y 0.000156577
2 *1663:B0 1.43624e-05
3 *1891:B0 0.000157061
4 *1881:D 2.74215e-05
5 *1746:B0 6.16322e-05
6 *701:5 0.000189423
7 *701:6 0.000283839
8 *701:7 0.000577092187
9 *701:8 0.000348333
10 *701:9 0.000315549
11 *701:10 0.000239669
12 *1891:B0 *692:8 0.000172257422

*RES
1 *1746:B0 *701:10 4.66045
2 *701:10 *701:9 6.35246
3 *1881:D *701:10 3.71206
4 *701:9 *701:8 3.34679
5 *701:8 *701:7 9.14682
6 *701:7 *701:6 8.27062
7 *1891:B0 *701:9 16.4864063
8 *1663:B0 *701:6 6.78867
9 *701:6 *701:5 3.86073
10 *701:5 *2079:Y 6.84955
*END

*D_NET *702 0.00181675

*CONN
*I *2078:Y O *C 43.38 57.03 *L 0 *D AOI21X1
*I *1881:B I *C 45.74 38.2875 *L 0.000212 *D NAND4XL
*I *1735:B0 I *C 43.3 38.475 *L 0.000392 *D OAI22X1
*I *1637:B0 I *C 45.1 48.735 *L 0.000212 *D AOI21XL

*CAP
1 *1881:B 9.32789e-05
2 *1637:B0 3.34367e-05
3 *2078:Y 0.000307677
4 *1735:B0 8.17203e-05
5 *702:4 0.000338315977
6 *702:5 4.17842e-05
7 *702:6 0.000329256
8 *702:7 0.000315189
9 *702:8 0.000183223
10 *702:7 *729:6 9.28640332e-05

*RES
1 *1735:B0 *702:8 7.8321
2 *702:8 *702:7 3.34683
3 *702:7 *702:6 8.45634
4 *702:5 *702:4 3.34683
5 *702:4 *2078:Y 9.82475281
6 *702:6 *702:4 6.80504
7 *1637:B0 *702:5 0.976839
8 *1881:B *702:8 8.33911
*END

*D_NET *703 0.00183213

*CONN
*I *2077:Y O *C 34.18 52.41 *L 0 *D AOI21X1
*I *1882:B I *C 34.34 34.8675 *L 0.000212 *D NAND4XL
*I *1738:A0 I *C 34.745 28.445 *L 0.000392 *D OAI22X1
*I *1642:B0 I *C 34.5 48.735 *L 0.000212 *D AOI21XL

*CAP
1 *1738:A0 0.00019044
2 *2077:Y 0.000106153
3 *1642:B0 9.89842e-06
4 *1882:B 5.65052e-05
5 *703:4 0.000404772
6 *703:5 0.000535666953
7 *703:5 *1667:A0 0.000241875645
8 *703:5 *686:5 0.000286817559

*RES
1 *1882:B *703:5 10.6478
2 *1642:B0 *703:4 3.50404
3 *703:4 *2077:Y 5.82681
4 *1738:A0 *703:5 15.4314
5 *703:5 *703:4 17.3693886
*END

*D_NET *704 0.00227129

*CONN
*I *2076:Y O *C 41.38 57.03 *L 0 *D AOI21X1
*I *1884:A0 I *C 40.1 30.115 *L 0.000212 *D OA22X1
*I *1876:A I *C 42.3 43.985 *L 0.000212 *D NAND4XL
*I *1634:B0 I *C 42.1 50.445 *L 0.000212 *D AOI21XL

*CAP
1 *1876:A 3.45706e-05
2 *1634:B0 3.88019e-05
3 *2076:Y 0.000100972
4 *1884:A0 9.45954e-05
5 *704:4 0.000432610508
6 *704:5 0.000361086
7 *704:6 0.000214876
8 *704:7 0.000341296
9 *704:8 4.29739e-05
10 *704:9 0.00042391
11 *704:5 *707:6 8.57114746e-05
12 *704:5 *1115:2 9.98973828e-05

*RES
1 *1884:A0 *704:9 11.5096569
2 *704:8 *704:7 3.33632
3 *704:7 *704:6 3.3602
4 *704:6 *2076:Y 5.20548
5 *704:5 *704:7 5.18194
6 *704:9 *704:4 8.31155
7 *704:4 *704:5 9.06533
8 *1634:B0 *704:8 1.22269
9 *1876:A *704:5 4.24605
*END

*D_NET *705 0.00211686

*CONN
*I *2075:Y O *C 60.98 43.35 *L 0 *D AOI21X1
*I *1879:A I *C 52.9 34.675 *L 0.000212 *D NAND4XL
*I *1871:A0 I *C 46.1 33.345 *L 0.000392 *D OAI221X1
*I *1627:B0 I *C 58.5 43.605 *L 0.000212 *D AOI21XL

*CAP
1 *1627:B0 2.65856e-05
2 *2075:Y 0.000114385
3 *1879:A 6.51452e-05
4 *1871:A0 0.000241281
5 *705:4 0.000382365
6 *705:5 0.000115931
7 *705:6 0.000533461563
8 *705:6 *341:6 9.04798535e-05
9 *705:6 *343:6 0.000148355957
10 *705:6 *428:4 0.000241279609
11 *705:6 *354:4 0.000157594678

*RES
1 *1871:A0 *705:6 19.4720039
2 *705:5 *705:6 7.4779
3 *705:6 *705:4 17.1812
4 *1879:A *705:5 7.77264
5 *705:4 *2075:Y 9.09274
6 *1627:B0 *705:4 7.06163
*END

*D_NET *706 0.00198162

*CONN
*I *2074:Y O *C 36.18 46.77 *L 0 *D AOI21X1
*I *1883:B I *C 36.14 34.8675 *L 0.000212 *D NAND4XL
*I *1736:B0 I *C 42.9 33.345 *L 0.000392 *D OAI22X1
*I *1667:B0 I *C 36.3 48.735 *L 0.000212 *D AOI21XL

*CAP
1 *1736:B0 0.000283658
2 *2074:Y 0.000441608
3 *1667:B0 8.78021e-05
4 *1883:B 6.71768e-05
5 *706:4 0.000700354609
6 *706:5 0.000130057
7 *1736:B0 *1726:C 0.000165224082
8 *1736:B0 *1010:9 0.000105738643

*RES
1 *706:5 *706:4 7.66097
2 *1883:B *706:5 4.43846
3 *1667:B0 *2074:Y 7.94949
4 *706:4 *2074:Y 18.5003
5 *1736:B0 *706:4 20.37537
*END

*D_NET *707 0.0026598

*CONN
*I *2073:Y O *C 38.665 48.9 *L 0 *D AOI21X2
*I *1902:A0 I *C 40.745 22.855 *L 0.000392 *D OAI22X1
*I *1881:A I *C 45.5 38.095 *L 0.000212 *D NAND4XL
*I *1666:B0 I *C 41.5 48.735 *L 0.000212 *D AOI21XL

*CAP
1 *1881:A 0.000251771
2 *1666:B0 5.66804e-05
3 *2073:Y 0.000107524
4 *1902:A0 4.63113e-05
5 *707:4 0.000171006
6 *707:5 0.000301961
7 *707:6 0.000602424141
8 *707:7 0.000315961
9 *707:8 0.000293854
10 *707:9 7.96889e-05
11 *707:8 *1010:9 0.000128030781
12 *707:8 *1875:A1 0.000218868262
13 *707:6 *704:5 8.57114746e-05

*RES
1 *1902:A0 *707:9 4.25396
2 *707:9 *707:8 6.926
3 *707:8 *707:7 9.74777
4 *707:7 *707:6 1.38708
5 *707:6 *707:5 8.08106
6 *707:4 *2073:Y 8.62528
7 *707:5 *707:4 3.35722
8 *1666:B0 *707:4 7.31902
9 *1881:A *707:6 13.6861801
*END

*D_NET *708 0.00258791

*CONN
*I *2072:Y O *C 27.065 36.6 *L 0 *D AOI21X2
*I *1903:A0 I *C 46.745 25.025 *L 0.000392 *D OAI22X1
*I *1882:A I *C 34.1 34.675 *L 0.000212 *D NAND4XL
*I *1630:B0 I *C 28.5 35.055 *L 0.000212 *D AOI21XL

*CAP
1 *1903:A0 7.66526e-05
2 *1882:A 3.70706e-05
3 *1630:B0 4.74455e-05
4 *2072:Y 6.57411e-05
5 *708:4 0.00029874
6 *708:5 0.000272273
7 *708:6 0.000468909727
8 *708:7 0.000260174
9 *708:8 0.0002923
10 *708:9 5.21535e-05
11 *708:7 *327:5 0.000143468379
12 *1882:A *1671:A1 8.01086426e-05
13 *1882:A *699:6 0.000174403184
14 *708:4 *1869:C0 0.000136554238
15 *708:4 *1095:15 0.000181913379

*RES
1 *708:9 *708:8 3.3364
2 *708:8 *2072:Y 4.65742
3 *1630:B0 *708:9 1.4683
4 *708:7 *708:6 10.8713
5 *708:6 *708:8 8.90577
6 *1882:A *708:6 7.45385
7 *708:5 *708:7 4.4655
8 *708:4 *708:5 9.23764
9 *1903:A0 *708:4 14.1322613
*END

*D_NET *709 0.00131094

*CONN
*I *2069:Y O *C 21.58 21.63 *L 0 *D AOI21X1
*I *1886:A0 I *C 35.745 21.605 *L 0.000392 *D OAI22X1
*I *1843:C I *C 34.56 21.485 *L 0.000795 *D NAND3BX2
*I *1757:A0 I *C 34.945 22.855 *L 0.000392 *D OAI22X1
*I *1654:B0 I *C 26.5 23.085 *L 0.000212 *D AOI21XL

*CAP
1 *1886:A0 5.31678e-05
2 *1757:A0 2.7301e-05
3 *1843:C 4.36325e-05
4 *1654:B0 3.39744e-05
5 *2069:Y 0.000169575
6 *709:5 0.000115516
7 *709:6 0.000298502
8 *709:7 0.000423371797
9 *709:6 *726:5 0.000145912168

*RES
1 *709:7 *2069:Y 11.064887
2 *1654:B0 *709:7 7.2046
3 *709:6 *709:7 6.11189
4 *1843:C *709:6 10.4277
5 *709:5 *709:6 4.06306
6 *1757:A0 *709:5 3.76911
7 *1886:A0 *709:5 4.65517
*END

*D_NET *710 0.00135541

*CONN
*I *2068:Y O *C 59.98 33.09 *L 0 *D AOI21X1
*I *1877:C I *C 53.34 30.0025 *L 0.000211 *D NAND4XL
*I *1873:B0 I *C 50.9 31.635 *L 0.00039 *D OAI221X1
*I *1747:B0 I *C 51.5 33.345 *L 0.000392 *D OAI22X1
*I *1675:B0 I *C 54.9 31.635 *L 0.000212 *D AOI21XL

*CAP
1 *2068:Y 3.72547e-05
2 *1675:B0 5.78755e-05
3 *1877:C 5.05457e-05
4 *1747:B0 4.53014e-05
5 *1873:B0 5.33442e-05
6 *710:5 0.000170947
7 *710:6 0.000122786
8 *710:7 9.20902e-05
9 *710:8 0.000251233574
10 *710:9 0.000192821
11 *710:8 *717:6 0.000191688535
12 *710:5 *2125:A 8.95261719e-05

*RES
1 *1873:B0 *710:9 4.28275
2 *710:9 *710:8 5.23184
3 *1747:B0 *710:9 3.86872
4 *710:7 *710:6 4.04504
5 *1877:C *710:7 4.28655
6 *710:6 *710:8 0.5443
7 *710:8 *710:5 4.58103
8 *1675:B0 *710:6 7.5622797
9 *710:5 *2068:Y 7.31915
*END

*D_NET *711 0.0018298

*CONN
*I *2067:Y O *C 50.265 43.44 *L 0 *D AOI21X2
*I *1899:A0 I *C 48.145 36.535 *L 0.000392 *D OAI22X1
*I *1876:C I *C 42.74 43.6825 *L 0.000211 *D NAND4XL
*I *1756:A0 I *C 43.945 38.705 *L 0.000392 *D OAI22X1
*I *1635:B0 I *C 51.9 43.605 *L 0.000212 *D AOI21XL

*CAP
1 *1635:B0 0.000104367
2 *2067:Y 2.18187e-05
3 *1899:A0 0.0002169
4 *1756:A0 0.000137451
5 *1876:C 9.81065e-05
6 *711:5 0.000257253
7 *711:6 0.000507771953
8 *711:7 0.000395355
9 *711:7 *1592:CK 2.01464e-05
10 *711:7 *1524:CK 7.56979e-06
11 *711:6 *90:25 5.52535e-05
12 *1899:A0 *1592:CK 7.80818497e-06

*RES
1 *1876:C *711:7 5.11051
2 *711:7 *711:6 7.34297
3 *1756:A0 *711:7 6.70516
4 *711:6 *711:5 12.8326
5 *1899:A0 *711:6 17.584919
6 *711:5 *2067:Y 3.68973
7 *1635:B0 *711:5 6.0314
*END

*D_NET *712 0.00133741

*CONN
*I *2066:Y O *C 44.98 46.77 *L 0 *D AOI21X1
*I *1875:B0 I *C 42.5 36.765 *L 0.00039 *D OAI221X1
*I *1853:B I *C 45.54 40.12 *L 0.000392 *D NAND4BX1
*I *1750:B0 I *C 43.9 36.765 *L 0.000392 *D OAI22X1
*I *1665:B0 I *C 45.9 47.025 *L 0.000212 *D AOI21XL

*CAP
1 *1665:B0 3.54641e-05
2 *2066:Y 5.68598e-05
3 *1750:B0 7.90331e-05
4 *1875:B0 5.94824e-05
5 *712:5 3.54641e-05
6 *712:6 0.000253975
7 *712:7 0.000431835664
8 *712:8 8.50558e-05
9 *712:9 0.000300226

*RES
1 *1875:B0 *712:9 7.19245
2 *712:8 *712:9 0.113274
3 *712:9 *712:7 14.5559311
4 *1750:B0 *712:8 7.68908
5 *712:6 *2066:Y 4.457
6 *712:5 *2066:Y 0.49996
7 *1853:B *712:7 3.30005
8 *712:7 *712:6 4.16537
9 *1665:B0 *712:5 1.22869
*END

*D_NET *713 0.00127602

*CONN
*I *2065:Y O *C 54.38 39.93 *L 0 *D AOI21X1
*I *1874:A0 I *C 51.9 31.635 *L 0.000392 *D OAI221X1
*I *1858:B I *C 52.14 35.12 *L 0.000392 *D NAND4BX1
*I *1744:A0 I *C 51.145 29.695 *L 0.000392 *D OAI22X1
*I *1623:B0 I *C 52.1 38.475 *L 0.000212 *D AOI21XL

*CAP
1 *2065:Y 9.25662e-05
2 *1874:A0 0.000118138
3 *1744:A0 3.95791e-05
4 *713:5 0.000203251
5 *713:6 0.000274419785
6 *713:7 0.000204625
7 *713:8 9.87635e-05
8 *713:9 9.98396e-05
9 *713:7 *716:6 0.000144839287

*RES
1 *1744:A0 *713:9 4.12067
2 *713:9 *1874:A0 5.11115
3 *713:8 *713:7 1.13388
4 *1874:A0 *713:8 4.79679
5 *1858:B *713:7 3.29995
6 *713:7 *713:6 3.41687
7 *713:6 *713:5 5.59092
8 *1623:B0 *713:6 3.29995
9 *713:5 *2065:Y 7.92384148
*END

*D_NET *714 0.00163531

*CONN
*I *2064:Y O *C 59.58 36.51 *L 0 *D AOI21X1
*I *1893:A0 I *C 45.745 31.865 *L 0.000392 *D OAI22X1
*I *1858:C I *C 51.95 35.3 *L 0.000389 *D NAND4BX1
*I *1751:A0 I *C 47.145 31.865 *L 0.000392 *D OAI22X1
*I *1649:B0 I *C 55 34.86 *L 0.000392 *D AOI21X1

*CAP
1 *2064:Y 2.88457e-05
2 *1649:B0 2.49177e-05
3 *1858:C 3.79067e-05
4 *1751:A0 2.21163e-05
5 *1893:A0 6.97346e-05
6 *714:5 0.000206234
7 *714:6 0.000298319
8 *714:7 0.000394821172
9 *714:8 0.000352739
10 *714:8 *1874:A1 0.000199675566

*RES
1 *1893:A0 *714:8 7.92391
2 *714:8 *714:7 13.5971308
3 *1751:A0 *714:8 6.805
4 *714:7 *714:6 2.24883
5 *1858:C *714:7 6.84048
6 *714:6 *714:5 7.27306
7 *1649:B0 *714:6 6.81475
8 *714:5 *2064:Y 3.68975
*END

*D_NET *715 0.0021795

*CONN
*I *2063:Y O *C 28.865 46.86 *L 0 *D AOI21X2
*I *1889:A0 I *C 37.145 31.865 *L 0.000392 *D OAI22X1
*I *1867:B I *C 35.3 33.345 *L 0.000211 *D NAND3BXL
*I *1745:A0 I *C 35.745 31.865 *L 0.000392 *D OAI22X1
*I *1632:B0 I *C 27.3 45.315 *L 0.000212 *D AOI21XL

*CAP
1 *1889:A0 5.00084e-05
2 *1745:A0 6.39547e-05
3 *1867:B 2.03806e-05
4 *2063:Y 5.87707e-05
5 *1632:B0 9.51238e-05
6 *715:5 0.000131132
7 *715:6 0.000706315078
8 *715:7 8.98858e-05
9 *715:8 0.000683725
10 *715:9 0.000100437
11 *715:6 *109:11 0.000179767617

*RES
1 *1632:B0 *715:9 7.92376
2 *715:8 *2063:Y 4.55143
3 *715:9 *715:8 3.33648
4 *1867:B *715:7 3.57238
5 *715:7 *715:6 3.33648
6 *715:6 *715:8 25.2610435
7 *1745:A0 *715:7 4.55605
8 *1889:A0 *715:5 4.12088
9 *715:5 *715:6 4.77846
*END

*D_NET *716 0.00127506

*CONN
*I *2062:Y O *C 52.78 36.51 *L 0 *D AOI21X1
*I *1872:A0 I *C 49.1 29.925 *L 0.000392 *D OAI221X1
*I *1858:D I *C 51.7 34.865 *L 0.000392 *D NAND4BX1
*I *1740:A0 I *C 47.545 29.695 *L 0.000392 *D OAI22X1
*I *1629:B0 I *C 53.1 38.475 *L 0.000212 *D AOI21XL

*CAP
1 *1629:B0 5.51944e-05
2 *2062:Y 0.000117002
3 *1872:A0 4.45224e-05
4 *1740:A0 8.20182e-05
5 *716:5 7.03929e-05
6 *716:6 0.000368176
7 *716:7 0.000392913828
8 *716:6 *713:7 0.000144839287

*RES
1 *1740:A0 *716:7 7.80053
2 *716:7 *716:6 9.12567
3 *1872:A0 *716:7 7.39581
4 *716:6 *2062:Y 11.7675066
5 *1858:D *716:6 3.29992
6 *716:5 *2062:Y 3.59547
7 *1629:B0 *716:5 4.26432
*END

*D_NET *717 0.00115597

*CONN
*I *2061:Y O *C 59.58 35.31 *L 0 *D AOI21X1
*I *1873:A0 I *C 50.1 31.635 *L 0.000392 *D OAI221X1
*I *1845:B I *C 52.54 33.165 *L 0.000796 *D NAND2BX2
*I *1747:A0 I *C 50.745 33.115 *L 0.000392 *D OAI22X1
*I *1648:B0 I *C 54.7 33.345 *L 0.000212 *D AOI21XL

*CAP
1 *2061:Y 3.67773e-05
2 *1648:B0 2.17559e-05
3 *1845:B 3.39745e-05
4 *1747:A0 2.75379e-05
5 *1873:A0 4.91723e-05
6 *717:5 0.000186144
7 *717:6 0.000256896016
8 *717:7 0.000197528
9 *717:8 0.000154494
10 *717:6 *710:8 0.000191688535

*RES
1 *717:8 *717:7 4.83031
2 *1873:A0 *717:8 4.14446
3 *1747:A0 *717:8 4.03153
4 *717:7 *717:6 2.42664
5 *1845:B *717:7 6.99961
6 *717:6 *717:5 7.75766373
7 *1648:B0 *717:6 6.91923
8 *717:5 *2061:Y 3.9128
*END

*D_NET *718 0.0019595

*CONN
*I *2060:Y O *C 31.38 39.93 *L 0 *D AOI21X1
*I *1892:A0 I *C 38.945 28.445 *L 0.000392 *D OAI22X1
*I *1867:C I *C 35.165 33.47 *L 0.000212 *D NAND3BXL
*I *1748:A0 I *C 40.145 31.865 *L 0.000392 *D OAI22X1
*I *1644:B0 I *C 32.8 36.96 *L 0.000392 *D AOI21X1

*CAP
1 *1748:A0 8.2849e-06
2 *1892:A0 0.000187038
3 *1644:B0 4.63126e-05
4 *2060:Y 0.000129583
5 *718:5 0.000447571
6 *718:6 0.000452458867
7 *718:7 0.000376107
8 *718:5 *1017:14 9.54866406e-05
9 *718:5 *1036:2 9.22083887e-05
10 *718:5 *699:5 0.000124454502

*RES
1 *718:7 *2060:Y 6.15029
2 *1644:B0 *718:7 4.07866
3 *1867:C *718:6 3.29999
4 *718:6 *718:7 11.4141
5 *1892:A0 *718:5 6.96013
6 *718:5 *718:6 12.3772621
7 *1748:A0 *718:5 3.35721
*END

*D_NET *719 0.00200987

*CONN
*I *2059:Y O *C 32.38 28.47 *L 0 *D AOI21X1
*I *1894:A0 I *C 46.945 28.445 *L 0.000392 *D OAI22X1
*I *1865:C I *C 34.365 24.67 *L 0.000212 *D NAND3BXL
*I *1760:A0 I *C 36.145 28.445 *L 0.000392 *D OAI22X1
*I *1655:B0 I *C 34.8 26.7 *L 0.000392 *D AOI21X1

*CAP
1 *1894:A0 3.26024e-05
2 *1760:A0 4.87591e-05
3 *1655:B0 4.21383e-05
4 *1865:C 0.000156403
5 *2059:Y 6.56828e-05
6 *719:5 0.00032675
7 *719:6 0.000386714922
8 *719:7 0.00013542
9 *719:8 0.000271559
10 *719:5 *1006:4 0.000132083896
11 *719:5 *987:9 0.000302553184
12 *719:5 *737:4 0.000109195713

*RES
1 *719:8 *2059:Y 4.89327
2 *1865:C *719:8 7.07441
3 *719:7 *719:8 4.45513
4 *1655:B0 *719:7 7.08715
5 *719:6 *719:7 1.11868
6 *1760:A0 *719:6 7.32364
7 *719:5 *719:6 14.9163008
8 *1894:A0 *719:5 1.22269
*END

*D_NET *720 0.00182676

*CONN
*I *2058:Y O *C 18.38 22.83 *L 0 *D AOI21X1
*I *1890:A0 I *C 36.145 22.855 *L 0.000392 *D OAI22X1
*I *1865:B I *C 34.5 24.795 *L 0.000211 *D NAND3BXL
*I *1743:A0 I *C 35.945 25.025 *L 0.000392 *D OAI22X1
*I *1622:B0 I *C 26.7 24.795 *L 0.000212 *D AOI21XL

*CAP
1 *1890:A0 0.000123857
2 *1743:A0 4.51789e-05
3 *2058:Y 0.000395414
4 *720:5 0.000192637
5 *720:6 0.000348927
6 *720:7 0.000720739375

*RES
1 *720:7 *2058:Y 22.8466988
2 *1622:B0 *720:7 0.499911
3 *1865:B *720:6 3.29997
4 *720:6 *720:7 17.339
5 *720:5 *720:6 0.514204
6 *1743:A0 *720:5 4.56822
7 *1890:A0 *720:5 12.0031
*END

*D_NET *721 0.00229382

*CONN
*I *2057:Y O *C 59.065 40.02 *L 0 *D AOI21X2
*I *1879:C I *C 53.34 34.9775 *L 0.000211 *D NAND4XL
*I *1869:A0 I *C 50.7 24.795 *L 0.000392 *D OAI221X1
*I *1754:A0 I *C 50.945 28.445 *L 0.000392 *D OAI22X1
*I *1628:B0 I *C 55.3 40.185 *L 0.000212 *D AOI21XL

*CAP
1 *2057:Y 2.79544e-05
2 *1628:B0 1.85947e-05
3 *1879:C 8.83897e-05
4 *1754:A0 0.00013584
5 *1869:A0 3.11095e-05
6 *721:5 0.000162241
7 *721:6 0.000316024
8 *721:7 0.000628471367
9 *721:8 0.000543889
10 *721:8 *106:14 0.000172019004
11 *1754:A0 *723:5 0.000169277188

*RES
1 *721:8 *721:7 17.5082684
2 *1869:A0 *721:8 3.83341
3 *1754:A0 *721:8 6.07965
4 *1879:C *721:7 11.6736
5 *721:7 *721:6 10.4639
6 *721:6 *721:5 9.46503
7 *1628:B0 *721:6 3.71479
8 *721:5 *2057:Y 3.83341
*END

*D_NET *722 0.00154889

*CONN
*I *2056:Y O *C 60.665 28.38 *L 0 *D AOI21X2
*I *1894:B0 I *C 47.7 28.215 *L 0.000392 *D OAI22X1
*I *1855:B I *C 53.94 28.28 *L 0.000392 *D NAND4BX1
*I *1751:B0 I *C 47.9 31.635 *L 0.000392 *D OAI22X1
*I *1652:B0 I *C 55.4 30.12 *L 0.000392 *D AOI21X1

*CAP
1 *2056:Y 3.75496e-05
2 *1652:B0 4.88773e-05
3 *1855:B 4.32135e-05
4 *1751:B0 9.04818e-05
5 *1894:B0 7.35501e-05
6 *722:5 0.000210583
7 *722:6 0.000271679
8 *722:7 0.000255405
9 *722:8 0.000326454648
10 *722:8 *1013:8 8.8930127e-05
11 *722:8 *1740:B0 0.000102162363

*RES
1 *1894:B0 *722:8 5.22977
2 *1751:B0 *722:8 5.35063
3 *722:8 *722:7 7.82668591
4 *1855:B *722:7 7.3583
5 *722:7 *722:6 1.11878
6 *722:6 *722:5 7.34851
7 *1652:B0 *722:6 7.22741
8 *722:5 *2056:Y 3.96923
*END

*D_NET *723 0.00135827

*CONN
*I *2055:Y O *C 60.58 25.05 *L 0 *D AOI21X1
*I *1869:B0 I *C 51.5 24.795 *L 0.00039 *D OAI221X1
*I *1855:C I *C 53.75 28.46 *L 0.000389 *D NAND4BX1
*I *1754:B0 I *C 51.7 28.215 *L 0.000392 *D OAI22X1
*I *1677:B0 I *C 56.6 24.6 *L 0.000392 *D AOI21X1

*CAP
1 *1677:B0 4.16616e-05
2 *2055:Y 0.000143768
3 *1855:C 0.000112354
4 *1754:B0 2.80755e-05
5 *1869:B0 3.05155e-05
6 *723:5 0.000223758
7 *723:6 0.00034022332
8 *723:7 0.000268638
9 *723:5 *1754:A0 0.000169277188

*RES
1 *1869:B0 *723:7 3.72202
2 *723:7 *723:6 7.50159
3 *723:5 *723:7 1.75386
4 *1754:B0 *723:5 3.83346
5 *1855:C *723:5 11.9730234
6 *723:6 *2055:Y 9.88922
7 *1677:B0 *723:6 7.08706
*END

*D_NET *724 0.00222856

*CONN
*I *2054:Y O *C 62.265 18.12 *L 0 *D AOI21X2
*I *1872:B0 I *C 49.9 29.925 *L 0.00039 *D OAI221X1
*I *1846:B I *C 49.54 19.485 *L 0.000796 *D NAND2BX2
*I *1740:B0 I *C 48.3 29.925 *L 0.000392 *D OAI22X1
*I *1674:B0 I *C 57.7 19.665 *L 0.000212 *D AOI21XL

*CAP
1 *2054:Y 3.66591e-05
2 *1674:B0 2.91479e-05
3 *1872:B0 1.89531e-05
4 *1846:B 4.03491e-05
5 *1740:B0 5.00699e-05
6 *724:5 0.000183106
7 *724:6 0.00033826
8 *724:7 0.000477910039
9 *724:8 0.000343919
10 *1740:B0 *1037:2 8.65459473e-05
11 *1740:B0 *722:8 0.000102162363
12 *724:8 *934:6 0.000105619434
13 *724:8 *1861:A0 0.000101506709
14 *724:7 *1091:14 0.00017249584
15 *724:7 *403:4 0.000141859053

*RES
1 *1740:B0 *724:8 8.04862
2 *1846:B *724:7 10.3418
3 *724:7 *724:6 16.7937279
4 *724:8 *724:7 12.1866
5 *1872:B0 *724:8 10.0781
6 *724:6 *724:5 7.12919
7 *1674:B0 *724:6 6.9944
8 *724:5 *2054:Y 4.11028
*END

*D_NET *725 0.00165987

*CONN
*I *2053:Y O *C 60.58 26.25 *L 0 *D AOI21X1
*I *1897:B0 I *C 49.5 31.635 *L 0.000392 *D OAI22X1
*I *1855:D I *C 53.5 28.025 *L 0.000392 *D NAND4BX1
*I *1752:B0 I *C 49.1 33.155 *L 0.000211 *D OA22X1
*I *1678:B0 I *C 55.7 26.505 *L 0.000212 *D AOI21XL

*CAP
1 *2053:Y 5.71615e-05
2 *1678:B0 3.68933e-05
3 *1855:D 2.27693e-05
4 *1897:B0 1.20993e-05
5 *1752:B0 5.57323e-05
6 *725:5 0.000203726
7 *725:6 0.000312325
8 *725:7 0.00045913457
9 *725:8 0.000375329
10 *725:8 *1897:B1 0.00012469292

*RES
1 *1752:B0 *725:8 4.4793
2 *725:8 *725:7 10.1414919
3 *1897:B0 *725:8 3.64769
4 *725:7 *725:6 5.63635
5 *1855:D *725:7 6.80422
6 *1678:B0 *725:6 3.7913
7 *725:6 *725:5 6.6993
8 *725:5 *2053:Y 7.43203
*END

*D_NET *726 0.00175017

*CONN
*I *2052:Y O *C 23.78 21.63 *L 0 *D AOI21X1
*I *1896:A0 I *C 38.345 26.275 *L 0.000392 *D OAI22X1
*I *1880:D I *C 36.1 26.885 *L 0.000392 *D NAND4X1
*I *1749:A0 I *C 36.945 26.275 *L 0.000392 *D OAI22X1
*I *1656:B0 I *C 27.5 23.085 *L 0.000212 *D AOI21XL

*CAP
1 *1896:A0 7.9695e-05
2 *1880:D 7.64095e-05
3 *1656:B0 2.5448e-05
4 *2052:Y 9.17903e-05
5 *726:5 0.000470814
6 *726:6 0.000108421
7 *726:7 0.000476360313
8 *726:7 *1606:CK 9.13739e-05
9 *726:5 *1609:CK 8.04663e-06
10 *726:5 *1606:CK 7.4088589e-05
11 *726:5 *709:6 0.000145912168
12 *1896:A0 *1755:B1 0.000101804736

*RES
1 *726:7 *2052:Y 9.97985
2 *1656:B0 *726:7 6.92969
3 *1880:D *726:6 2.32243
4 *726:5 *726:7 16.2055492
5 *726:6 *726:5 7.12776
6 *1749:A0 *726:6 0.499994
7 *1896:A0 *726:5 8.10871
*END

*D_NET *727 0.00247478

*CONN
*I *2051:Y O *C 47.38 57.03 *L 0 *D AOI21X1
*I *1888:A0 I *C 49.7 36.955 *L 0.000212 *D OA22X1
*I *1844:C I *C 46.165 43.73 *L 0.000212 *D NAND3BXL
*I *1758:A0 I *C 46.345 36.535 *L 0.000392 *D OAI22X1
*I *1659:B0 I *C 49.7 50.445 *L 0.000212 *D AOI21XL

*CAP
1 *1888:A0 0.000117001
2 *1659:B0 0.000100552
3 *2051:Y 2.20534e-05
4 *1758:A0 5.20315e-05
5 *1844:C 3.43296e-05
6 *727:5 0.000243662
7 *727:6 0.000510156172
8 *727:7 0.000407455
9 *727:8 0.00046134
10 *727:9 6.92586e-05
11 *727:9 *1562:CK 7.39098e-06
12 *727:9 *90:30 1.41263e-05
13 *727:7 *90:27 9.68575e-05
14 *727:7 *90:29 5.68628813e-05
15 *727:9 *733:7 0.000103950498
16 *1659:B0 *1659:A1 9.28640332e-05
17 *1888:A0 *741:7 8.48770117e-05

*RES
1 *1844:C *727:9 4.28784
2 *727:9 *727:8 7.35873
3 *1758:A0 *727:7 7.01665
4 *727:7 *727:8 10.1351738
5 *727:8 *727:6 7.79098
6 *727:6 *727:5 8.29344
7 *727:5 *2051:Y 3.76914
8 *1659:B0 *727:6 9.18361
9 *1888:A0 *727:7 9.52229
*END

*D_NET *728 0.00178808

*CONN
*I *2050:Y O *C 24.78 14.79 *L 0 *D AOI21X1
*I *1886:B0 I *C 36.5 21.375 *L 0.000392 *D OAI22X1
*I *1878:C I *C 35.54 19.7425 *L 0.000211 *D NAND4XL
*I *1757:B0 I *C 35.7 23.085 *L 0.000392 *D OAI22X1
*I *1681:B0 I *C 28.3 17.955 *L 0.000212 *D AOI21XL

*CAP
1 *1886:B0 6.41357e-05
2 *1757:B0 9.48904e-05
3 *1681:B0 5.2927e-05
4 *2050:Y 0.000177919
5 *728:5 0.000212073
6 *728:6 0.000281813
7 *728:7 0.000411748867
8 *728:8 5.79973e-05
9 *728:8 *93:29 4.58956e-06
10 *728:7 *93:28 1.72853e-06
11 *728:7 *1615:CK 1.86563e-05
12 *728:6 *93:26 3.03388e-05
13 *728:6 *1539:CK 2.70605e-05
14 *728:6 *93:28 4.52988187e-06
15 *728:6 *734:5 0.000115454199
16 *728:6 *121:26 9.69171484e-05
17 *728:5 *1878:B 0.000135302539

*RES
1 *728:8 *728:7 3.37175
2 *728:7 *2050:Y 13.7434
3 *1681:B0 *728:8 1.68342
4 *728:6 *728:7 14.6125555
5 *1878:C *728:6 3.29995
6 *728:5 *728:6 1.19445
7 *1757:B0 *728:5 4.91827
8 *1886:B0 *728:5 4.32428
*END

*D_NET *729 0.00269878

*CONN
*I *2049:Y O *C 57.465 48.9 *L 0 *D AOI21X2
*I *1895:B0 I *C 47.9 35.055 *L 0.000392 *D OAI22X1
*I *1853:D I *C 45.1 40.375 *L 0.000392 *D NAND4BX1
*I *1734:B0 I *C 45.1 35.055 *L 0.000392 *D OAI22X1
*I *1641:B0 I *C 52.4 47.22 *L 0.000392 *D AOI21X1

*CAP
1 *2049:Y 1.72884e-05
2 *1641:B0 5.21569e-05
3 *1895:B0 0.000135008
4 *1734:B0 6.44931e-05
5 *1853:D 8.88118e-05
6 *729:5 0.000181974
7 *729:6 0.000281929
8 *729:7 0.000579535977
9 *729:8 0.000533941
10 *729:8 *1562:CK 5.87106e-05
11 *729:8 *90:30 4.30345313e-05
12 *729:8 *516:3 9.39965234e-05
13 *729:7 *1570:D 0.000133395195
14 *729:7 *1080:17 0.000100135801
15 *729:6 *702:7 9.28640332e-05
16 *1734:B0 *114:4 0.000132203105
17 *1895:B0 *741:7 0.000109314922

*RES
1 *729:8 *729:7 14.4997835
2 *729:6 *729:8 2.5853
3 *1853:D *729:8 11.1529
4 *1734:B0 *729:6 10.7023
5 *1895:B0 *729:6 12.7185
6 *729:7 *729:5 8.72518
7 *1641:B0 *729:7 7.3583
8 *729:5 *2049:Y 3.66278
*END

*D_NET *730 0.00250292

*CONN
*I *2048:Y O *C 62.065 46.86 *L 0 *D AOI21X2
*I *1899:B0 I *C 48.9 36.765 *L 0.000392 *D OAI22X1
*I *1851:B I *C 43.94 40.005 *L 0.000796 *D NAND2BX2
*I *1756:B0 I *C 44.7 38.475 *L 0.000392 *D OAI22X1
*I *1664:B0 I *C 53.4 47.22 *L 0.000392 *D AOI21X1

*CAP
1 *1664:B0 3.04581e-05
2 *2048:Y 0.000146624
3 *1899:B0 4.48208e-05
4 *1756:B0 1.72287e-05
5 *1851:B 8.76215e-05
6 *730:5 0.000538170352
7 *730:6 5.32299e-05
8 *730:7 0.000527322
9 *730:8 0.000262676
10 *730:7 *99:14 9.60826855e-05
11 *730:7 *1093:12 0.000131964688
12 *730:5 *1663:A1 0.000119328496
13 *730:5 *2048:B0 0.000178098672
14 *730:5 *1569:D 0.00011539459
15 *1899:B0 *682:5 0.000153899189

*RES
1 *1851:B *730:8 5.05041
2 *730:8 *730:7 10.4705
3 *1756:B0 *730:8 3.48853
4 *730:6 *730:7 3.35705
5 *730:7 *730:5 17.8389549
6 *1899:B0 *730:6 4.40775
7 *730:5 *2048:Y 13.1666
8 *1664:B0 *730:5 6.94874
*END

*D_NET *731 0.00205964

*CONN
*I *2047:Y O *C 29.065 12.66 *L 0 *D AOI21X2
*I *1896:B0 I *C 39.1 26.505 *L 0.000392 *D OAI22X1
*I *1854:B I *C 37.54 19.6 *L 0.000392 *D NAND4BX1
*I *1749:B0 I *C 37.7 26.505 *L 0.000392 *D OAI22X1
*I *1682:B0 I *C 28.9 16.245 *L 0.000212 *D AOI21XL

*CAP
1 *1896:B0 3.82057e-05
2 *1749:B0 4.91781e-05
3 *1854:B 1.78246e-05
4 *2047:Y 0.00010079
5 *731:5 0.000231562
6 *731:6 0.00057572125
7 *731:7 0.000514508
8 *731:6 *744:5 0.000171780586
9 *731:5 *1870:C0 0.000133931641
10 *1896:B0 *1884:B1 0.00022614002

*RES
1 *731:7 *2047:Y 5.51483
2 *1682:B0 *731:7 3.30001
3 *1854:B *731:6 6.78857
4 *731:6 *731:7 13.6086941
5 *1749:B0 *731:5 7.31912
6 *731:5 *731:6 12.3734
7 *1896:B0 *731:5 7.4244
*END

*D_NET *732 0.000991941

*CONN
*I *2046:Y O *C 33.78 18.21 *L 0 *D AOI21X1
*I *1870:B0 I *C 37.7 21.375 *L 0.00039 *D OAI221X1
*I *1854:C I *C 37.35 19.42 *L 0.000389 *D NAND4BX1
*I *1739:B0 I *C 38.5 23.085 *L 0.000392 *D OAI22X1
*I *1680:B0 I *C 34.3 19.665 *L 0.000212 *D AOI21XL

*CAP
1 *1739:B0 0.00011903
2 *1680:B0 4.61935e-05
3 *2046:Y 3.81456e-05
4 *732:5 0.000201643
5 *732:6 0.000241994
6 *732:7 0.000243723398
7 *732:6 *936:5 0.000101208691

*RES
1 *732:7 *2046:Y 3.98956
2 *1680:B0 *732:7 4.07867
3 *732:6 *732:7 9.94825363
4 *1854:C *732:6 3.29994
5 *1870:B0 *732:5 3.29994
6 *732:5 *732:6 1.61012
7 *1739:B0 *732:5 5.21306
*END

*D_NET *733 0.00161004

*CONN
*I *2045:Y O *C 48.38 46.77 *L 0 *D AOI21X1
*I *1885:A0 I *C 48.5 34.865 *L 0.000212 *D OA22X1
*I *1844:B I *C 46.3 43.605 *L 0.000211 *D NAND3BXL
*I *1742:A0 I *C 45.945 35.285 *L 0.000392 *D OAI22X1
*I *1621:B0 I *C 47.1 47.025 *L 0.000212 *D AOI21XL

*CAP
1 *1885:A0 0.000134467
2 *1621:B0 7.32819e-06
3 *2045:Y 8.40403e-05
4 *1742:A0 1.09078e-05
5 *733:5 0.000227927
6 *733:6 0.000416934
7 *733:7 0.000425755977
8 *733:7 *727:9 0.000103950498
9 *1885:A0 *1895:A0 0.000102877617
10 *1885:A0 *1742:B0 9.58442676e-05

*RES
1 *1742:A0 *733:7 6.75618
2 *733:7 *733:6 20.848156
3 *1844:B *733:6 3.29983
4 *733:6 *733:5 3.05202
5 *733:5 *2045:Y 4.97472
6 *1621:B0 *733:5 3.34692
7 *1885:A0 *733:7 6.31654
*END

*D_NET *734 0.0025093

*CONN
*I *2044:Y O *C 29.865 9.24 *L 0 *D AOI21X2
*I *1892:B0 I *C 39.7 28.215 *L 0.000392 *D OAI22X1
*I *1854:D I *C 37.1 19.855 *L 0.000392 *D NAND4BX1
*I *1760:B0 I *C 36.9 28.215 *L 0.000392 *D OAI22X1
*I *1658:B0 I *C 30.6 16.44 *L 0.000392 *D AOI21X1

*CAP
1 *1892:B0 5.68028e-05
2 *1854:D 3.51049e-05
3 *1760:B0 3.64804e-05
4 *2044:Y 0.000277881
5 *734:5 0.000617444531
6 *734:6 0.000369553
7 *734:7 0.000583951
8 *734:6 *889:3 0.000111341475
9 *734:5 *728:6 0.000115454199
10 *1892:B0 *1040:2 0.000152587891
11 *1892:B0 *1730:C 0.0001527071

*RES
1 *734:7 *2044:Y 9.0377
2 *1658:B0 *734:7 3.29996
3 *1760:B0 *734:6 7.01658
4 *734:5 *734:7 10.5423
5 *1854:D *734:5 6.93867
6 *734:6 *734:5 14.1046047
7 *1892:B0 *734:6 8.83087
*END

*D_NET *735 0.00156403

*CONN
*I *2043:Y O *C 38.78 7.95 *L 0 *D AOI21X1
*I *1901:B0 I *C 39.7 22.895 *L 0.000211 *D OA22X1
*I *1847:B I *C 38.3 19.855 *L 0.000392 *D NAND2BX1
*I *1755:B0 I *C 38.7 24.795 *L 0.000392 *D OAI22X1
*I *1684:B0 I *C 38.8 16.44 *L 0.000392 *D AOI21X1

*CAP
1 *1684:B0 5.40044e-05
2 *1755:B0 0.000104784
3 *2043:Y 5.15003e-05
4 *1847:B 4.04719e-05
5 *735:5 0.000261904
6 *735:6 0.000374674805
7 *735:7 0.000239847
8 *735:8 0.000329909
9 *735:6 *1618:D 0.000106930732

*RES
1 *1847:B *735:8 7.09754
2 *735:7 *2043:Y 10.8004808
3 *735:6 *735:7 6.05516
4 *735:8 *735:6 6.06719
5 *1755:B0 *735:5 5.74748
6 *1684:B0 *735:6 10.309
7 *1901:B0 *735:5 3.3
8 *735:5 *735:8 6.53309
*END

*D_NET *736 0.00188953

*CONN
*I *2042:Y O *C 22.98 29.67 *L 0 *D AOI21X1
*I *1884:B0 I *C 40.9 29.735 *L 0.000211 *D OA22X1
*I *1880:A I *C 35.54 26.44 *L 0.000393 *D NAND4X1
*I *1624:B0 I *C 27.3 28.215 *L 0.000212 *D AOI21XL

*CAP
1 *1884:B0 0.000145495
2 *1880:A 0.000136852
3 *2042:Y 0.000148594
4 *1624:B0 3.62965e-05
5 *736:4 0.00014329
6 *736:5 0.000417289
7 *736:6 0.000450253477
8 *736:5 *368:6 0.000140428545
9 *1884:B0 *1013:15 0.000131428242
10 *1884:B0 *1724:A0 0.000139594082

*RES
1 *1624:B0 *736:6 7.21508
2 *736:6 *2042:Y 10.6595
3 *736:5 *736:6 7.21928
4 *736:4 *736:5 3.35724
5 *1880:A *736:4 12.5360489
6 *1884:B0 *736:5 11.2156
*END

*D_NET *737 0.00160718

*CONN
*I *2041:Y O *C 19.78 26.25 *L 0 *D AOI21X1
*I *1880:B I *C 35.76 26.47 *L 0.000392 *D NAND4X1
*I *1737:B0 I *C 38.3 28.215 *L 0.000392 *D OAI22X1
*I *1653:B0 I *C 27.5 26.505 *L 0.000212 *D AOI21XL

*CAP
1 *1737:B0 3.98728e-05
2 *1880:B 3.77881e-05
3 *1653:B0 3.76703e-05
4 *2041:Y 0.000223156
5 *737:4 0.000109077
6 *737:5 0.000328897
7 *737:6 0.000482738008
8 *737:6 *92:29 4.02927e-05
9 *737:6 *92:33 4.00543e-05
10 *737:6 *92:39 1.26362e-05
11 *1653:B0 *1538:CK 1.3113e-06
12 *1653:B0 *92:29 1.47223e-05
13 *737:5 *1609:CK 4.27365e-05
14 *737:5 *92:27 2.68221e-06
15 *737:5 *92:29 3.87442259e-06
16 *737:4 *719:5 0.000109195713
17 *1737:B0 *1731:A 8.04662695e-05

*RES
1 *737:6 *2041:Y 12.6106739
2 *1653:B0 *737:6 10.5198
3 *737:5 *737:6 6.33112
4 *1880:B *737:5 6.9311
5 *737:4 *737:5 5.30454
6 *1737:B0 *737:4 4.2949
*END

*D_NET *738 0.0017271

*CONN
*I *2040:Y O *C 41.78 38.73 *L 0 *D AOI21X1
*I *1883:A I *C 35.9 34.675 *L 0.000212 *D NAND4XL
*I *1871:B0 I *C 46.9 33.345 *L 0.00039 *D OAI221X1
*I *1673:B0 I *C 39.5 36.765 *L 0.000212 *D AOI21XL

*CAP
1 *1871:B0 0.000359593
2 *2040:Y 1.6092e-05
3 *1673:B0 3.2961e-05
4 *1883:A 0.000145674
5 *738:4 0.000565767305
6 *738:5 3.95221e-05
7 *738:6 0.000342309
8 *738:4 *2121:A 8.39233398e-05
9 *1871:B0 *670:9 0.000141263008

*RES
1 *1883:A *738:6 13.0566
2 *738:5 *738:6 3.37194
3 *738:6 *738:4 6.9064
4 *1673:B0 *738:5 0.946284
5 *738:4 *2040:Y 6.8051
6 *1871:B0 *738:4 21.0080147
*END

*D_NET *739 0.00159788

*CONN
*I *2039:Y O *C 34.38 9.15 *L 0 *D AOI21X1
*I *1902:B0 I *C 41.5 23.085 *L 0.000392 *D OAI22X1
*I *1878:A I *C 35.1 20.045 *L 0.000212 *D NAND4XL
*I *1683:B0 I *C 35.5 17.955 *L 0.000212 *D AOI21XL

*CAP
1 *1902:B0 5.32881e-05
2 *1683:B0 1.71038e-05
3 *2039:Y 0.000349108
4 *739:4 0.000332892
5 *739:5 0.000338135
6 *739:6 0.000424742695
7 *739:4 *1864:A0 8.2612041e-05

*RES
1 *739:6 *2039:Y 10.8483
2 *739:5 *739:6 1.13754
3 *1878:A *739:5 3.30001
4 *1683:B0 *739:6 3.59676
5 *739:4 *739:5 13.0172968
6 *1902:B0 *739:4 4.3436
*END

*D_NET *740 0.00175238

*CONN
*I *2038:Y O *C 38.38 57.03 *L 0 *D AOI21X1
*I *1876:B I *C 42.54 43.7925 *L 0.000212 *D NAND4XL
*I *1735:A0 I *C 42.545 38.705 *L 0.000392 *D OAI22X1
*I *1638:B0 I *C 39.7 48.735 *L 0.000212 *D AOI21XL

*CAP
1 *1876:B 6.19914e-05
2 *1735:A0 0.000136609
3 *2038:Y 0.000272389
4 *740:4 0.000544193
5 *740:5 0.000617980938
6 *740:5 *1143:2 0.000119209287

*RES
1 *1638:B0 *740:5 3.29988
2 *740:5 *2038:Y 10.4667
3 *1735:A0 *740:4 6.01409
4 *740:4 *740:5 14.3219233
5 *1876:B *740:4 4.29597
*END

*D_NET *741 0.00183696

*CONN
*I *2037:Y O *C 56.38 38.73 *L 0 *D AOI21X1
*I *1879:B I *C 53.14 34.8675 *L 0.000212 *D NAND4XL
*I *1736:A0 I *C 42.145 33.115 *L 0.000392 *D OAI22X1
*I *1647:B0 I *C 54.7 36.765 *L 0.000212 *D AOI21XL

*CAP
1 *2037:Y 4.54767e-05
2 *1647:B0 1.73423e-05
3 *1879:B 6.83086e-05
4 *1736:A0 9.59647e-05
5 *741:4 0.000197294
6 *741:5 0.000215766
7 *741:6 0.000454246992
8 *741:7 0.00043529
9 *741:7 *1895:B0 0.000109314922
10 *741:7 *1888:A0 8.48770117e-05
11 *741:7 *700:8 0.00011307001

*RES
1 *1736:A0 *741:7 5.22771
2 *741:7 *741:6 12.4171972
3 *1879:B *741:6 7.89698
4 *741:6 *741:5 1.11883
5 *741:5 *741:4 9.52359
6 *1647:B0 *741:5 6.77815
7 *741:4 *2037:Y 7.31909
*END

*D_NET *742 0.00180453

*CONN
*I *2036:Y O *C 60.78 22.83 *L 0 *D AOI21X1
*I *1903:B0 I *C 47.5 24.795 *L 0.000392 *D OAI22X1
*I *1877:A I *C 52.9 30.305 *L 0.000212 *D NAND4XL
*I *1679:B0 I *C 58.5 21.375 *L 0.000212 *D AOI21XL

*CAP
1 *2036:Y 9.75116e-05
2 *1679:B0 4.1483e-05
3 *1877:A 0.000252428
4 *1903:B0 0.000170412
5 *742:4 0.000418958
6 *742:5 0.000536739844
7 *742:6 0.000174761
8 *1903:B0 *1856:A2 0.000112235547

*RES
1 *1903:B0 *742:6 9.9574
2 *742:6 *742:5 3.33626
3 *742:5 *742:4 17.3583031
4 *1877:A *742:5 15.2245
5 *1679:B0 *742:4 7.35826
6 *742:4 *2036:Y 8.52871
*END

*D_NET *743 0.00190139

*CONN
*I *2035:Y O *C 32.78 31.89 *L 0 *D AOI21X1
*I *1877:B I *C 53.14 30.1125 *L 0.000212 *D NAND4XL
*I *1737:A0 I *C 37.545 28.445 *L 0.000392 *D OAI22X1
*I *1651:B0 I *C 34.5 29.925 *L 0.000212 *D AOI21XL

*CAP
1 *1877:B 7.051e-05
2 *1737:A0 9.83484e-05
3 *1651:B0 3.78485e-05
4 *2035:Y 4.99495e-05
5 *743:4 0.00011748
6 *743:5 0.000330984609
7 *743:6 0.000310005
8 *743:7 0.000298858
9 *743:8 0.000256894
10 *743:9 7.02727e-05
11 *743:7 *99:17 0.000260233887

*RES
1 *743:9 *743:8 4.02574
2 *743:8 *2035:Y 4.46237
3 *1651:B0 *743:9 1.19191
4 *743:7 *743:8 10.1936
5 *1737:A0 *743:7 11.3867521
6 *743:6 *743:7 4.02435
7 *743:5 *743:6 10.2808
8 *743:4 *743:5 7.51287
9 *1877:B *743:4 7.73961
*END

*D_NET *744 0.00182223

*CONN
*I *2034:Y O *C 25.18 19.41 *L 0 *D AOI21X1
*I *1878:B I *C 35.34 19.8525 *L 0.000212 *D NAND4XL
*I *1738:B0 I *C 35.5 28.215 *L 0.000392 *D OAI22X1
*I *1657:B0 I *C 26.5 21.375 *L 0.000212 *D AOI21XL

*CAP
1 *1738:B0 0.000154082
2 *1878:B 2.59867e-05
3 *1657:B0 4.02296e-05
4 *2034:Y 7.51266e-06
5 *744:4 0.000359293
6 *744:5 0.000497818008
7 *744:6 9.81659e-05
8 *744:7 0.000332061
9 *744:5 *731:6 0.000171780586
10 *1878:B *728:5 0.000135302539

*RES
1 *744:7 *2034:Y 3.35727
2 *744:6 *744:7 4.62714
3 *1657:B0 *744:6 1.22258
4 *744:5 *744:7 11.2647
5 *1878:B *744:5 6.8612
6 *744:4 *744:5 14.2188072
7 *1738:B0 *744:4 6.01353
*END

*D_NET *745 0.00015676

*CONN
*I *2033:Y O *C 25.745 39.59 *L 0 *D OAI211X1
*I *2000:A I *C 24.9 41.705 *L 0.000395 *D INVX1

*CAP
1 *2033:Y 7.83801074e-05
2 *2000:A 7.83801074e-05

*RES
1 *2000:A *2033:Y 11.4043
*END

*D_NET *746 1.34706e-05

*CONN
*I *2032:Y O *C 31.145 42.49 *L 0 *D OAI211X1
*I *1999:A I *C 31.3 41.705 *L 0.000395 *D INVX1

*CAP
1 *2032:Y 6.73532471e-06
2 *1999:A 6.73532471e-06

*RES
1 *1999:A *2032:Y 0.24569
*END

*D_NET *747 2.43187e-05

*CONN
*I *2031:Y O *C 27.145 42.49 *L 0 *D OAI211X1
*I *1998:A I *C 27.5 41.705 *L 0.000395 *D INVX1

*CAP
1 *2031:Y 1.21593481e-05
2 *1998:A 1.21593481e-05

*RES
1 *1998:A *2031:Y 0.4915
*END

*D_NET *748 0.000110269

*CONN
*I *2030:Y O *C 32.945 39.59 *L 0 *D OAI211X1
*I *1997:A I *C 33.9 40.375 *L 0.000395 *D INVX1

*CAP
1 *2030:Y 5.51342969e-05
2 *1997:A 5.51342969e-05

*RES
1 *1997:A *2030:Y 7.69806
*END

*D_NET *749 4.94719e-05

*CONN
*I *2029:Y O *C 26.545 49.33 *L 0 *D OAI211X1
*I *1996:A I *C 27.3 48.545 *L 0.000395 *D INVX1

*CAP
1 *2029:Y 2.47359277e-05
2 *1996:A 2.47359277e-05

*RES
1 *1996:A *2029:Y 0.983
*END

*D_NET *750 0.000256538

*CONN
*I *2028:Y O *C 31.345 49.33 *L 0 *D OAI211X1
*I *1995:A I *C 32.9 48.545 *L 0.000395 *D INVX1

*CAP
1 *2028:Y 0.000128269199
2 *1995:A 0.000128269199

*RES
1 *1995:A *2028:Y 15.4129
*END

*D_NET *751 1.26362e-05

*CONN
*I *2027:Y O *C 37.745 8.81 *L 0 *D OAI211X1
*I *1994:A I *C 37.9 9.595 *L 0.000395 *D INVX1

*CAP
1 *2027:Y 6.31809204e-06
2 *1994:A 6.31809204e-06

*RES
1 *1994:A *2027:Y 0.24569
*END

*D_NET *752 1.27554e-05

*CONN
*I *2026:Y O *C 31.545 53.27 *L 0 *D OAI211X1
*I *1993:A I *C 31.7 54.055 *L 0.000395 *D INVX1

*CAP
1 *2026:Y 6.37769714e-06
2 *1993:A 6.37769714e-06

*RES
1 *1993:A *2026:Y 0.24569
*END

*D_NET *753 0.000184894

*CONN
*I *2025:Y O *C 27.545 12.23 *L 0 *D OAI211X1
*I *1992:A I *C 27.9 9.595 *L 0.000395 *D INVX1

*CAP
1 *2025:Y 9.24468066e-05
2 *1992:A 9.24468066e-05

*RES
1 *1992:A *2025:Y 8.85606
*END

*D_NET *754 0.000184298

*CONN
*I *2024:Y O *C 40.945 8.29 *L 0 *D OAI211X1
*I *1991:A I *C 42.1 7.505 *L 0.000395 *D INVX1

*CAP
1 *2024:Y 9.21487793e-05
2 *1991:A 9.21487793e-05

*RES
1 *1991:A *2024:Y 14.6241
*END

*D_NET *755 0.000108957

*CONN
*I *2023:Y O *C 33.545 53.27 *L 0 *D OAI211X1
*I *1990:A I *C 34.5 54.055 *L 0.000395 *D INVX1

*CAP
1 *2023:Y 5.44786475e-05
2 *1990:A 5.44786475e-05

*RES
1 *1990:A *2023:Y 7.76231
*END

*D_NET *756 0.000125527

*CONN
*I *2022:Y O *C 60.145 49.33 *L 0 *D OAI211X1
*I *1989:A I *C 60.3 50.635 *L 0.000395 *D INVX1

*CAP
1 *2022:Y 6.27636914e-05
2 *1989:A 6.27636914e-05

*RES
1 *1989:A *2022:Y 7.90775
*END

*D_NET *757 0.000102401

*CONN
*I *2021:Y O *C 31.945 8.81 *L 0 *D OAI211X1
*I *1988:A I *C 32.3 7.505 *L 0.000395 *D INVX1

*CAP
1 *2021:Y 5.12003906e-05
2 *1988:A 5.12003906e-05

*RES
1 *1988:A *2021:Y 7.85065
*END

*D_NET *758 2.59876e-05

*CONN
*I *2020:Y O *C 37.745 52.75 *L 0 *D OAI211X1
*I *1987:A I *C 38.1 51.965 *L 0.000395 *D INVX1

*CAP
1 *2020:Y 1.29938123e-05
2 *1987:A 1.29938123e-05

*RES
1 *1987:A *2020:Y 0.4915
*END

*D_NET *759 0.000291228

*CONN
*I *2019:Y O *C 36.145 15.13 *L 0 *D OAI211X1
*I *1986:A I *C 33.7 13.015 *L 0.000395 *D INVX1

*CAP
1 *1986:A 0.00014561415
2 *759:2 0.00014561415

*RES
1 *1986:A *759:2 16.1737213
2 *759:2 *2019:Y 0.499999
*END

*D_NET *760 1.3113e-05

*CONN
*I *2018:Y O *C 32.545 15.65 *L 0 *D OAI211X1
*I *1985:A I *C 32.7 16.435 *L 0.000395 *D INVX1

*CAP
1 *2018:Y 6.55651123e-06
2 *1985:A 6.55651123e-06

*RES
1 *1985:A *2018:Y 0.24569
*END

*D_NET *761 1.38283e-05

*CONN
*I *2017:Y O *C 62.945 32.23 *L 0 *D OAI211X1
*I *1984:A I *C 63.1 31.445 *L 0.000395 *D INVX1

*CAP
1 *2017:Y 6.91413879e-06
2 *1984:A 6.91413879e-06

*RES
1 *1984:A *2017:Y 0.24569
*END

*D_NET *762 0.000106931

*CONN
*I *2016:Y O *C 22.945 19.07 *L 0 *D OAI211X1
*I *1983:A I *C 22.9 17.765 *L 0.000395 *D INVX1

*CAP
1 *1983:A 4.51211e-05
2 *2016:Y 8.3443e-06
3 *762:2 5.34653662e-05

*RES
1 *762:2 *2016:Y 3.3572
2 *1983:A *762:2 4.28783894
*END

*D_NET *763 0.000300407

*CONN
*I *2015:Y O *C 20.945 29.33 *L 0 *D OAI211X1
*I *1982:A I *C 22.5 28.025 *L 0.000395 *D INVX1

*CAP
1 *2015:Y 0.000108659268
2 *1982:A 0.000108659268
3 *1982:A *368:6 8.3088877e-05

*RES
1 *1982:A *2015:Y 28.7963
*END

*D_NET *764 0.000154614

*CONN
*I *2014:Y O *C 58.345 56.17 *L 0 *D OAI211X1
*I *1981:A I *C 59.1 57.475 *L 0.000395 *D INVX1

*CAP
1 *1981:A 4.83992e-05
2 *2014:Y 2.89081e-05
3 *764:2 7.73072266e-05

*RES
1 *764:2 *2014:Y 4.0778
2 *1981:A *764:2 4.43136692
*END

*D_NET *765 9.82285e-05

*CONN
*I *2013:Y O *C 21.345 19.07 *L 0 *D OAI211X1
*I *1980:A I *C 21.3 17.765 *L 0.000395 *D INVX1

*CAP
1 *1980:A 4.10675e-05
2 *2013:Y 8.04668e-06
3 *765:2 4.91142285e-05

*RES
1 *765:2 *2013:Y 3.3572
2 *1980:A *765:2 4.28783894
*END

*D_NET *766 4.1008e-05

*CONN
*I *2012:Y O *C 58.745 49.85 *L 0 *D OAI211X1
*I *1979:A I *C 59.3 50.635 *L 0.000395 *D INVX1

*CAP
1 *2012:Y 2.0503999e-05
2 *1979:A 2.0503999e-05

*RES
1 *1979:A *2012:Y 0.73719
*END

*D_NET *767 1.27554e-05

*CONN
*I *2011:Y O *C 27.745 21.97 *L 0 *D OAI211X1
*I *1978:A I *C 27.9 21.185 *L 0.000395 *D INVX1

*CAP
1 *2011:Y 6.37769714e-06
2 *1978:A 6.37769714e-06

*RES
1 *1978:A *2011:Y 0.24569
*END

*D_NET *768 1.3113e-05

*CONN
*I *2010:Y O *C 30.145 28.81 *L 0 *D OAI211X1
*I *1977:A I *C 30.3 28.025 *L 0.000395 *D INVX1

*CAP
1 *2010:Y 6.55651123e-06
2 *1977:A 6.55651123e-06

*RES
1 *1977:A *2010:Y 0.24569
*END

*D_NET *769 0.000143528

*CONN
*I *2009:Y O *C 16.945 22.49 *L 0 *D OAI211X1
*I *1976:A I *C 15.7 23.275 *L 0.000395 *D INVX1

*CAP
1 *2009:Y 7.17639941e-05
2 *1976:A 7.17639941e-05

*RES
1 *1976:A *2009:Y 8.16596
*END

*D_NET *770 8.34465e-05

*CONN
*I *2008:Y O *C 30.745 21.97 *L 0 *D OAI211X1
*I *1975:A I *C 31.5 21.185 *L 0.000395 *D INVX1

*CAP
1 *2008:Y 4.1723252e-05
2 *1975:A 4.1723252e-05

*RES
1 *1975:A *2008:Y 7.37298
*END

*D_NET *771 3.80278e-05

*CONN
*I *2007:Y O *C 53.945 49.33 *L 0 *D OAI211X1
*I *1974:A I *C 54.5 48.545 *L 0.000395 *D INVX1

*CAP
1 *2007:Y 1.90138818e-05
2 *1974:A 1.90138818e-05

*RES
1 *1974:A *2007:Y 0.73719
*END

*D_NET *772 1.19209e-05

*CONN
*I *2006:Y O *C 62.945 22.49 *L 0 *D OAI211X1
*I *1973:A I *C 63.1 23.275 *L 0.000395 *D INVX1

*CAP
1 *2006:Y 5.96046448e-06
2 *1973:A 5.96046448e-06

*RES
1 *1973:A *2006:Y 0.24569
*END

*D_NET *773 1.16825e-05

*CONN
*I *2005:Y O *C 62.745 25.39 *L 0 *D OAI211X1
*I *1972:A I *C 62.9 24.605 *L 0.000395 *D INVX1

*CAP
1 *2005:Y 5.84125488e-06
2 *1972:A 5.84125488e-06

*RES
1 *1972:A *2005:Y 0.24569
*END

*D_NET *774 0.000201941

*CONN
*I *2004:Y O *C 47.345 49.33 *L 0 *D OAI211X1
*I *1971:A I *C 48.7 50.635 *L 0.000395 *D INVX1

*CAP
1 *1971:A 3.33779e-05
2 *2004:Y 6.75924e-05
3 *774:2 0.000100970264

*RES
1 *774:2 *2004:Y 7.91585445
2 *1971:A *774:2 1.2226
*END

*D_NET *775 0.000131845

*CONN
*I *2003:Y O *C 62.745 29.33 *L 0 *D OAI211X1
*I *1970:A I *C 62.7 28.025 *L 0.000395 *D INVX1

*CAP
1 *1970:A 5.883e-05
2 *2003:Y 7.09272e-06
3 *775:2 6.59227393e-05

*RES
1 *775:2 *2003:Y 3.3572
2 *1970:A *775:2 4.28783894
*END

*D_NET *776 0.000117421

*CONN
*I *2002:Y O *C 46.345 56.69 *L 0 *D OAI211X1
*I *1969:A I *C 46.1 58.805 *L 0.000395 *D INVX1

*CAP
1 *2002:Y 5.87105762e-05
2 *1969:A 5.87105762e-05

*RES
1 *1969:A *2002:Y 7.61819
*END

*D_NET *777 0.000115037

*CONN
*I *2001:Y O *C 43.745 49.33 *L 0 *D OAI211X1
*I *1968:A I *C 43.7 50.635 *L 0.000395 *D INVX1

*CAP
1 *1968:A 4.90551e-05
2 *2001:Y 8.46343e-06
3 *777:2 5.75184814e-05

*RES
1 *777:2 *2001:Y 3.34929
2 *1968:A *777:2 4.28783894
*END

*D_NET *778 0.000198007

*CONN
*I *2000:Y O *C 25.13 42.33 *L 0 *D INVX1
*I *1509:D I *C 26.3 43.605 *L 0.000307 *D DFFHQX1

*CAP
1 *2000:Y 5.41206e-05
2 *1509:D 4.48827e-05
3 *778:2 9.90033105e-05

*RES
1 *1509:D *778:2 4.26389
2 *778:2 *2000:Y 4.77004051
*END

*D_NET *779 0.000185132

*CONN
*I *1999:Y O *C 31.53 42.33 *L 0 *D INVX1
*I *1508:D I *C 32.7 43.605 *L 0.000307 *D DFFHQX1

*CAP
1 *1999:Y 4.58953e-05
2 *1508:D 4.66707e-05
3 *779:2 9.25660156e-05

*RES
1 *1508:D *779:2 4.26388
2 *779:2 *1999:Y 4.66001034
*END

*D_NET *780 0.000242949

*CONN
*I *1998:Y O *C 27.73 42.33 *L 0 *D INVX1
*I *1507:D I *C 29.5 43.605 *L 0.000307 *D DFFHQX1

*CAP
1 *1998:Y 0.000121474268
2 *1507:D 0.000121474268

*RES
1 *1507:D *1998:Y 9.44424
*END

*D_NET *781 0.00021708

*CONN
*I *1997:Y O *C 34.13 39.75 *L 0 *D INVX1
*I *1506:D I *C 35.3 41.895 *L 0.000307 *D DFFHQX1

*CAP
1 *1997:Y 0.000108540059
2 *1506:D 0.000108540059

*RES
1 *1506:D *1997:Y 9.12845
*END

*D_NET *782 0.000173807

*CONN
*I *1996:Y O *C 27.53 49.17 *L 0 *D INVX1
*I *1505:D I *C 26.5 50.445 *L 0.000307 *D DFFHQX1

*CAP
1 *1996:Y 1.35304e-05
2 *1505:D 4.75642e-05
3 *782:2 3.93396e-05
4 *782:3 7.33733154e-05

*RES
1 *1505:D *782:3 4.26387787
2 *782:3 *782:2 3.83434
3 *782:2 *1996:Y 0.485295
*END

*D_NET *783 0.000134587

*CONN
*I *1995:Y O *C 33.13 49.17 *L 0 *D INVX1
*I *1504:D I *C 32.9 50.445 *L 0.000307 *D DFFHQX1

*CAP
1 *1995:Y 1.94904e-05
2 *1504:D 4.78033e-05
3 *783:2 6.72936426e-05

*RES
1 *1504:D *783:2 4.23359871
2 *783:2 *1995:Y 3.71577
*END

*D_NET *784 0.000158548

*CONN
*I *1994:Y O *C 38.13 8.97 *L 0 *D INVX1
*I *1549:D I *C 37.1 7.695 *L 0.000307 *D DFFHQX1

*CAP
1 *1994:Y 2.98613e-05
2 *1549:D 4.94128e-05
3 *784:2 7.92741797e-05

*RES
1 *1549:D *784:2 4.60398197
2 *784:2 *1994:Y 3.93498
*END

*D_NET *785 0.000176311

*CONN
*I *1993:Y O *C 31.93 53.43 *L 0 *D INVX1
*I *1503:D I *C 32.7 55.575 *L 0.000307 *D DFFHQX1

*CAP
1 *1993:Y 3.51074e-05
2 *1503:D 5.30479e-05
3 *785:2 8.81552734e-05

*RES
1 *1503:D *785:2 4.26387787
2 *785:2 *1993:Y 4.04371
*END

*D_NET *786 0.000122905

*CONN
*I *1992:Y O *C 28.13 8.97 *L 0 *D INVX1
*I *1548:D I *C 28.5 11.115 *L 0.000307 *D DFFHQX1

*CAP
1 *1992:Y 1.35301e-05
2 *1548:D 4.79223e-05
3 *786:2 6.14523877e-05

*RES
1 *1548:D *786:2 4.32813168
2 *786:2 *1992:Y 3.58641
*END

*D_NET *787 0.000207186

*CONN
*I *1991:Y O *C 42.33 8.13 *L 0 *D INVX1
*I *1547:D I *C 44.1 5.985 *L 0.000307 *D DFFHQX1

*CAP
1 *1991:Y 5.68034e-05
2 *1547:D 4.67895e-05
3 *787:2 0.000103592871

*RES
1 *1547:D *787:2 4.31298
2 *787:2 *1991:Y 5.31697273
*END

*D_NET *788 0.000190377

*CONN
*I *1990:Y O *C 34.73 53.43 *L 0 *D INVX1
*I *1502:D I *C 35.9 55.575 *L 0.000307 *D DFFHQX1

*CAP
1 *1990:Y 9.51886133e-05
2 *1502:D 9.51886133e-05

*RES
1 *1502:D *1990:Y 8.74746
*END

*D_NET *789 0.000293732

*CONN
*I *1989:Y O *C 60.53 50.01 *L 0 *D INVX1
*I *1499:D I *C 60.9 53.865 *L 0.000307 *D DFFHQX1

*CAP
1 *1989:Y 9.46521e-05
2 *1499:D 5.22137e-05
3 *789:2 0.00014686584

*RES
1 *1499:D *789:2 4.37721
2 *789:2 *1989:Y 5.32019138
*END

*D_NET *790 0.000222087

*CONN
*I *1988:Y O *C 32.53 8.13 *L 0 *D INVX1
*I *1546:D I *C 32.9 11.115 *L 0.000307 *D DFFHQX1

*CAP
1 *1988:Y 1.36502e-05
2 *1546:D 9.73933e-05
3 *790:2 0.000111043457

*RES
1 *1546:D *790:2 5.620718
2 *790:2 *1988:Y 3.58645
*END

*D_NET *791 0.000153542

*CONN
*I *1987:Y O *C 38.33 52.59 *L 0 *D INVX1
*I *1501:D I *C 37.7 53.865 *L 0.000307 *D DFFHQX1

*CAP
1 *1987:Y 1.63311e-05
2 *1501:D 6.04396e-05
3 *791:2 7.67707813e-05

*RES
1 *1501:D *791:2 4.63426113
2 *791:2 *1987:Y 3.64767
*END

*D_NET *792 0.00027144

*CONN
*I *1986:Y O *C 33.93 12.39 *L 0 *D INVX1
*I *1545:D I *C 36.7 12.825 *L 0.000307 *D DFFHQX1

*CAP
1 *1545:D 0.000101746
2 *1986:Y 3.3974e-05
3 *792:2 0.000135719775

*RES
1 *792:2 *1986:Y 6.9415
2 *1545:D *792:2 8.88216496
*END

*D_NET *793 0.000110269

*CONN
*I *1985:Y O *C 32.93 15.81 *L 0 *D INVX1
*I *1543:D I *C 32.9 14.535 *L 0.000307 *D DFFHQX1

*CAP
1 *1543:D 5.51342969e-05
2 *793:2 5.51342969e-05

*RES
1 *1543:D *793:2 4.40847874
2 *793:2 *1985:Y 3.29997
*END

*D_NET *794 0.000296116

*CONN
*I *1984:Y O *C 63.33 32.07 *L 0 *D INVX1
*I *1529:D I *C 66.1 29.925 *L 0.000307 *D DFFHQX1

*CAP
1 *1984:Y 0.000101805
2 *1529:D 4.6253e-05
3 *794:2 0.000148057939

*RES
1 *1529:D *794:2 4.31297
2 *794:2 *1984:Y 6.54566288
*END

*D_NET *795 0.000188589

*CONN
*I *1983:Y O *C 23.13 18.39 *L 0 *D INVX1
*I *1542:D I *C 24.3 16.245 *L 0.000307 *D DFFHQX1

*CAP
1 *1983:Y 9.42945508e-05
2 *1542:D 9.42945508e-05

*RES
1 *1542:D *1983:Y 8.86989
*END

*D_NET *796 0.000127912

*CONN
*I *1982:Y O *C 22.73 28.65 *L 0 *D INVX1
*I *1541:D I *C 23.1 26.505 *L 0.000307 *D DFFHQX1

*CAP
1 *1982:Y 1.50796e-05
2 *1541:D 4.88761e-05
3 *796:2 6.39557861e-05

*RES
1 *1541:D *796:2 4.3129921
2 *796:2 *1982:Y 3.59677
*END

*D_NET *797 0.00015521

*CONN
*I *1981:Y O *C 59.33 56.85 *L 0 *D INVX1
*I *1497:D I *C 60.1 58.995 *L 0.000307 *D DFFHQX1

*CAP
1 *1981:Y 2.99219e-05
2 *1497:D 4.76834e-05
3 *797:2 7.7605249e-05

*RES
1 *1497:D *797:2 4.32813168
2 *797:2 *1981:Y 4.07777
*END

*D_NET *798 0.000139952

*CONN
*I *1980:Y O *C 21.53 18.39 *L 0 *D INVX1
*I *1540:D I *C 21.1 16.245 *L 0.000307 *D DFFHQX1

*CAP
1 *1980:Y 2.39606e-05
2 *1540:D 4.60153e-05
3 *798:2 6.99758545e-05

*RES
1 *1540:D *798:2 4.21845913
2 *798:2 *1980:Y 3.83675
*END

*D_NET *799 0.000203252

*CONN
*I *1979:Y O *C 59.53 50.01 *L 0 *D INVX1
*I *1498:D I *C 60.9 52.155 *L 0.000307 *D DFFHQX1

*CAP
1 *1979:Y 0.000101625918
2 *1498:D 0.000101625918

*RES
1 *1498:D *1979:Y 12.2317
*END

*D_NET *800 0.000191927

*CONN
*I *1978:Y O *C 28.13 21.81 *L 0 *D INVX1
*I *1539:D I *C 29.3 19.665 *L 0.000307 *D DFFHQX1

*CAP
1 *1978:Y 9.59634766e-05
2 *1539:D 9.59634766e-05

*RES
1 *1539:D *1978:Y 8.71491
*END

*D_NET *801 0.00010848

*CONN
*I *1977:Y O *C 30.53 28.65 *L 0 *D INVX1
*I *1538:D I *C 30.5 26.505 *L 0.000307 *D DFFHQX1

*CAP
1 *1538:D 5.42402246e-05
2 *801:2 5.42402246e-05

*RES
1 *1538:D *801:2 4.39333916
2 *801:2 *1977:Y 3.29997
*END

*D_NET *802 9.34601e-05

*CONN
*I *1976:Y O *C 15.93 22.65 *L 0 *D INVX1
*I *1537:D I *C 15.1 23.085 *L 0.000307 *D DFFHQX1

*CAP
1 *1976:Y 1.50205e-05
2 *1537:D 3.17095e-05
3 *802:2 4.67300391e-05

*RES
1 *1537:D *802:2 7.13717937
2 *802:2 *1976:Y 0.485279
*END

*D_NET *803 0.00018692

*CONN
*I *1975:Y O *C 31.73 21.81 *L 0 *D INVX1
*I *1535:D I *C 32.5 19.665 *L 0.000307 *D DFFHQX1

*CAP
1 *1975:Y 9.34600781e-05
2 *1535:D 9.34600781e-05

*RES
1 *1535:D *1975:Y 8.36194
*END

*D_NET *804 0.000148416

*CONN
*I *1974:Y O *C 54.73 49.17 *L 0 *D INVX1
*I *1496:D I *C 55.3 50.445 *L 0.000307 *D DFFHQX1

*CAP
1 *1974:Y 7.42077832e-05
2 *1496:D 7.42077832e-05

*RES
1 *1496:D *1974:Y 8.23057
*END

*D_NET *805 0.000256538

*CONN
*I *1973:Y O *C 63.33 22.65 *L 0 *D INVX1
*I *1533:D I *C 66.3 23.085 *L 0.000307 *D DFFHQX1

*CAP
1 *1533:D 0.000107826
2 *1973:Y 2.04436e-05
3 *805:2 0.000128269199

*RES
1 *805:2 *1973:Y 6.84521
2 *1533:D *805:2 9.11211967
*END

*D_NET *806 0.000290632

*CONN
*I *1972:Y O *C 63.13 25.23 *L 0 *D INVX1
*I *1531:D I *C 66.3 24.795 *L 0.000307 *D DFFHQX1

*CAP
1 *1972:Y 0.000145316123
2 *1531:D 0.000145316123

*RES
1 *1531:D *1972:Y 16.4676
*END

*D_NET *807 0.000351548

*CONN
*I *1971:Y O *C 48.93 50.01 *L 0 *D INVX1
*I *1495:D I *C 50.1 53.865 *L 0.000307 *D DFFHQX1

*CAP
1 *1971:Y 0.000175774102
2 *1495:D 0.000175774102

*RES
1 *1495:D *1971:Y 16.5573
*END

*D_NET *808 0.000222087

*CONN
*I *1970:Y O *C 62.93 28.65 *L 0 *D INVX1
*I *1530:D I *C 65.9 28.215 *L 0.000307 *D DFFHQX1

*CAP
1 *1970:Y 0.000111043457
2 *1530:D 0.000111043457

*RES
1 *1530:D *1970:Y 15.9081
*END

*D_NET *809 0.000147939

*CONN
*I *1969:Y O *C 46.33 59.43 *L 0 *D INVX1
*I *1494:D I *C 46.1 60.705 *L 0.000307 *D DFFHQX1

*CAP
1 *1969:Y 1.95502e-05
2 *1494:D 5.44192e-05
3 *809:2 7.39693652e-05

*RES
1 *1494:D *809:2 4.26387787
2 *809:2 *1969:Y 3.71573
*END

*D_NET *810 0.000148654

*CONN
*I *1968:Y O *C 43.93 50.01 *L 0 *D INVX1
*I *1500:D I *C 44.5 52.155 *L 0.000307 *D DFFHQX1

*CAP
1 *1968:Y 2.03252e-05
2 *1500:D 5.40018e-05
3 *810:2 7.43269922e-05

*RES
1 *1500:D *810:2 4.32813168
2 *810:2 *1968:Y 3.83209
*END

*D_NET *811 1.16825e-05

*CONN
*I *1966:Y O *C 62.745 25.91 *L 0 *D OAI211X1
*I *1935:A I *C 62.9 26.695 *L 0.000395 *D INVX1

*CAP
1 *1966:Y 5.84125488e-06
2 *1935:A 5.84125488e-06

*RES
1 *1935:A *1966:Y 0.24569
*END

*D_NET *812 0.000139356

*CONN
*I *1965:Y O *C 54.945 56.17 *L 0 *D OAI211X1
*I *1934:A I *C 56.5 55.385 *L 0.000395 *D INVX1

*CAP
1 *1965:Y 6.9677832e-05
2 *1934:A 6.9677832e-05

*RES
1 *1934:A *1965:Y 8.52978
*END

*D_NET *813 9.09567e-05

*CONN
*I *1964:Y O *C 64.145 18.55 *L 0 *D OAI211X1
*I *1933:A I *C 64.1 19.855 *L 0.000395 *D INVX1

*CAP
1 *1933:A 3.71932e-05
2 *1964:Y 8.28513e-06
3 *813:2 4.54783447e-05

*RES
1 *813:2 *1964:Y 3.3468
2 *1933:A *813:2 4.28783894
*END

*D_NET *814 1.34706e-05

*CONN
*I *1963:Y O *C 29.545 32.23 *L 0 *D OAI211X1
*I *1932:A I *C 29.7 31.445 *L 0.000395 *D INVX1

*CAP
1 *1963:Y 6.73532471e-06
2 *1932:A 6.73532471e-06

*RES
1 *1932:A *1963:Y 0.24569
*END

*D_NET *815 0.000213861

*CONN
*I *1962:Y O *C 42.545 56.69 *L 0 *D OAI211X1
*I *1931:A I *C 44.5 57.475 *L 0.000395 *D INVX1

*CAP
1 *1962:Y 0.000106930732
2 *1931:A 0.000106930732

*RES
1 *1931:A *1962:Y 15.1174
*END

*D_NET *816 6.47306e-05

*CONN
*I *1961:Y O *C 63.145 43.01 *L 0 *D OAI211X1
*I *1930:A I *C 64.1 43.795 *L 0.000395 *D INVX1

*CAP
1 *1930:A 3.23653223e-05
2 *1961:Y 3.23653223e-05

*RES
1 *1930:A *1961:Y 1.22869
*END

*D_NET *817 0.000115991

*CONN
*I *1960:Y O *C 26.145 15.13 *L 0 *D OAI211X1
*I *1929:A I *C 26.3 13.015 *L 0.000395 *D INVX1

*CAP
1 *1960:Y 5.79953174e-05
2 *1929:A 5.79953174e-05

*RES
1 *1929:A *1960:Y 7.62808
*END

*D_NET *818 2.47955e-05

*CONN
*I *1959:Y O *C 17.745 25.39 *L 0 *D OAI211X1
*I *1928:A I *C 18.1 24.605 *L 0.000395 *D INVX1

*CAP
1 *1959:Y 1.23977661e-05
2 *1928:A 1.23977661e-05

*RES
1 *1928:A *1959:Y 0.4915
*END

*D_NET *819 0.00016737

*CONN
*I *1958:Y O *C 47.345 39.07 *L 0 *D OAI211X1
*I *1927:A I *C 48.5 38.285 *L 0.000395 *D INVX1

*CAP
1 *1958:Y 8.36849219e-05
2 *1927:A 8.36849219e-05

*RES
1 *1927:A *1958:Y 8.19242
*END

*D_NET *820 1.29938e-05

*CONN
*I *1957:Y O *C 61.945 39.59 *L 0 *D OAI211X1
*I *1926:A I *C 62.1 40.375 *L 0.000395 *D INVX1

*CAP
1 *1957:Y 6.49690613e-06
2 *1926:A 6.49690613e-06

*RES
1 *1926:A *1957:Y 0.24569
*END

*D_NET *821 1.27554e-05

*CONN
*I *1956:Y O *C 62.345 36.17 *L 0 *D OAI211X1
*I *1925:A I *C 62.5 36.955 *L 0.000395 *D INVX1

*CAP
1 *1956:Y 6.37769714e-06
2 *1925:A 6.37769714e-06

*RES
1 *1925:A *1956:Y 0.24569
*END

*D_NET *822 2.5034e-05

*CONN
*I *1955:Y O *C 42.145 39.59 *L 0 *D OAI211X1
*I *1924:A I *C 42.5 40.375 *L 0.000395 *D INVX1

*CAP
1 *1955:Y 1.25169751e-05
2 *1924:A 1.25169751e-05

*RES
1 *1924:A *1955:Y 0.4915
*END

*D_NET *823 1.15633e-05

*CONN
*I *1954:Y O *C 62.745 35.65 *L 0 *D OAI211X1
*I *1923:A I *C 62.9 34.865 *L 0.000395 *D INVX1

*CAP
1 *1954:Y 5.78165039e-06
2 *1923:A 5.78165039e-06

*RES
1 *1923:A *1954:Y 0.24569
*END

*D_NET *824 2.55108e-05

*CONN
*I *1953:Y O *C 37.545 42.49 *L 0 *D OAI211X1
*I *1922:A I *C 37.9 41.705 *L 0.000395 *D INVX1

*CAP
1 *1953:Y 1.27553943e-05
2 *1922:A 1.27553943e-05

*RES
1 *1922:A *1953:Y 0.4915
*END

*D_NET *825 0.000310063

*CONN
*I *1952:Y O *C 40.345 56.69 *L 0 *D OAI211X1
*I *1921:A I *C 42.5 58.805 *L 0.000395 *D INVX1

*CAP
1 *1921:A 0.000106096
2 *1952:Y 4.89355e-05
3 *825:2 0.00015503168

*RES
1 *825:2 *1952:Y 7.32379
2 *1921:A *825:2 8.5285902
*END

*D_NET *826 0.000121474

*CONN
*I *1951:Y O *C 36.345 56.69 *L 0 *D OAI211X1
*I *1920:A I *C 37.1 57.475 *L 0.000395 *D INVX1

*CAP
1 *1951:Y 6.07371338e-05
2 *1920:A 6.07371338e-05

*RES
1 *1920:A *1951:Y 7.65455
*END

*D_NET *827 0.000824928

*CONN
*I *1950:Y O *C 55.345 39.07 *L 0 *D OAI211X1
*I *1919:A I *C 62.9 38.285 *L 0.000395 *D INVX1

*CAP
1 *1919:A 6.77097e-05
2 *1950:Y 0.000137211
3 *827:2 0.000204920762
4 *827:2 *1426:B 0.000115036963
5 *1919:A *122:87 0.000300049785

*RES
1 *827:2 *1950:Y 15.0026083
2 *1919:A *827:2 8.07498
*END

*D_NET *828 2.67029e-05

*CONN
*I *1949:Y O *C 55.345 59.59 *L 0 *D OAI211X1
*I *1918:A I *C 55.7 58.805 *L 0.000395 *D INVX1

*CAP
1 *1949:Y 1.33514404e-05
2 *1918:A 1.33514404e-05

*RES
1 *1918:A *1949:Y 0.4915
*END

*D_NET *829 2.563e-05

*CONN
*I *1948:Y O *C 18.745 21.97 *L 0 *D OAI211X1
*I *1917:A I *C 19.1 21.185 *L 0.000395 *D INVX1

*CAP
1 *1948:Y 1.28149988e-05
2 *1917:A 1.28149988e-05

*RES
1 *1917:A *1948:Y 0.4915
*END

*D_NET *830 1.32322e-05

*CONN
*I *1947:Y O *C 59.145 39.07 *L 0 *D OAI211X1
*I *1916:A I *C 59.3 38.285 *L 0.000395 *D INVX1

*CAP
1 *1947:Y 6.61611572e-06
2 *1916:A 6.61611572e-06

*RES
1 *1916:A *1947:Y 0.24569
*END

*D_NET *831 1.27554e-05

*CONN
*I *1946:Y O *C 53.945 42.49 *L 0 *D OAI211X1
*I *1915:A I *C 54.1 41.705 *L 0.000395 *D INVX1

*CAP
1 *1946:Y 6.37769714e-06
2 *1915:A 6.37769714e-06

*RES
1 *1915:A *1946:Y 0.24569
*END

*D_NET *832 0.000258803

*CONN
*I *1945:Y O *C 21.345 32.23 *L 0 *D OAI211X1
*I *1914:A I *C 19.9 31.445 *L 0.000395 *D INVX1

*CAP
1 *1945:Y 2.86694e-05
2 *1914:A 4.57171e-05
3 *832:2 8.36842e-05
4 *832:3 0.000100731846

*RES
1 *832:3 *832:2 7.53068924
2 *1914:A *832:3 4.28784
3 *832:2 *1945:Y 3.68973
*END

*D_NET *833 2.34842e-05

*CONN
*I *1944:Y O *C 47.745 60.11 *L 0 *D OAI211X1
*I *1913:A I *C 48.1 60.895 *L 0.000395 *D INVX1

*CAP
1 *1944:Y 1.17421155e-05
2 *1913:A 1.17421155e-05

*RES
1 *1913:A *1944:Y 0.4915
*END

*D_NET *834 1.28746e-05

*CONN
*I *1943:Y O *C 29.945 35.65 *L 0 *D OAI211X1
*I *1912:A I *C 30.1 34.865 *L 0.000395 *D INVX1

*CAP
1 *1943:Y 6.43730164e-06
2 *1912:A 6.43730164e-06

*RES
1 *1912:A *1943:Y 0.24569
*END

*D_NET *835 0.000100732

*CONN
*I *1942:Y O *C 39.545 39.59 *L 0 *D OAI211X1
*I *1911:A I *C 39.5 41.705 *L 0.000395 *D INVX1

*CAP
1 *1942:Y 5.03659229e-05
2 *1911:A 5.03659229e-05

*RES
1 *1911:A *1942:Y 7.37858
*END

*D_NET *836 7.41482e-05

*CONN
*I *1941:Y O *C 54.345 45.91 *L 0 *D OAI211X1
*I *1910:A I *C 55.5 45.125 *L 0.000395 *D INVX1

*CAP
1 *1910:A 3.70740894e-05
2 *1941:Y 3.70740894e-05

*RES
1 *1910:A *1941:Y 1.4745
*END

*D_NET *837 0.000262976

*CONN
*I *1940:Y O *C 49.345 49.33 *L 0 *D OAI211X1
*I *1909:A I *C 49.1 51.965 *L 0.000395 *D INVX1

*CAP
1 *1940:Y 0.000131487842
2 *1909:A 0.000131487842

*RES
1 *1909:A *1940:Y 8.89099
*END

*D_NET *838 3.92199e-05

*CONN
*I *1939:Y O *C 37.945 46.43 *L 0 *D OAI211X1
*I *1908:A I *C 38.5 47.215 *L 0.000395 *D INVX1

*CAP
1 *1939:Y 1.9609928e-05
2 *1908:A 1.9609928e-05

*RES
1 *1908:A *1939:Y 0.73719
*END

*D_NET *839 1.3113e-05

*CONN
*I *1938:Y O *C 38.545 45.91 *L 0 *D OAI211X1
*I *1907:A I *C 38.7 45.125 *L 0.000395 *D INVX1

*CAP
1 *1938:Y 6.55651123e-06
2 *1907:A 6.55651123e-06

*RES
1 *1907:A *1938:Y 0.24569
*END

*D_NET *840 9.77516e-05

*CONN
*I *1937:Y O *C 22.945 35.65 *L 0 *D OAI211X1
*I *1906:A I *C 23.9 34.865 *L 0.000395 *D INVX1

*CAP
1 *1937:Y 4.88758105e-05
2 *1906:A 4.88758105e-05

*RES
1 *1906:A *1937:Y 11.0006
*END

*D_NET *841 1.18017e-05

*CONN
*I *1936:Y O *C 62.745 32.75 *L 0 *D OAI211X1
*I *1905:A I *C 62.9 33.535 *L 0.000395 *D INVX1

*CAP
1 *1936:Y 5.90085999e-06
2 *1905:A 5.90085999e-06

*RES
1 *1905:A *1936:Y 0.24569
*END

*D_NET *842 0.000746608

*CONN
*I *1967:Y O *C 47.555 16.2 *L 0 *D NAND2X1
*I *1839:AN I *C 42.1 17.955 *L 0.00021 *D NOR2BX1
*I *1830:B0 I *C 42.8 16.44 *L 0.000392 *D AOI21X1

*CAP
1 *1967:Y 0.000149189
2 *1830:B0 1.66895e-05
3 *1839:AN 0.000102462
4 *842:3 0.000189721582
5 *842:4 0.000159681
6 *842:3 *1805:A 0.000128865244

*RES
1 *1839:AN *842:4 11.7827654
2 *842:4 *842:3 1.15659
3 *1830:B0 *842:4 10.0512
4 *842:3 *1967:Y 9.73801
*END

*D_NET *843 0.000296354

*CONN
*I *1935:Y O *C 63.13 26.07 *L 0 *D INVX1
*I *1532:D I *C 66.1 26.505 *L 0.000307 *D DFFHQX1

*CAP
1 *1532:D 0.000128269
2 *1935:Y 1.99084e-05
3 *843:2 0.000148177148

*RES
1 *843:2 *1935:Y 6.84994
2 *1532:D *843:2 9.11211967
*END

*D_NET *844 0.000244498

*CONN
*I *1934:Y O *C 56.73 56.01 *L 0 *D INVX1
*I *1490:D I *C 58.5 57.285 *L 0.000307 *D DFFHQX1

*CAP
1 *1934:Y 0.000122249131
2 *1490:D 0.000122249131

*RES
1 *1490:D *1934:Y 15.7361
*END

*D_NET *845 0.000124097

*CONN
*I *1933:Y O *C 64.33 19.23 *L 0 *D INVX1
*I *1527:D I *C 64.1 21.375 *L 0.000307 *D DFFHQX1

*CAP
1 *1933:Y 1.35307e-05
2 *1527:D 4.85177e-05
3 *845:2 6.20484375e-05

*RES
1 *1527:D *845:2 4.33182716
2 *845:2 *1933:Y 3.64771
*END

*D_NET *846 0.000133634

*CONN
*I *1932:Y O *C 29.93 32.07 *L 0 *D INVX1
*I *1526:D I *C 29.7 29.925 *L 0.000307 *D DFFHQX1

*CAP
1 *1932:Y 1.91932e-05
2 *1526:D 4.76236e-05
3 *846:2 6.68168066e-05

*RES
1 *1526:D *846:2 4.26387787
2 *846:2 *1932:Y 3.68548
*END

*D_NET *847 0.000172734

*CONN
*I *1931:Y O *C 44.73 56.85 *L 0 *D INVX1
*I *1492:D I *C 45.5 58.995 *L 0.000307 *D DFFHQX1

*CAP
1 *1931:Y 8.63671289e-05
2 *1492:D 8.63671289e-05

*RES
1 *1492:D *1931:Y 8.37338
*END

*D_NET *848 0.000213981

*CONN
*I *1930:Y O *C 64.33 43.17 *L 0 *D INVX1
*I *1525:D I *C 66.1 41.895 *L 0.000307 *D DFFHQX1

*CAP
1 *1930:Y 5.90092e-05
2 *1525:D 4.79812e-05
3 *848:2 0.000106990342

*RES
1 *1525:D *848:2 4.31298
2 *848:2 *1930:Y 5.31697273
*END

*D_NET *849 0.000144362

*CONN
*I *1929:Y O *C 26.53 12.39 *L 0 *D INVX1
*I *1544:D I *C 24.9 12.825 *L 0.000307 *D DFFHQX1

*CAP
1 *1929:Y 3.94582e-05
2 *1544:D 3.2723e-05
3 *849:2 7.21812256e-05

*RES
1 *1544:D *849:2 7.13717937
2 *849:2 *1929:Y 1.46825
*END

*D_NET *850 0.000127435

*CONN
*I *1928:Y O *C 18.33 25.23 *L 0 *D INVX1
*I *1534:D I *C 18.5 26.505 *L 0.000307 *D DFFHQX1

*CAP
1 *1928:Y 1.63321e-05
2 *1534:D 4.73853e-05
3 *850:2 6.37173633e-05

*RES
1 *1534:D *850:2 4.26387787
2 *850:2 *1928:Y 3.68548
*END

*D_NET *851 0.000236511

*CONN
*I *1927:Y O *C 48.73 38.91 *L 0 *D INVX1
*I *1524:D I *C 48.5 41.895 *L 0.000307 *D DFFHQX1

*CAP
1 *1927:Y 1.6987e-05
2 *1524:D 9.1374e-05
3 *851:2 2.68813e-05
4 *851:3 0.000101268291

*RES
1 *1524:D *851:3 5.412817
2 *851:3 *851:2 0.211686
3 *851:2 *1927:Y 3.64772
*END

*D_NET *852 0.000296474

*CONN
*I *1926:Y O *C 62.33 39.75 *L 0 *D INVX1
*I *1523:D I *C 65.1 40.185 *L 0.000307 *D DFFHQX1

*CAP
1 *1926:Y 0.000148236748
2 *1523:D 0.000148236748

*RES
1 *1523:D *1926:Y 16.2638
*END

*D_NET *853 0.000277758

*CONN
*I *1925:Y O *C 62.73 36.33 *L 0 *D INVX1
*I *1522:D I *C 65.9 36.765 *L 0.000307 *D DFFHQX1

*CAP
1 *1925:Y 0.000138878818
2 *1522:D 0.000138878818

*RES
1 *1522:D *1925:Y 16.108
*END

*D_NET *854 0.000195503

*CONN
*I *1924:Y O *C 42.73 39.75 *L 0 *D INVX1
*I *1517:D I *C 43.9 41.895 *L 0.000307 *D DFFHQX1

*CAP
1 *1924:Y 5.19149e-05
2 *1517:D 4.58367e-05
3 *854:2 9.77516211e-05

*RES
1 *1517:D *854:2 4.26386
2 *854:2 *1924:Y 4.6916008
*END

*D_NET *855 0.00027442

*CONN
*I *1923:Y O *C 63.13 35.49 *L 0 *D INVX1
*I *1520:D I *C 66.1 35.055 *L 0.000307 *D DFFHQX1

*CAP
1 *1923:Y 0.000137209893
2 *1520:D 0.000137209893

*RES
1 *1520:D *1923:Y 16.3164
*END

*D_NET *856 0.000130534

*CONN
*I *1922:Y O *C 38.13 42.33 *L 0 *D INVX1
*I *1516:D I *C 37.9 43.605 *L 0.000307 *D DFFHQX1

*CAP
1 *1922:Y 1.91335e-05
2 *1516:D 4.61336e-05
3 *856:2 6.5267085e-05

*RES
1 *1516:D *856:2 4.26387787
2 *856:2 *1922:Y 3.68548
*END

*D_NET *857 8.64267e-05

*CONN
*I *1921:Y O *C 42.73 59.43 *L 0 *D INVX1
*I *1493:D I *C 41.9 58.995 *L 0.000307 *D DFFHQX1

*CAP
1 *1921:Y 1.34708e-05
2 *1493:D 2.97426e-05
3 *857:2 4.32133691e-05

*RES
1 *1493:D *857:2 7.16745853
2 *857:2 *1921:Y 0.48526
*END

*D_NET *858 0.000211

*CONN
*I *1920:Y O *C 37.33 56.85 *L 0 *D INVX1
*I *1486:D I *C 38.7 58.995 *L 0.000307 *D DFFHQX1

*CAP
1 *1920:Y 0.000105500225
2 *1486:D 0.000105500225

*RES
1 *1486:D *1920:Y 8.85725
*END

*D_NET *859 0.000260949

*CONN
*I *1919:Y O *C 63.13 38.91 *L 0 *D INVX1
*I *1519:D I *C 65.9 38.475 *L 0.000307 *D DFFHQX1

*CAP
1 *1519:D 0.000101805
2 *1919:Y 2.86692e-05
3 *859:2 0.00013047457

*RES
1 *859:2 *1919:Y 6.85083
2 *1519:D *859:2 8.88216496
*END

*D_NET *860 0.000250697

*CONN
*I *1918:Y O *C 55.93 59.43 *L 0 *D INVX1
*I *1489:D I *C 54.3 60.705 *L 0.000307 *D DFFHQX1

*CAP
1 *1918:Y 8.18366e-05
2 *1489:D 4.35119e-05
3 *860:2 0.000125348564

*RES
1 *1489:D *860:2 4.18451
2 *860:2 *1918:Y 11.4079714
*END

*D_NET *861 0.000108719

*CONN
*I *1917:Y O *C 19.33 21.81 *L 0 *D INVX1
*I *1536:D I *C 19.3 19.665 *L 0.000307 *D DFFHQX1

*CAP
1 *1536:D 5.43594336e-05
2 *861:2 5.43594336e-05

*RES
1 *1536:D *861:2 4.39715385
2 *861:2 *1917:Y 3.29995
*END

*D_NET *862 0.00036782

*CONN
*I *1916:Y O *C 59.53 38.91 *L 0 *D INVX1
*I *1518:D I *C 62.3 38.475 *L 0.000307 *D DFFHQX1

*CAP
1 *1916:Y 0.000141501426
2 *1518:D 0.000141501426
3 *1518:D *420:6 8.48174121e-05

*RES
1 *1518:D *1916:Y 16.6389
*END

*D_NET *863 0.000282645

*CONN
*I *1915:Y O *C 54.33 42.33 *L 0 *D INVX1
*I *1521:D I *C 57.3 41.895 *L 0.000307 *D DFFHQX1

*CAP
1 *1915:Y 0.000141322617
2 *1521:D 0.000141322617

*RES
1 *1521:D *1915:Y 15.9081
*END

*D_NET *864 0.000147939

*CONN
*I *1914:Y O *C 20.13 32.07 *L 0 *D INVX1
*I *1513:D I *C 19.5 33.345 *L 0.000307 *D DFFHQX1

*CAP
1 *1914:Y 1.49604e-05
2 *1513:D 5.11408e-05
3 *864:2 2.28282e-05
4 *864:3 5.90085986e-05

*RES
1 *1513:D *864:3 4.32813168
2 *864:2 *1914:Y 0.485277
3 *864:3 *864:2 3.34681
*END

*D_NET *865 0.000320435

*CONN
*I *1913:Y O *C 48.33 60.27 *L 0 *D INVX1
*I *1488:D I *C 51.1 60.705 *L 0.000307 *D DFFHQX1

*CAP
1 *1913:Y 0.000160217285
2 *1488:D 0.000160217285

*RES
1 *1488:D *1913:Y 16.7589
*END

*D_NET *866 0.000134826

*CONN
*I *1912:Y O *C 30.33 35.49 *L 0 *D INVX1
*I *1515:D I *C 30.1 33.345 *L 0.000307 *D DFFHQX1

*CAP
1 *1912:Y 1.71065e-05
2 *1515:D 5.03063e-05
3 *866:2 6.74128516e-05

*RES
1 *1515:D *866:2 4.24873829
2 *866:2 *1912:Y 3.68549
*END

*D_NET *867 0.000201464

*CONN
*I *1911:Y O *C 39.73 42.33 *L 0 *D INVX1
*I *1514:D I *C 41.1 43.605 *L 0.000307 *D DFFHQX1

*CAP
1 *1911:Y 5.03667e-05
2 *1514:D 5.03667e-05
3 *867:2 0.000100731846

*RES
1 *1514:D *867:2 4.32813
2 *867:2 *1911:Y 4.81772423
*END

*D_NET *868 0.000195026

*CONN
*I *1910:Y O *C 55.73 45.75 *L 0 *D INVX1
*I *1491:D I *C 57.1 43.605 *L 0.000307 *D DFFHQX1

*CAP
1 *1910:Y 4.69688e-05
2 *1491:D 5.05444e-05
3 *868:2 9.75132031e-05

*RES
1 *1491:D *868:2 4.313
2 *868:2 *1910:Y 4.82547283
*END

*D_NET *869 0.00032413

*CONN
*I *1909:Y O *C 49.33 52.59 *L 0 *D INVX1
*I *1487:D I *C 49.9 55.575 *L 0.000307 *D DFFHQX1

*CAP
1 *1909:Y 0.000162065029
2 *1487:D 0.000162065029

*RES
1 *1487:D *1909:Y 16.4181
*END

*D_NET *870 0.000267744

*CONN
*I *1908:Y O *C 38.73 46.59 *L 0 *D INVX1
*I *1510:D I *C 41.7 47.025 *L 0.000307 *D DFFHQX1

*CAP
1 *1908:Y 0.000133872031
2 *1510:D 0.000133872031

*RES
1 *1510:D *1908:Y 16.2069
*END

*D_NET *871 0.000299335

*CONN
*I *1907:Y O *C 38.93 45.75 *L 0 *D INVX1
*I *1512:D I *C 41.9 45.315 *L 0.000307 *D DFFHQX1

*CAP
1 *1907:Y 0.000149667266
2 *1512:D 0.000149667266

*RES
1 *1512:D *1907:Y 16.3769
*END

*D_NET *872 0.000136733

*CONN
*I *1906:Y O *C 24.13 35.49 *L 0 *D INVX1
*I *1511:D I *C 24.3 36.765 *L 0.000307 *D DFFHQX1

*CAP
1 *1906:Y 1.81789e-05
2 *1511:D 5.01876e-05
3 *872:2 6.83665283e-05

*RES
1 *1511:D *872:2 4.26387787
2 *872:2 *1906:Y 3.68808
*END

*D_NET *873 0.000233889

*CONN
*I *1905:Y O *C 63.13 32.91 *L 0 *D INVX1
*I *1528:D I *C 66.1 33.345 *L 0.000307 *D DFFHQX1

*CAP
1 *1528:D 9.59627e-05
2 *1905:Y 2.09816e-05
3 *873:2 0.000116944316

*RES
1 *873:2 *1905:Y 6.84994
2 *1528:D *873:2 9.11211967
*END

*D_NET *874 0.000779808

*CONN
*I *1904:Y O *C 37.94 30.05 *L 0 *D OA22X1
*I *1870:C0 I *C 37.95 21.44 *L 0.000393 *D OAI221X1

*CAP
1 *1904:Y 0.000243902207
2 *1870:C0 0.000243902207
3 *1870:C0 *731:5 0.000133931641
4 *1870:C0 *889:3 0.000158071514

*RES
1 *1870:C0 *1904:Y 30.0239
*END

*D_NET *875 0.000168443

*CONN
*I *1903:Y O *C 47.37 24.58 *L 0 *D OAI22X1
*I *1859:A1 I *C 46.965 22.995 *L 0.000392 *D OAI32X1

*CAP
1 *1859:A1 5.74584e-05
2 *1903:Y 2.6763e-05
3 *875:2 8.42213672e-05

*RES
1 *875:2 *1903:Y 3.83677
2 *1859:A1 *875:2 4.36592102
*END

*D_NET *876 0.000541449

*CONN
*I *1902:Y O *C 41.37 23.3 *L 0 *D OAI22X1
*I *1859:A0 I *C 46.9 23.245 *L 0.000392 *D OAI32X1

*CAP
1 *1859:A0 9.50086e-05
2 *1902:Y 0.000175716
3 *876:2 0.000270724297

*RES
1 *876:2 *1902:Y 9.81795788
2 *1859:A0 *876:2 8.37738
*END

*D_NET *877 0.000986397

*CONN
*I *1901:Y O *C 40.14 23.21 *L 0 *D OA22X1
*I *1869:C0 I *C 51.75 24.86 *L 0.000393 *D OAI221X1

*CAP
1 *1901:Y 0.000372886641
2 *1869:C0 0.000372886641
3 *1869:C0 *708:4 0.000136554238
4 *1869:C0 *405:5 0.000104069707

*RES
1 *1869:C0 *1901:Y 36.9133
*END

*D_NET *878 0.00167823

*CONN
*I *1900:Y O *C 38.37 34.84 *L 0 *D OAI22X1
*I *1856:A1 I *C 49.165 24.885 *L 0.000392 *D OAI32X1

*CAP
1 *1900:Y 0.00062936543
2 *1856:A1 0.00062936543
3 *1856:A1 *1008:11 0.000149428848
4 *1856:A1 *354:4 0.000149786475
5 *1856:A1 *1092:17 0.000120282178

*RES
1 *1856:A1 *1900:Y 43.7754
*END

*D_NET *879 0.000981629

*CONN
*I *1899:Y O *C 48.77 36.98 *L 0 *D OAI22X1
*I *1856:A0 I *C 49.1 24.635 *L 0.000392 *D OAI32X1

*CAP
1 *1856:A0 5.62663e-05
2 *1899:Y 3.56436e-05
3 *879:2 0.000395178789
4 *879:3 0.000374556
5 *879:2 *907:2 0.00011998415

*RES
1 *879:3 *1899:Y 3.72798
2 *879:2 *879:3 21.5219269
3 *1856:A0 *879:2 4.15227
*END

*D_NET *880 0.000195265

*CONN
*I *1898:Y O *C 41.94 34.93 *L 0 *D OA22X1
*I *1875:C0 I *C 42.75 36.7 *L 0.000393 *D OAI221X1

*CAP
1 *1898:Y 9.76324121e-05
2 *1875:C0 9.76324121e-05

*RES
1 *1875:C0 *1898:Y 8.47054
*END

*D_NET *881 0.000814676

*CONN
*I *1897:Y O *C 49.37 31.42 *L 0 *D OAI22X1
*I *1862:A0 I *C 45.05 26.49 *L 0.000392 *D OAI31X1

*CAP
1 *1897:Y 4.35138e-05
2 *1862:A0 7.35537e-05
3 *881:2 0.000333787
4 *881:3 0.000363826758

*RES
1 *881:3 *881:2 11.8244886
2 *1862:A0 *881:3 4.55146
3 *881:2 *1897:Y 4.22236
*END

*D_NET *882 0.000601292

*CONN
*I *1896:Y O *C 38.97 26.72 *L 0 *D OAI22X1
*I *1862:A1 I *C 45.3 26.695 *L 0.000392 *D OAI31X1

*CAP
1 *1896:Y 0.00030064582
2 *1862:A1 0.00030064582

*RES
1 *1862:A1 *1896:Y 18.9234
*END

*D_NET *883 0.000532091

*CONN
*I *1895:Y O *C 47.77 34.84 *L 0 *D OAI22X1
*I *1868:A I *C 46.02 29.99 *L 0.000392 *D NOR4X1

*CAP
1 *1895:Y 0.000224649902
2 *1868:A 0.000224649902
3 *1868:A *1015:9 8.27908496e-05

*RES
1 *1868:A *1895:Y 24.9557
*END

*D_NET *884 0.000171423

*CONN
*I *1894:Y O *C 47.57 28 *L 0 *D OAI22X1
*I *1868:D I *C 46.605 29.93 *L 0.000392 *D NOR4X1

*CAP
1 *1894:Y 8.57114746e-05
2 *1868:D 8.57114746e-05

*RES
1 *1868:D *1894:Y 8.30603
*END

*D_NET *885 0.000189781

*CONN
*I *1893:Y O *C 46.37 31.42 *L 0 *D OAI22X1
*I *1868:B I *C 46.225 29.67 *L 0.000392 *D NOR4X1

*CAP
1 *1893:Y 9.48905957e-05
2 *1868:B 9.48905957e-05

*RES
1 *1868:B *1893:Y 8.30841
*END

*D_NET *886 0.000842512

*CONN
*I *1892:Y O *C 39.57 28 *L 0 *D OAI22X1
*I *1868:C I *C 46.385 29.48 *L 0.000392 *D NOR4X1

*CAP
1 *1868:C 5.91277e-05
2 *1892:Y 0.000182271
3 *886:2 0.000241398809
4 *886:2 *1040:2 9.70959668e-05
5 *886:2 *987:9 0.000262618066

*RES
1 *886:2 *1892:Y 15.6441927
2 *1868:C *886:2 4.5749
*END

*D_NET *887 0.000479698

*CONN
*I *1891:Y O *C 51.14 34.93 *L 0 *D OA22X1
*I *1874:C0 I *C 52.95 31.7 *L 0.000393 *D OAI221X1

*CAP
1 *1874:C0 5.66839e-05
2 *1891:Y 0.000183165
3 *887:2 0.000239849082

*RES
1 *887:2 *1891:Y 12.9870176
2 *1874:C0 *887:2 4.22233
*END

*D_NET *888 0.00056839

*CONN
*I *1890:Y O *C 36.77 23.3 *L 0 *D OAI22X1
*I *1860:A0 I *C 43.7 23.245 *L 0.000392 *D OAI32X1

*CAP
1 *1890:Y 0.000284194941
2 *1860:A0 0.000284194941

*RES
1 *1860:A0 *1890:Y 18.7416
*END

*D_NET *889 0.00132871

*CONN
*I *1889:Y O *C 37.77 31.42 *L 0 *D OAI22X1
*I *1860:A1 I *C 43.765 22.995 *L 0.000392 *D OAI32X1

*CAP
1 *1860:A1 0.000160575
2 *1889:Y 2.84324e-05
3 *889:2 0.000208439
4 *889:3 0.000340580938
5 *889:3 *734:6 0.000111341475
6 *889:3 *1870:C0 0.000158071514
7 *1860:A1 *1902:B1 0.000195384023
8 *1860:A1 *1860:B1 0.00012588501

*RES
1 *889:3 *889:2 16.2776718
2 *889:2 *1889:Y 3.79123
3 *1860:A1 *889:3 11.5523
*END

*D_NET *890 0.00058198

*CONN
*I *1888:Y O *C 50.94 36.89 *L 0 *D OA22X1
*I *1873:C0 I *C 51.15 31.7 *L 0.000393 *D OAI221X1

*CAP
1 *1888:Y 0.000290989883
2 *1873:C0 0.000290989883

*RES
1 *1873:C0 *1888:Y 24.7136
*END

*D_NET *891 0.00118089

*CONN
*I *1887:Y O *C 39.97 34.84 *L 0 *D OAI22X1
*I *1864:A1 I *C 40.1 21.185 *L 0.000392 *D OAI31X1

*CAP
1 *1864:A1 7.24791e-05
2 *1887:Y 6.88437e-05
3 *891:2 7.58761e-05
4 *891:3 0.000297724
5 *891:4 0.000363171094
6 *891:4 *928:4 0.000189065938
7 *891:4 *1894:A1 0.000113725664

*RES
1 *891:4 *891:3 9.66859
2 *891:2 *1887:Y 7.66638
3 *891:3 *891:2 3.35709
4 *1864:A1 *891:4 11.2439394
*END

*D_NET *892 0.000467956

*CONN
*I *1886:Y O *C 36.37 21.16 *L 0 *D OAI22X1
*I *1864:A0 I *C 39.85 21.39 *L 0.000392 *D OAI31X1

*CAP
1 *1886:Y 0.000101089473
2 *1864:A0 0.000101089473
3 *1864:A0 *123:13 0.000183165078
4 *1864:A0 *739:4 8.2612041e-05

*RES
1 *1864:A0 *1886:Y 16.2822
*END

*D_NET *893 0.000466228

*CONN
*I *1885:Y O *C 49.74 34.93 *L 0 *D OA22X1
*I *1872:C0 I *C 50.15 29.86 *L 0.000393 *D OAI221X1

*CAP
1 *1872:C0 6.43122e-05
2 *1885:Y 0.000168802
3 *893:2 0.00023311377

*RES
1 *893:2 *1885:Y 19.7240105
2 *1872:C0 *893:2 4.22223
*END

*D_NET *894 0.00100029

*CONN
*I *1884:Y O *C 41.34 30.05 *L 0 *D OA22X1
*I *1871:C0 I *C 47.15 33.28 *L 0.000393 *D OAI221X1

*CAP
1 *1871:C0 7.53412e-05
2 *1884:Y 0.000289022
3 *894:2 0.000364363203
4 *894:2 *1036:2 9.20295703e-05
5 *894:2 *1029:2 0.000179529199

*RES
1 *894:2 *1884:Y 19.8256969
2 *1871:C0 *894:2 7.81762
*END

*D_NET *895 0.000160813

*CONN
*I *1883:Y O *C 36.74 35.27 *L 0 *D NAND4XL
*I *1857:AN I *C 37.1 33.345 *L 0.00021 *D NAND4BX1

*CAP
1 *1883:Y 1.4544e-05
2 *1857:AN 6.58627e-05
3 *895:2 8.0406665e-05

*RES
1 *1857:AN *895:2 4.4375658
2 *895:2 *1883:Y 3.59679
*END

*D_NET *896 0.000160336

*CONN
*I *1882:Y O *C 34.94 35.27 *L 0 *D NAND4XL
*I *1867:AN I *C 35.5 33.345 *L 0.00021 *D NAND3BXL

*CAP
1 *1867:AN 5.98433e-05
2 *1882:Y 2.03249e-05
3 *896:2 8.01682471e-05

*RES
1 *896:2 *1882:Y 3.84245
2 *1867:AN *896:2 4.4375658
*END

*D_NET *897 0.000120878

*CONN
*I *1881:Y O *C 46.34 38.69 *L 0 *D NAND4XL
*I *1853:AN I *C 45.9 40.185 *L 0.00021 *D NAND4BX1

*CAP
1 *1853:AN 6.04391113e-05
2 *897:2 6.04391113e-05

*RES
1 *897:2 *1881:Y 3.29994
2 *1853:AN *897:2 4.22227383
*END

*D_NET *898 0.000270367

*CONN
*I *1865:AN I *C 34.7 24.795 *L 0.00021 *D NAND3BXL
*I *1880:Y O *C 36.34 26.28 *L 0 *D NAND4X1

*CAP
1 *1880:Y 3.21276e-05
2 *1865:AN 0.000103056
3 *898:2 0.00013518333

*RES
1 *1865:AN *898:2 11.7155313
2 *898:2 *1880:Y 3.9128
*END

*D_NET *899 6.85453e-05

*CONN
*I *1858:AN I *C 52.5 35.055 *L 0.00021 *D NAND4BX1
*I *1879:Y O *C 53.74 35.27 *L 0 *D NAND4XL

*CAP
1 *1879:Y 2.32459e-05
2 *1858:AN 1.10268e-05
3 *899:2 3.42726709e-05

*RES
1 *1858:AN *899:2 3.40201
2 *899:2 *1879:Y 3.6444664
*END

*D_NET *900 0.000282526

*CONN
*I *1854:AN I *C 37.9 19.665 *L 0.00021 *D NAND4BX1
*I *1878:Y O *C 35.94 19.45 *L 0 *D NAND4XL

*CAP
1 *1854:AN 9.83485e-05
2 *1878:Y 4.29146e-05
3 *900:2 0.000141263008

*RES
1 *900:2 *1878:Y 7.37821
2 *1854:AN *900:2 7.96866417
*END

*D_NET *901 0.000151753

*CONN
*I *1877:Y O *C 53.74 29.71 *L 0 *D NAND4XL
*I *1855:AN I *C 54.3 28.215 *L 0.00021 *D NAND4BX1

*CAP
1 *1877:Y 7.58767139e-05
2 *1855:AN 7.58767139e-05

*RES
1 *1855:AN *1877:Y 8.03888
*END

*D_NET *902 0.000224233

*CONN
*I *1866:AN I *C 44.9 43.605 *L 0.00021 *D NAND3BXL
*I *1876:Y O *C 43.14 43.39 *L 0 *D NAND4XL

*CAP
1 *1876:Y 0.000112116338
2 *1866:AN 0.000112116338

*RES
1 *1866:AN *1876:Y 9.55439
*END

*D_NET *903 0.000165582

*CONN
*I *1242:A I *C 43.3 35.055 *L 0.00021 *D BUFX2
*I *1875:Y O *C 42.94 36.32 *L 0 *D OAI221X1

*CAP
1 *1875:Y 8.27908496e-05
2 *1242:A 8.27908496e-05

*RES
1 *1242:A *1875:Y 11.4157
*END

*D_NET *904 0.000347972

*CONN
*I *1275:A I *C 52.7 28.215 *L 0.00021 *D BUFX2
*I *1874:Y O *C 53.14 32.08 *L 0 *D OAI221X1

*CAP
1 *1874:Y 3.8921e-05
2 *1275:A 0.000117958
3 *904:2 5.60289e-05
4 *904:3 0.000135064121

*RES
1 *1275:A *904:3 5.50878048
2 *904:3 *904:2 0.362875
3 *904:2 *1874:Y 3.93498
*END

*D_NET *905 0.000348091

*CONN
*I *1241:A I *C 53.9 31.635 *L 0.00021 *D BUFX2
*I *1873:Y O *C 51.34 32.08 *L 0 *D OAI221X1

*CAP
1 *1873:Y 0.000174045566
2 *1241:A 0.000174045566

*RES
1 *1241:A *1873:Y 16.2382
*END

*D_NET *906 0.000780046

*CONN
*I *1872:Y O *C 50.34 29.48 *L 0 *D OAI221X1
*I *1861:A0 I *C 48.7 21.565 *L 0.000391 *D OAI211X1

*CAP
1 *1872:Y 0.000109016
2 *1861:A0 0.000230254
3 *906:2 0.000339269648
4 *1861:A0 *724:8 0.000101506709

*RES
1 *1861:A0 *906:2 21.995306
2 *906:2 *1872:Y 5.22764
*END

*D_NET *907 0.00104082

*CONN
*I *1871:Y O *C 47.34 32.9 *L 0 *D OAI221X1
*I *1859:A2 I *C 47.185 23.11 *L 0.000391 *D OAI32X1

*CAP
1 *1871:Y 0.000348804
2 *1859:A2 6.84885e-05
3 *907:2 0.000417292109
4 *907:2 *1004:11 8.62479199e-05
5 *907:2 *879:2 0.00011998415

*RES
1 *1859:A2 *907:2 7.57557
2 *907:2 *1871:Y 22.3777294
*END

*D_NET *908 0.000118494

*CONN
*I *1287:A I *C 39.1 21.375 *L 0.00021 *D BUFX2
*I *1870:Y O *C 38.14 21.82 *L 0 *D OAI221X1

*CAP
1 *1870:Y 5.92470166e-05
2 *1287:A 5.92470166e-05

*RES
1 *1287:A *1870:Y 7.64465
*END

*D_NET *909 0.00039953

*CONN
*I *1869:Y O *C 51.94 25.24 *L 0 *D OAI221X1
*I *1856:A2 I *C 49.385 24.77 *L 0.000391 *D OAI32X1

*CAP
1 *1869:Y 2.28291e-05
2 *1856:A2 6.69355e-05
3 *909:2 8.97645996e-05
4 *1856:A2 *1903:B0 0.000112235547
5 *1856:A2 *1869:B1 0.000107765195

*RES
1 *1856:A2 *909:2 8.87584686
2 *909:2 *1869:Y 6.80505
*END

*D_NET *910 0.000521779

*CONN
*I *1868:Y O *C 46.74 29.285 *L 0 *D NOR4X1
*I *1863:B I *C 48.605 24.83 *L 0.000212 *D NOR2XL

*CAP
1 *1868:Y 0.000260889531
2 *1863:B 0.000260889531

*RES
1 *1863:B *1868:Y 11.7803
*END

*D_NET *911 0.000140667

*CONN
*I *1867:Y O *C 35.36 33.02 *L 0 *D NAND3BXL
*I *1850:AN I *C 34.7 31.635 *L 0.00021 *D NAND3BXL

*CAP
1 *1867:Y 4.36897e-05
2 *1850:AN 2.66438e-05
3 *911:2 7.03334814e-05

*RES
1 *1850:AN *911:2 3.85939
2 *911:2 *1867:Y 3.93497944
*END

*D_NET *912 0.000303388

*CONN
*I *1866:Y O *C 44.76 43.28 *L 0 *D NAND3BXL
*I *1844:AN I *C 46.5 43.605 *L 0.00021 *D NAND3BXL

*CAP
1 *1844:AN 0.00012666
2 *1866:Y 2.50335e-05
3 *912:2 0.000151693818

*RES
1 *912:2 *1866:Y 3.85566
2 *1844:AN *912:2 12.4181509
*END

*D_NET *913 0.000468731

*CONN
*I *1865:Y O *C 34.56 25.12 *L 0 *D NAND3BXL
*I *1843:AN I *C 35.17 21.44 *L 0.00021 *D NAND3BX2

*CAP
1 *1843:AN 0.000212014
2 *1865:Y 2.23512e-05
3 *913:2 0.000234365469

*RES
1 *913:2 *1865:Y 3.62553
2 *1843:AN *913:2 7.13264942
*END

*D_NET *914 0.000789881

*CONN
*I *1864:Y O *C 40.67 21.68 *L 0 *D OAI31X1
*I *1840:A I *C 44.14 21.64 *L 0.000212 *D AND3XL
*I *1814:A0 I *C 46.3 21.185 *L 0.000391 *D AOI31X1
*I *1812:A0N I *C 42.645 22.82 *L 0.000209 *D OAI2BB1X1

*CAP
1 *1814:A0 8.12412e-05
2 *1840:A 2.575e-05
3 *1812:A0N 2.84316e-05
4 *1864:Y 7.28366e-05
5 *914:4 0.000146448613
6 *914:5 0.000140726
7 *1814:A0 *666:5 0.000100612637
8 *1814:A0 *98:3 0.000193834297

*RES
1 *914:5 *1864:Y 8.35312
2 *1812:A0N *914:5 10.6582642
3 *1840:A *914:4 6.9296
4 *914:4 *914:5 1.26999
5 *1814:A0 *914:4 8.77043
*END

*D_NET *915 0.000451088

*CONN
*I *1863:Y O *C 48.725 25.085 *L 0 *D NOR2XL
*I *1849:AN I *C 46.5 24.795 *L 0.00021 *D NAND2BX1
*I *1826:A0 I *C 44.9 24.795 *L 0.000211 *D OAI21XL

*CAP
1 *1863:Y 0.000104128
2 *1849:AN 2.54505e-05
3 *1826:A0 9.5965e-05
4 *915:3 0.000225543984

*RES
1 *1826:A0 *915:3 8.07506
2 *1849:AN *915:3 10.2295876
3 *915:3 *1863:Y 8.51212
*END

*D_NET *916 0.000534654

*CONN
*I *1862:Y O *C 45.87 26.2 *L 0 *D OAI31X1
*I *1848:B I *C 44.365 24.675 *L 0.000392 *D NOR2BX1
*I *1823:A I *C 44.9 22.895 *L 0.000392 *D NAND3X1

*CAP
1 *1862:Y 5.54445e-06
2 *1823:A 9.77509e-05
3 *916:3 0.000169577
4 *916:4 0.000261783594

*RES
1 *1848:B *916:4 3.29987
2 *916:4 *916:3 12.6957893
3 *1823:A *916:4 5.2276
4 *916:3 *1862:Y 0.208833
*END

*D_NET *917 0.00015831

*CONN
*I *1859:Y O *C 47.55 23.21 *L 0 *D OAI32X1
*I *1832:AN I *C 48.1 21.375 *L 0.00021 *D NOR2BX1

*CAP
1 *1832:AN 5.97838e-05
2 *1859:Y 1.93711e-05
3 *917:2 7.91549707e-05

*RES
1 *917:2 *1859:Y 3.62548
2 *1832:AN *917:2 7.90023804
*END

*D_NET *918 0.000261426

*CONN
*I *1858:Y O *C 52.24 35.68 *L 0 *D NAND4BX1
*I *1845:AN I *C 53.1 33.345 *L 0.00021 *D NAND2BX2

*CAP
1 *1858:Y 0.000130712988
2 *1845:AN 0.000130712988

*RES
1 *1845:AN *1858:Y 9.36353
*END

*D_NET *919 0.000587344

*CONN
*I *1857:Y O *C 36.84 32.72 *L 0 *D NAND4BX1
*I *1852:AN I *C 39.5 31.635 *L 0.00021 *D NAND2BX1

*CAP
1 *1852:AN 0.000115873
2 *1857:Y 4.76229e-05
3 *919:2 0.000163495537
4 *1852:AN *1010:12 0.000130891797
5 *1852:AN *1017:13 0.000129461289

*RES
1 *919:2 *1857:Y 4.06734
2 *1852:AN *919:2 12.9158497
*END

*D_NET *920 0.00025177

*CONN
*I *1270:A I *C 48.3 21.185 *L 0.000395 *D INVX1
*I *1861:Y O *C 49.545 21.97 *L 0 *D OAI211X1

*CAP
1 *1861:Y 2.36633e-05
2 *1270:A 0.000102222
3 *920:2 0.00012588501

*RES
1 *1270:A *920:2 11.1094713
2 *920:2 *1861:Y 10.1117
*END

*D_NET *921 0.00087136

*CONN
*I *1860:Y O *C 44.35 23.21 *L 0 *D OAI32X1
*I *1840:B I *C 43.66 21.43 *L 0.000211 *D AND3XL
*I *1826:B0 I *C 45.5 24.605 *L 0.000212 *D OAI21XL
*I *1814:A1 I *C 46.55 21.565 *L 0.000391 *D AOI31X1

*CAP
1 *1814:A1 8.53539e-05
2 *1826:B0 0.000152945
3 *1860:Y 0.00020515918
4 *1840:B 1.37681e-05
5 *921:4 0.000151336
6 *1814:A1 *123:13 0.000137388711
7 *1814:A1 *98:3 0.000125408174

*RES
1 *1840:B *921:4 3.65528
2 *921:4 *1860:Y 4.40035
3 *1826:B0 *1860:Y 15.1079893
4 *1814:A1 *921:4 12.3064
*END

*D_NET *922 0.000211954

*CONN
*I *1244:A I *C 55.3 28.215 *L 0.00021 *D BUFX2
*I *1855:Y O *C 54.04 28.84 *L 0 *D NAND4BX1

*CAP
1 *1855:Y 0.000105977061
2 *1244:A 0.000105977061

*RES
1 *1244:A *1855:Y 15.0712
*END

*D_NET *923 0.000264764

*CONN
*I *1854:Y O *C 37.64 19.04 *L 0 *D NAND4BX1
*I *1847:AN I *C 38.9 19.665 *L 0.00021 *D NAND2BX1

*CAP
1 *1854:Y 0.000132381914
2 *1847:AN 0.000132381914

*RES
1 *1847:AN *1854:Y 15.1371
*END

*D_NET *924 2.83718e-05

*CONN
*I *1853:Y O *C 45.64 39.56 *L 0 *D NAND4BX1
*I *1851:AN I *C 44.5 40.185 *L 0.00021 *D NAND2BX2

*CAP
1 *1851:AN 1.41859058e-05
2 *1853:Y 1.41859058e-05

*RES
1 *1851:AN *1853:Y 0.4915
*END

*D_NET *925 0.000588417

*CONN
*I *1856:Y O *C 49.75 24.67 *L 0 *D OAI32X1
*I *1849:B I *C 45.9 24.605 *L 0.000392 *D NAND2BX1
*I *1848:AN I *C 44.7 24.795 *L 0.00021 *D NOR2BX1

*CAP
1 *1856:Y 0.000150622
2 *1849:B 3.40928e-05
3 *1848:AN 7.79638e-05
4 *925:3 0.000182151797
5 *925:4 0.000143587

*RES
1 *1848:AN *925:4 11.3397
2 *925:4 *925:3 0.536602
3 *1849:B *925:4 6.93601
4 *925:3 *1856:Y 12.7277374
*END

*D_NET *926 0.000176787

*CONN
*I *1848:Y O *C 44.32 24.465 *L 0 *D NOR2BX1
*I *1826:A1 I *C 45.3 24.795 *L 0.000212 *D OAI21XL

*CAP
1 *1848:Y 8.83936914e-05
2 *1826:A1 8.83936914e-05

*RES
1 *1826:A1 *1848:Y 8.40676
*END

*D_NET *927 0.00104606

*CONN
*I *1804:B I *C 44.365 9.525 *L 0.000392 *D NOR2BX1
*I *2256:A0 I *C 39.56 16.02 *L 0.000211 *D AO21XL
*I *1245:Y O *C 42.53 8.97 *L 0 *D INVX1

*CAP
1 *1804:B 8.64887e-05
2 *1245:Y 5.74e-05
3 *2256:A0 6.76509e-05
4 *927:3 0.000397980195
5 *927:4 0.000321748
6 *927:4 *670:13 0.000114798545

*RES
1 *927:4 *927:3 16.2163963
2 *2256:A0 *927:4 4.42675
3 *927:3 *1245:Y 10.6724
4 *1804:B *927:3 11.5358
*END

*D_NET *928 0.0014345

*CONN
*I *1246:A I *C 40.9 17.765 *L 0.000395 *D INVX1
*I *1842:A I *C 39.5 17.765 *L 0.000392 *D NOR2X1
*I *1852:Y O *C 39.12 32.095 *L 0 *D NAND2BX1

*CAP
1 *1246:A 0.000113547
2 *1842:A 1.82975e-05
3 *1852:Y 7.14654e-05
4 *928:3 0.00027883
5 *928:4 0.000281155117
6 *928:5 0.000112891
7 *928:6 0.00013435
8 *928:4 *677:10 0.000129520889
9 *928:4 *891:4 0.000189065938
10 *928:4 *96:15 0.000105381016

*RES
1 *928:6 *928:5 3.61506
2 *928:5 *928:4 7.87099
3 *928:4 *928:3 8.53472
4 *928:3 *1852:Y 11.0121965
5 *1842:A *928:5 3.84677
6 *1246:A *928:6 8.05314
*END

*D_NET *929 0.00298226

*CONN
*I *1831:A1 I *C 40.44 9.38 *L 0.000391 *D OAI21X1
*I *1794:A1 I *C 40.46 10.965 *L 0.000212 *D AOI211XL
*I *1838:B I *C 40.1 17.765 *L 0.000392 *D NAND2BX1
*I *1833:A I *C 44.7 17.765 *L 0.000392 *D NOR2X1
*I *1851:Y O *C 44.15 39.56 *L 0 *D NAND2BX2

*CAP
1 *1833:A 0.000103417
2 *1851:Y 4.38063e-05
3 *1794:A1 1.41859e-05
4 *1831:A1 3.45755e-05
5 *1838:B 0.000105265
6 *929:5 0.000530601
7 *929:6 0.000654697422
8 *929:7 0.000296055
9 *929:8 0.000417054
10 *929:8 *114:8 8.97645996e-05
11 *929:7 *1831:A0 0.000124454502
12 *929:6 *1720:A1 0.000203609473
13 *929:6 *110:4 0.000242590898
14 *1833:A *117:19 0.000122189521

*RES
1 *1838:B *929:8 8.90223
2 *929:7 *929:8 17.5089836
3 *1831:A1 *929:7 7.44458
4 *1794:A1 *929:7 3.57254
5 *929:8 *929:6 5.21107
6 *929:6 *929:5 15.0623
7 *929:5 *1851:Y 10.3091
8 *1833:A *929:6 15.1919
*END

*D_NET *930 0.000267744

*CONN
*I *1278:A I *C 34.3 28.215 *L 0.00021 *D BUFX2
*I *1850:Y O *C 34.56 31.96 *L 0 *D NAND3BXL

*CAP
1 *1278:A 5.92468e-05
2 *1850:Y 6.46112e-05
3 *930:2 6.92606e-05
4 *930:3 7.46250146e-05

*RES
1 *930:3 *1850:Y 4.50956821
2 *1278:A *930:2 4.50599
3 *930:2 *930:3 0.181453
*END

*D_NET *931 0.00054884

*CONN
*I *1849:Y O *C 46.12 25.255 *L 0 *D NAND2BX1
*I *1832:B I *C 47.765 21.255 *L 0.000392 *D NOR2BX1
*I *1814:A2 I *C 46.7 21.375 *L 0.000392 *D AOI31X1

*CAP
1 *1832:B 9.01801e-05
2 *1849:Y 0.000122128
3 *1814:A2 1.69871e-05
4 *931:3 0.000229299063
5 *931:3 *944:2 9.02414355e-05

*RES
1 *1814:A2 *931:3 3.50414
2 *931:3 *1849:Y 6.33126
3 *1832:B *931:3 11.0343695
*END

*D_NET *932 0.00166738

*CONN
*I *1847:Y O *C 38.52 19.205 *L 0 *D NAND2BX1
*I *1834:A I *C 43.3 16.435 *L 0.000392 *D NOR2X1
*I *1805:A I *C 45.1 13.015 *L 0.000392 *D NOR2X1
*I *1819:B I *C 43.9 14.345 *L 0.000393 *D NOR3BX1
*I *1830:A1 I *C 42.52 16.39 *L 0.000392 *D AOI21X1
*I *2257:AN I *C 38.1 16.245 *L 0.00021 *D NAND2BX1
*I *1825:A I *C 38.1 14.345 *L 0.000211 *D NAND2XL

*CAP
1 *1805:A 0.00017053
2 *1819:B 4.94123e-05
3 *1834:A 2.62857e-05
4 *1830:A1 1.63917e-05
5 *1825:A 5.35237e-05
6 *2257:AN 1.08462e-05
7 *932:7 0.000250637539
8 *932:8 0.000186681
9 *932:9 5.50764e-05
10 *932:10 0.000172913
11 *932:11 0.000206052
12 *932:12 0.0001927
13 *932:7 *117:19 0.000147461895
14 *1805:A *842:3 0.000128865244

*RES
1 *2257:AN *932:12 3.46626
2 *932:11 *932:12 0.188906
3 *932:12 *932:10 19.4656849
4 *1825:A *932:11 7.58804
5 *932:10 *1847:Y 0.499889
6 *1830:A1 *932:9 10.4668
7 *932:8 *932:11 7.35042
8 *932:9 *932:8 0.370387
9 *1834:A *932:9 7.1036
10 *1819:B *932:7 7.35844
11 *932:7 *932:8 0.816516
12 *1805:A *932:7 16.9544
*END

*D_NET *933 0.00135696

*CONN
*I *2258:B I *C 46.1 16.435 *L 0.000392 *D NAND2BX1
*I *1846:Y O *C 49.75 19.04 *L 0 *D NAND2BX2
*I *1837:B I *C 44.7 14.345 *L 0.000392 *D NAND2BX1
*I *1829:A1 I *C 48.24 14.56 *L 0.000391 *D OAI21X1
*I *1822:C I *C 46.9 14.345 *L 0.000392 *D NOR3BX1
*I *1819:C I *C 43.7 14.345 *L 0.000392 *D NOR3BX1
*I *1818:A I *C 45.74 14.59 *L 0.000392 *D NOR3X1

*CAP
1 *1846:Y 1.75821e-05
2 *1829:A1 3.28441e-05
3 *2258:B 9.07779e-05
4 *1818:A 9.59431e-06
5 *1837:B 1.87758e-05
6 *1819:C 8.98849e-05
7 *933:7 0.000258149
8 *933:8 0.000294089316
9 *933:9 0.000135182
10 *933:10 7.62339e-05
11 *933:11 9.44712e-05
12 *933:12 0.000141025
13 *1829:A1 *1822:AN 9.8347666e-05

*RES
1 *1819:C *933:12 14.9461031
2 *933:12 *933:11 0.854311
3 *1837:B *933:12 3.64758
4 *1818:A *933:11 3.43663
5 *933:11 *933:10 7.8067
6 *2258:B *933:9 5.21253
7 *933:10 *933:9 0.491468
8 *933:9 *933:8 0.574482
9 *1822:C *933:10 6.60004
10 *933:8 *933:7 5.54116
11 *1829:A1 *933:8 3.92217
12 *933:7 *1846:Y 3.64758
*END

*D_NET *934 0.00217927

*CONN
*I *1845:Y O *C 52.75 32.72 *L 0 *D NAND2BX2
*I *1837:AN I *C 45.3 14.535 *L 0.00021 *D NAND2BX1
*I *1835:B I *C 45.175 16.015 *L 0.000392 *D NOR2X1
*I *1822:B I *C 47.1 14.345 *L 0.000393 *D NOR3BX1
*I *1818:B I *C 45.9 14.535 *L 0.000393 *D NOR3X1

*CAP
1 *1845:Y 8.14189e-05
2 *1822:B 7.46838e-05
3 *1818:B 1.26353e-05
4 *1837:AN 2.64665e-05
5 *1835:B 5.23351e-05
6 *934:5 0.000717822
7 *934:6 0.000739336016
8 *934:7 9.44152e-05
9 *934:6 *724:8 0.000105619434
10 *934:6 *1784:A0 0.000118732451
11 *934:5 *1874:B1 0.000155806543

*RES
1 *1835:B *934:7 4.32819
2 *1837:AN *934:7 3.83312
3 *934:7 *934:6 0.392811
4 *1818:B *934:6 3.57274
5 *934:6 *934:5 36.6191864
6 *1822:B *934:6 5.09928
7 *934:5 *1845:Y 4.86684
*END

*D_NET *935 0.000171065

*CONN
*I *1286:A I *C 45.3 41.895 *L 0.00021 *D BUFX2
*I *1844:Y O *C 46.36 43.28 *L 0 *D NAND3BXL

*CAP
1 *1844:Y 1.87757e-05
2 *1286:A 6.67572021e-05
3 *935:2 1.87757e-05
4 *935:3 6.67572021e-05

*RES
1 *1286:A *935:3 7.69233704
2 *935:2 *1844:Y 0.657304
3 *935:3 *935:2 3.2999
*END

*D_NET *936 0.0017122

*CONN
*I *1839:B I *C 41.765 17.835 *L 0.000392 *D NOR2BX1
*I *1834:B I *C 43.575 16.015 *L 0.000392 *D NOR2X1
*I *1835:A I *C 44.9 16.435 *L 0.000392 *D NOR2X1
*I *1843:Y O *C 34.86 21.865 *L 0 *D NAND3BX2

*CAP
1 *1835:A 0.000106872
2 *1834:B 4.7686e-05
3 *1843:Y 9.05849e-06
4 *936:4 0.00025392
5 *936:5 0.000528156758
6 *936:6 0.000437854
7 *936:5 *732:6 0.000101208691
8 *1835:A *1081:2 0.000227451328

*RES
1 *936:6 *1843:Y 0.28877
2 *1839:B *936:5 3.29984
3 *936:5 *936:6 19.6723938
4 *936:4 *936:5 5.30803
5 *1834:B *936:4 10.6584
6 *1835:A *936:4 12.1265
*END

*D_NET *937 0.000800014

*CONN
*I *1836:Y O *C 44.33 12.39 *L 0 *D INVX1
*I *1827:B I *C 45.9 13.205 *L 0.000392 *D NAND2X1
*I *1810:AN I *C 48.3 12.825 *L 0.00021 *D NAND3BX1
*I *1806:A0 I *C 45.025 9.54 *L 0.000391 *D OAI21X1

*CAP
1 *1810:AN 0.000129701
2 *1827:B 2.42575e-05
3 *1806:A0 0.000162782
4 *1836:Y 4.42875e-05
5 *937:4 0.000192941
6 *937:5 0.000246047969

*RES
1 *937:5 *1836:Y 7.16772
2 *1806:A0 *937:5 16.2670612
3 *937:4 *937:5 0.816381
4 *1827:B *937:4 6.85001
5 *1810:AN *937:4 8.8608
*END

*D_NET *938 0.00129473

*CONN
*I *1842:Y O *C 39.915 17.83 *L 0 *D NOR2X1
*I *1836:A I *C 44.1 13.015 *L 0.000395 *D INVX1
*I *1817:A0N I *C 44.245 18.22 *L 0.000209 *D OAI2BB1X1
*I *1807:A0 I *C 42.14 10.835 *L 0.000392 *D AOI221X1

*CAP
1 *1817:A0N 1.44845e-05
2 *1842:Y 0.000219523
3 *1807:A0 0.000198129
4 *938:4 0.000449240195
5 *938:5 0.000413361

*RES
1 *1807:A0 *938:5 13.5601
2 *938:5 *938:4 14.618516
3 *938:4 *1842:Y 10.8941
4 *1836:A *938:5 3.29996
5 *1817:A0N *938:4 10.0886
*END

*D_NET *939 0.00110924

*CONN
*I *1841:Y O *C 38.915 17.83 *L 0 *D NOR2X1
*I *1820:A1 I *C 38.92 10.97 *L 0.000392 *D AOI21X1
*I *1809:A1 I *C 40.9 13.015 *L 0.000391 *D AOI32X1
*I *1780:A0 I *C 41.14 16.525 *L 0.000392 *D AOI221X1

*CAP
1 *1780:A0 0.000132145
2 *1809:A1 8.83344e-05
3 *1820:A1 9.45334e-05
4 *1841:Y 1.34138e-05
5 *939:4 0.000322518
6 *939:5 0.000359833242
7 *1809:A1 *673:17 9.8466875e-05

*RES
1 *939:5 *939:4 3.39796
2 *939:4 *1841:Y 3.57249
3 *1820:A1 *939:5 5.37137
4 *1809:A1 *939:5 11.9089
5 *1780:A0 *939:4 12.2727156
*END

*D_NET *940 0.000479341

*CONN
*I *1840:Y O *C 44.3 20.995 *L 0 *D AND3XL
*I *1823:B I *C 45.1 23.085 *L 0.00039 *D NAND3X1
*I *1720:B0 I *C 44.9 19.665 *L 0.000389 *D AOI32X1

*CAP
1 *1823:B 3.8981e-05
2 *1840:Y 4.88773e-05
3 *1720:B0 0.000104247
4 *940:3 0.000192105762
5 *1823:B *960:4 9.51290137e-05

*RES
1 *1720:B0 *940:3 6.07359409
2 *940:3 *1840:Y 4.31303
3 *1823:B *940:3 4.02759
*END

*D_NET *941 0.00033617

*CONN
*I *2256:A1 I *C 39.92 16.23 *L 0.000211 *D AO21XL
*I *1839:Y O *C 41.72 17.625 *L 0 *D NOR2BX1
*I *1780:B0 I *C 41.7 16.435 *L 0.00039 *D AOI221X1

*CAP
1 *1780:B0 4.16038e-05
2 *1839:Y 2.44965e-05
3 *2256:A1 0.000101985
4 *941:3 0.000168085098

*RES
1 *2256:A1 *941:3 11.675477
2 *941:3 *1839:Y 3.71486
3 *1780:B0 *941:3 3.98405
*END

*D_NET *942 0.000745893

*CONN
*I *2257:B I *C 37.5 16.435 *L 0.000392 *D NAND2BX1
*I *1838:Y O *C 40.32 18.415 *L 0 *D NAND2BX1
*I *1803:C1 I *C 40.3 12.825 *L 0.000392 *D OAI222X1

*CAP
1 *1803:C1 0.000146628
2 *1838:Y 3.30806e-05
3 *2257:B 0.000144958
4 *942:3 4.13061e-05
5 *942:4 0.000299811367
6 *1803:C1 *96:13 8.01086426e-05

*RES
1 *2257:B *942:4 9.06994
2 *942:3 *1838:Y 3.99929
3 *942:4 *942:3 3.3469
4 *1803:C1 *942:4 16.5205002
*END

*D_NET *943 0.000813127

*CONN
*I *1837:Y O *C 44.92 14.995 *L 0 *D NAND2BX1
*I *1828:B I *C 42.3 13.205 *L 0.000392 *D NAND2X1
*I *1786:A1 I *C 41.1 14.535 *L 0.000391 *D OAI211X1

*CAP
1 *1837:Y 1.41865e-05
2 *1828:B 0.00012088
3 *1786:A1 1.25781e-05
4 *943:3 0.000117601
5 *943:4 0.000236868867
6 *943:4 *117:19 0.000107884404
7 *943:4 *945:8 0.000203132637

*RES
1 *1786:A1 *943:4 3.50411
2 *943:4 *943:3 10.0593567
3 *1828:B *943:4 5.77949
4 *943:3 *1837:Y 3.57241
*END

*D_NET *944 0.000426531

*CONN
*I *1832:Y O *C 47.72 21.045 *L 0 *D NOR2BX1
*I *1823:C I *C 45.39 23.14 *L 0.000392 *D NAND3X1

*CAP
1 *1832:Y 1.65104e-05
2 *1823:C 0.000151634
3 *944:2 0.000168144707
4 *944:2 *931:3 9.02414355e-05

*RES
1 *1823:C *944:2 7.55214691
2 *944:2 *1832:Y 3.6477
*END

*D_NET *945 0.00147676

*CONN
*I *2256:B0 I *C 40.14 15.91 *L 0.00021 *D AO21XL
*I *1835:Y O *C 45.315 16.37 *L 0 *D NOR2X1
*I *1825:B I *C 38.4 14.585 *L 0.000212 *D NAND2XL
*I *1821:A1N I *C 43.9 13.015 *L 0.00021 *D OAI2BB1X1
*I *1819:AN I *C 44.345 14.575 *L 0.00021 *D NOR3BX1
*I *1815:A I *C 37.9 13.015 *L 0.000211 *D NAND2XL

*CAP
1 *1835:Y 1.96085e-05
2 *1821:A1N 8.76789e-05
3 *2256:B0 4.3213e-05
4 *1825:B 1.57378e-05
5 *1815:A 3.69527e-05
6 *945:6 0.000120761
7 *945:7 0.000119803
8 *945:8 0.000270187
9 *945:9 0.000293254844
10 *945:10 0.000165822
11 *1815:A *519:6 0.000100612637
12 *945:8 *943:4 0.000203132637

*RES
1 *945:10 *945:9 5.49274
2 *1815:A *945:10 7.80951977
3 *1825:B *945:10 3.7116
4 *2256:B0 *945:9 7.35837
5 *945:9 *945:8 3.23542
6 *1821:A1N *945:7 4.91014
7 *1819:AN *945:7 3.3
8 *945:7 *945:8 3.76915
9 *945:8 *945:6 5.35665
10 *945:6 *1835:Y 3.64772
*END

*D_NET *946 0.000888586

*CONN
*I *1834:Y O *C 43.715 16.37 *L 0 *D NOR2X1
*I *1818:C I *C 46.16 14.685 *L 0.000392 *D NOR3X1
*I *1816:A I *C 46.3 12.825 *L 0.00039 *D NAND2X1
*I *1810:B I *C 47.9 13.015 *L 0.00039 *D NAND3BX1
*I *1798:B0 I *C 42.9 14.535 *L 0.000392 *D OAI22X1

*CAP
1 *1810:B 0.00010252
2 *1816:A 3.77307e-05
3 *1834:Y 5.32254e-05
4 *1798:B0 1.77637e-05
5 *946:5 0.000197889
6 *946:6 0.00020509959
7 *946:7 8.11823e-05
8 *946:8 0.000193179

*RES
1 *1798:B0 *946:8 3.64214
2 *946:8 *946:7 0.631236
3 *946:7 *1834:Y 4.22235
4 *946:6 *946:8 9.22972
5 *1818:C *946:6 3.30004
6 *946:5 *946:6 0.960052
7 *1816:A *946:5 3.93499
8 *1810:B *946:5 11.6106272
*END

*D_NET *947 0.00093472

*CONN
*I *1833:Y O *C 45.115 17.83 *L 0 *D NOR2X1
*I *1827:A I *C 45.7 12.825 *L 0.00039 *D NAND2X1
*I *1822:AN I *C 47.545 14.575 *L 0.00021 *D NOR3BX1
*I *1817:A1N I *C 44.5 17.765 *L 0.00021 *D OAI2BB1X1

*CAP
1 *1822:AN 5.54933e-05
2 *1827:A 9.55451e-05
3 *1833:Y 3.3677e-05
4 *1817:A1N 5.72812e-05
5 *947:4 0.000320136543
6 *947:5 4.077e-05
7 *947:6 0.000233472
8 *1822:AN *1829:A1 9.8347666e-05

*RES
1 *1817:A1N *947:6 4.49439
2 *947:6 *947:5 0.151191
3 *947:5 *1833:Y 4.07873
4 *1827:A *947:4 14.9674416
5 *947:4 *947:6 6.60056
6 *1822:AN *947:4 7.93181
*END

*D_NET *948 9.75132e-05

*CONN
*I *1830:Y O *C 42.98 15.99 *L 0 *D AOI21X1
*I *1798:B1 I *C 42.7 14.725 *L 0.000392 *D OAI22X1

*CAP
1 *1830:Y 2.8193e-05
2 *1798:B1 2.05636e-05
3 *948:2 4.87566016e-05

*RES
1 *1798:B1 *948:2 3.68548
2 *948:2 *1830:Y 3.76915932
*END

*D_NET *949 0.000473976

*CONN
*I *1829:Y O *C 48.565 14.83 *L 0 *D OAI21X1
*I *1789:A0 I *C 46.94 10.835 *L 0.000392 *D AOI221X1

*CAP
1 *1829:Y 2.03257e-05
2 *1789:A0 8.88112e-05
3 *949:2 0.000107944
4 *949:3 0.000176429746
5 *1789:A0 *1810:C 8.04662695e-05

*RES
1 *1789:A0 *949:3 5.31841
2 *949:3 *949:2 7.97390938
3 *949:2 *1829:Y 3.68971
*END

*D_NET *950 0.000573397

*CONN
*I *1831:Y O *C 40.765 9.11 *L 0 *D OAI21X1
*I *1807:A1 I *C 42.34 11.005 *L 0.000392 *D AOI221X1
*I *1806:B0 I *C 45.395 9.23 *L 0.000393 *D OAI21X1

*CAP
1 *1806:B0 0.000113667
2 *1831:Y 6.87239e-05
3 *1807:A1 4.49428e-05
4 *950:3 0.000190734863
5 *950:4 5.3287e-05
6 *1806:B0 *678:6 0.000102043154

*RES
1 *1807:A1 *950:4 4.14296
2 *950:4 *950:3 3.3468
3 *950:3 *1831:Y 8.0749
4 *1806:B0 *950:3 12.6520395
*END

*D_NET *951 0.000425696

*CONN
*I *1826:Y O *C 45.74 25.2 *L 0 *D OAI21XL
*I *1812:A1N I *C 42.9 23.275 *L 0.00021 *D OAI2BB1X1

*CAP
1 *1826:Y 0.000115692
2 *1812:A1N 9.71563e-05
3 *951:2 0.000212848184

*RES
1 *1812:A1N *951:2 8.57174397
2 *951:2 *1826:Y 8.44487
*END

*D_NET *952 0.000144958

*CONN
*I *1825:Y O *C 38.54 14.245 *L 0 *D NAND2XL
*I *1808:A1 I *C 39.34 14.425 *L 0.000392 *D AOI221X1

*CAP
1 *1825:Y 7.2479248e-05
2 *1808:A1 7.2479248e-05

*RES
1 *1808:A1 *1825:Y 14.2543
*END

*D_NET *953 0.000447035

*CONN
*I *1828:Y O *C 42.555 12.78 *L 0 *D NAND2X1
*I *1824:A I *C 38.5 13.015 *L 0.000395 *D INVX1
*I *1809:A2 I *C 41.1 13.015 *L 0.000392 *D AOI32X1

*CAP
1 *1809:A2 2.37211e-05
2 *1828:Y 8.43421e-05
3 *1824:A 0.000115454
4 *953:3 0.000223517422

*RES
1 *1824:A *953:3 8.80420208
2 *953:3 *1828:Y 7.9686
3 *1809:A2 *953:3 6.84994
*END

*D_NET *954 0.000168204

*CONN
*I *1824:Y O *C 38.73 12.39 *L 0 *D INVX1
*I *1808:A0 I *C 39.14 14.255 *L 0.000392 *D AOI221X1
*I *1803:A0 I *C 39.34 12.56 *L 0.000392 *D OAI222X1

*CAP
1 *1803:A0 2.18151e-05
2 *1824:Y 8.41021582e-05
3 *1808:A0 6.22871e-05

*RES
1 *1808:A0 *1824:Y 7.79020786
2 *1803:A0 *1824:Y 0.737226
*END

*D_NET *955 0.000319839

*CONN
*I *1827:Y O *C 46.155 12.78 *L 0 *D NAND2X1
*I *1816:B I *C 46.5 13.205 *L 0.000392 *D NAND2X1
*I *1813:B I *C 45.7 10.925 *L 0.000392 *D NAND2BX1

*CAP
1 *1816:B 2.86098e-05
2 *1827:Y 1.47224e-05
3 *1813:B 5.80546e-05
4 *955:3 4.58358e-05
5 *955:4 9.00030176e-05
6 *1816:B *961:5 8.2612041e-05

*RES
1 *1813:B *955:4 4.46414948
2 *955:4 *1827:Y 3.64769
3 *955:3 *955:4 0.453595
4 *1816:B *955:3 4.22226
*END

*D_NET *956 0.000206113

*CONN
*I *1821:Y O *C 43.335 12.34 *L 0 *D OAI2BB1X1
*I *1809:B1 I *C 41.5 13.205 *L 0.000392 *D AOI32X1

*CAP
1 *1821:Y 8.01681e-05
2 *1809:B1 2.28883e-05
3 *956:2 0.000103056436

*RES
1 *1809:B1 *956:2 6.75913
2 *956:2 *1821:Y 7.92384148
*END

*D_NET *957 9.67979e-05

*CONN
*I *1820:Y O *C 39.38 11.37 *L 0 *D AOI21X1
*I *1803:A1 I *C 39.54 12.37 *L 0.000391 *D OAI222X1

*CAP
1 *1820:Y 4.83989697e-05
2 *1803:A1 4.83989697e-05

*RES
1 *1803:A1 *1820:Y 7.60591
*END

*D_NET *958 0.000252128

*CONN
*I *1819:Y O *C 44.09 14.17 *L 0 *D NOR3BX1
*I *1798:A0 I *C 42.145 14.765 *L 0.000392 *D OAI22X1

*CAP
1 *1819:Y 2.42587e-05
2 *1798:A0 0.000101805
3 *958:2 0.000126063828

*RES
1 *1798:A0 *958:2 8.00812244
2 *958:2 *1819:Y 6.80512
*END

*D_NET *959 0.0012902

*CONN
*I *2255:B I *C 52.965 12.945 *L 0.000392 *D NOR2BX1
*I *1787:B1 I *C 52.54 18.03 *L 0.000392 *D AOI22X1
*I *1718:B1 I *C 46.14 19.59 *L 0.000392 *D AOI22X1
*I *1271:Y O *C 46.93 19.23 *L 0 *D INVX1

*CAP
1 *2255:B 0.00024122
2 *1787:B1 5.32253e-05
3 *1271:Y 0.000167371
4 *1718:B1 2.75395e-05
5 *959:4 0.000448286523
6 *959:5 4.10698e-05
7 *959:4 *1070:3 0.000112533574
8 *959:4 *1069:8 0.000198960313

*RES
1 *1718:B1 *959:5 0.835446
2 *959:5 *1271:Y 0.528445
3 *959:4 *1271:Y 11.3957
4 *1787:B1 *959:4 10.5468
5 *2255:B *959:4 18.3238983
*END

*D_NET *960 0.000680327

*CONN
*I *1272:A I *C 42.9 19.855 *L 0.000395 *D INVX1
*I *1707:B1 I *C 42.7 20.995 *L 0.000392 *D AOI32X1
*I *1720:B1 I *C 44.7 20.045 *L 0.000392 *D AOI32X1
*I *1823:Y O *C 45.565 22.45 *L 0 *D NAND3X1

*CAP
1 *1823:Y 7.42074e-05
2 *1720:B1 2.34252e-05
3 *1707:B1 5.4062e-05
4 *960:4 0.000119985
5 *960:5 0.00016433
6 *960:6 0.00014919
7 *960:4 *1823:B 9.51290137e-05

*RES
1 *1707:B1 *960:6 4.40441
2 *960:6 *960:5 4.77841
3 *1272:A *960:6 3.2999
4 *1720:B1 *960:5 6.75914
5 *960:5 *960:4 7.58361816
6 *960:4 *1823:Y 5.22774
*END

*D_NET *961 0.000743627

*CONN
*I *1822:Y O *C 47.29 14.17 *L 0 *D NOR3BX1
*I *1813:AN I *C 46.3 11.115 *L 0.00021 *D NAND2BX1
*I *1811:B I *C 46.175 9.175 *L 0.000392 *D NOR2X1
*I *1810:C I *C 47.7 13.015 *L 0.000392 *D NAND3BX1

*CAP
1 *1810:C 6.35392e-05
2 *1822:Y 9.23961e-06
3 *1813:AN 4.47155e-06
4 *1811:B 8.02873e-05
5 *961:4 0.000100671
6 *961:5 0.000196278086
7 *961:6 0.000126063
8 *961:5 *1816:B 8.2612041e-05
9 *1810:C *1789:A0 8.04662695e-05

*RES
1 *1811:B *961:6 4.84591
2 *1813:AN *961:6 3.33629
3 *961:6 *961:5 1.52325
4 *961:4 *1822:Y 0.239612
5 *961:5 *961:4 5.33394
6 *1810:C *961:5 10.8898878
*END

*D_NET *962 8.36849e-05

*CONN
*I *1817:Y O *C 43.935 18.44 *L 0 *D OAI2BB1X1
*I *1796:A I *C 43.05 17.92 *L 0.000211 *D OR2X1

*CAP
1 *1796:A 4.18424609e-05
2 *962:2 4.18424609e-05

*RES
1 *1796:A *962:2 7.28464127
2 *962:2 *1817:Y 0.499974
*END

*D_NET *963 0.000203252

*CONN
*I *1816:Y O *C 46.755 12.78 *L 0 *D NAND2X1
*I *1789:A1 I *C 47.14 11.005 *L 0.000392 *D AOI221X1

*CAP
1 *1816:Y 2.01469e-05
2 *1789:A1 8.14791e-05
3 *963:2 0.000101625918

*RES
1 *1789:A1 *963:2 4.50956821
2 *963:2 *1816:Y 3.95736
*END

*D_NET *964 0.000197291

*CONN
*I *1815:Y O *C 38.34 13.115 *L 0 *D NAND2XL
*I *1803:B1 I *C 39.7 13.015 *L 0.000391 *D OAI222X1

*CAP
1 *1815:Y 9.86456836e-05
2 *1803:B1 9.86456836e-05

*RES
1 *1803:B1 *1815:Y 14.6878
*END

*D_NET *965 0.00021565

*CONN
*I *1814:Y O *C 47.14 21.835 *L 0 *D AOI31X1
*I *1718:B0 I *C 46.365 19.785 *L 0.000389 *D AOI22X1

*CAP
1 *1814:Y 4.04711e-05
2 *1718:B0 6.73537e-05
3 *965:2 0.000107824805

*RES
1 *1718:B0 *965:2 4.68361378
2 *965:2 *1814:Y 4.07865
*END

*D_NET *966 0.000593901

*CONN
*I *1818:Y O *C 46.34 14.395 *L 0 *D NOR3X1
*I *1811:A I *C 45.9 9.595 *L 0.000392 *D NOR2X1
*I *1806:A1 I *C 45.24 9.38 *L 0.000391 *D OAI21X1

*CAP
1 *1811:A 5.13796e-05
2 *1818:Y 2.44382e-05
3 *1806:A1 6.11557e-05
4 *966:3 0.000184415
5 *966:4 0.000272512441

*RES
1 *1806:A1 *966:4 7.59780407
2 *966:4 *966:3 2.94818
3 *966:3 *1818:Y 3.79137
4 *1811:A *966:4 4.19342
*END

*D_NET *967 0.000271082

*CONN
*I *1812:Y O *C 42.335 22.6 *L 0 *D OAI2BB1X1
*I *1707:B0 I *C 42.9 21.375 *L 0.000389 *D AOI32X1

*CAP
1 *1812:Y 0.000135540967
2 *1707:B0 0.000135540967

*RES
1 *1707:B0 *1812:Y 12.7875
*END

*D_NET *968 0.00039804

*CONN
*I *1813:Y O *C 45.92 11.575 *L 0 *D NAND2BX1
*I *1805:B I *C 45.375 12.595 *L 0.000392 *D NOR2X1
*I *1789:B1 I *C 47.3 10.925 *L 0.000392 *D AOI221X1

*CAP
1 *1789:B1 8.52336e-05
2 *1805:B 5.12014e-05
3 *1813:Y 2.03856e-05
4 *968:3 0.000136435029
5 *968:4 2.03856e-05
6 *1805:B *673:12 8.44001758e-05

*RES
1 *968:4 *1813:Y 0.657235
2 *968:3 *968:4 3.3
3 *1805:B *968:3 4.22221
4 *1789:B1 *968:3 11.7652416
*END

*D_NET *969 0.000356555

*CONN
*I *1811:Y O *C 46.315 9.53 *L 0 *D NOR2X1
*I *1804:AN I *C 44.7 9.405 *L 0.00021 *D NOR2BX1
*I *1788:A1 I *C 47.1 9.405 *L 0.000391 *D OAI211X1

*CAP
1 *1788:A1 6.27038e-05
2 *1811:Y 2.29488e-05
3 *1804:AN 9.26249e-05
4 *969:3 0.0001782775

*RES
1 *1804:AN *969:3 11.3669634
2 *969:3 *1811:Y 6.80169
3 *1788:A1 *969:3 7.53779
*END

*D_NET *970 0.000118613

*CONN
*I *1809:Y O *C 41.57 12.365 *L 0 *D AOI32X1
*I *1786:B0 I *C 41.3 14.345 *L 0.00039 *D OAI211X1

*CAP
1 *1786:B0 5.93066211e-05
2 *970:2 5.93066211e-05

*RES
1 *970:2 *1809:Y 3.29994
2 *1786:B0 *970:2 4.22227383
*END

*D_NET *971 0.000352383

*CONN
*I *1808:Y O *C 40.14 14.805 *L 0 *D AOI221X1
*I *1794:C0 I *C 40.9 10.925 *L 0.000212 *D AOI211XL

*CAP
1 *1808:Y 0.000127554
2 *1794:C0 4.86378e-05
3 *971:2 0.000176191328

*RES
1 *1794:C0 *971:2 4.22231
2 *971:2 *1808:Y 5.39433956
*END

*D_NET *972 0.000341177

*CONN
*I *1807:Y O *C 43.14 11.385 *L 0 *D AOI221X1
*I *1798:A1 I *C 42.3 14.535 *L 0.000391 *D OAI22X1

*CAP
1 *1807:Y 4.14244e-05
2 *1798:A1 0.000129164
3 *972:2 0.000170588496

*RES
1 *1798:A1 *972:2 5.78701496
2 *972:2 *1807:Y 4.07862
*END

*D_NET *973 0.00077033

*CONN
*I *1810:Y O *C 48.015 12.2 *L 0 *D NAND3BX1
*I *1802:B I *C 56.175 11.345 *L 0.000392 *D NOR2X1
*I *1801:C I *C 55.19 12.88 *L 0.000392 *D NAND3X1

*CAP
1 *1802:B 5.69235e-05
2 *1801:C 2.16975e-05
3 *1810:Y 0.000267683
4 *973:3 9.57857e-05
5 *973:4 0.000328242773

*RES
1 *973:4 *1810:Y 12.6489401
2 *1801:C *973:4 6.81973
3 *973:3 *973:4 4.09427
4 *1802:B *973:3 4.65303
*END

*D_NET *974 0.000224233

*CONN
*I *1806:Y O *C 45.565 9.11 *L 0 *D OAI21X1
*I *1788:B0 I *C 47.3 9.595 *L 0.00039 *D OAI211X1

*CAP
1 *1806:Y 0.000112116338
2 *1788:B0 0.000112116338

*RES
1 *1788:B0 *1806:Y 15.0381
*END

*D_NET *975 0.000188708

*CONN
*I *1805:Y O *C 45.515 12.95 *L 0 *D NOR2X1
*I *1799:B1 I *C 44.9 11.305 *L 0.000392 *D OAI22X1

*CAP
1 *1805:Y 2.5272e-05
2 *1799:B1 6.90822e-05
3 *975:2 9.43541504e-05

*RES
1 *1799:B1 *975:2 4.6530962
2 *975:2 *1805:Y 3.70446
*END

*D_NET *976 0.000152826

*CONN
*I *1804:Y O *C 44.32 9.735 *L 0 *D NOR2BX1
*I *1799:A1 I *C 44.5 11.115 *L 0.000391 *D OAI22X1

*CAP
1 *1799:A1 5.86505e-05
2 *1804:Y 1.77627e-05
3 *976:2 7.64131543e-05

*RES
1 *976:2 *1804:Y 3.49821
2 *1799:A1 *976:2 4.36592102
*END

*D_NET *977 0.000129223

*CONN
*I *1803:Y O *C 40.54 12.19 *L 0 *D OAI222X1
*I *1794:B0 I *C 40.76 10.95 *L 0.000212 *D AOI211XL

*CAP
1 *1803:Y 6.46114355e-05
2 *1794:B0 6.46114355e-05

*RES
1 *1794:B0 *1803:Y 7.74193
*END

*D_NET *978 0.00044167

*CONN
*I *1802:Y O *C 56.315 10.99 *L 0 *D NOR2X1
*I *1800:B0 I *C 57.965 10.965 *L 0.000793 *D AOI21X2
*I *1797:B I *C 59.405 9.37 *L 0.000212 *D NOR2XL

*CAP
1 *1797:B 5.5551e-05
2 *1802:Y 8.39243e-05
3 *1800:B0 2.15183e-05
4 *978:3 0.000115395
5 *978:4 0.000165283672

*RES
1 *1800:B0 *978:4 6.80503
2 *978:4 *1802:Y 8.07499886
3 *978:3 *978:4 4.4759
4 *1797:B *978:3 4.43758
*END

*D_NET *979 0.000297666

*CONN
*I *1799:Y O *C 44.97 10.9 *L 0 *D OAI22X1
*I *1789:C0 I *C 47.7 10.925 *L 0.000392 *D AOI221X1

*CAP
1 *1789:C0 0.000124394
2 *1799:Y 2.44387e-05
3 *979:2 0.000148832803

*RES
1 *979:2 *1799:Y 6.84987
2 *1789:C0 *979:2 9.02700424
*END

*D_NET *980 0.00113499

*CONN
*I *1247:A I *C 51.7 19.855 *L 0.000395 *D INVX1
*I *1248:Y O *C 52.53 15.81 *L 0 *D INVX1
*I *1791:B I *C 51.3 16.625 *L 0.000392 *D NAND2X1
*I *1785:B I *C 53.5 21.375 *L 0.000211 *D AND2X1
*I *1714:A I *C 51.1 17.955 *L 0.00039 *D NAND2X1
*I *1713:A0N I *C 53.445 15.98 *L 0.000209 *D OAI2BB1X1
*I *1695:A I *C 54.3 21.375 *L 0.00039 *D NAND2X1

*CAP
1 *1695:A 4.01735e-05
2 *1785:B 2.08008e-05
3 *1713:A0N 8.43419e-05
4 *1248:Y 2.83705e-05
5 *1791:B 1.35905e-05
6 *980:7 0.000164689
7 *980:8 0.000208437441
8 *980:9 0.000163137
9 *980:10 0.000118612
10 *980:11 0.000159323
11 *980:7 *123:13 9.60827e-05
12 *1695:A *123:13 3.74316999e-05

*RES
1 *980:11 *980:10 0.929905
2 *1714:A *980:11 3.29993
3 *980:10 *980:9 4.17346
4 *1791:B *980:10 3.57255
5 *980:8 *980:11 2.07132
6 *1247:A *980:8 3.29993
7 *980:9 *1248:Y 7.19762
8 *1713:A0N *980:9 11.4747286
9 *1785:B *980:7 6.75989
10 *980:7 *980:8 5.76083
11 *1695:A *980:7 7.44607
*END

*D_NET *981 0.000674129

*CONN
*I *1248:A I *C 52.3 16.435 *L 0.000395 *D INVX1
*I *1795:B I *C 51.975 16.015 *L 0.000392 *D NOR2X1
*I *1716:A I *C 54.65 16.28 *L 0.000211 *D OR2X1
*I *1801:Y O *C 55.365 12.19 *L 0 *D NAND3X1

*CAP
1 *1801:Y 6.73577e-06
2 *1716:A 2.12183e-05
3 *1248:A 2.56308e-05
4 *1795:B 4.48826e-05
5 *981:4 0.000166773
6 *981:5 0.000259816641
7 *981:6 0.000149071

*RES
1 *1795:B *981:6 7.12197
2 *981:6 *981:5 1.72346
3 *1248:A *981:6 6.9296
4 *981:5 *981:4 9.72771645
5 *1716:A *981:5 6.7592
6 *981:4 *1801:Y 0.239571
*END

*D_NET *982 0.00137436

*CONN
*I *2255:AN I *C 53.3 12.825 *L 0.00021 *D NOR2BX1
*I *1800:Y O *C 57.665 11.28 *L 0 *D AOI21X2
*I *1713:B0 I *C 53.265 16.205 *L 0.00039 *D OAI2BB1X1
*I *1712:A I *C 55.3 16.245 *L 0.00039 *D NAND2X1
*I *1706:A1 I *C 56.3 16.245 *L 0.000391 *D OAI211X1
*I *1705:A1 I *C 56.7 14.535 *L 0.000391 *D OAI211X1
*I *1686:A1 I *C 56.9 17.955 *L 0.000391 *D OAI211X1

*CAP
1 *1800:Y 6.28224e-05
2 *1686:A1 6.795e-05
3 *1706:A1 2.2531e-05
4 *1712:A 3.05185e-05
5 *2255:AN 7.02742e-05
6 *1713:B0 4.56571e-05
7 *982:7 0.000105203
8 *982:8 0.000129761
9 *982:9 8.63682e-05
10 *982:10 7.64731e-05
11 *982:11 8.76775e-05
12 *982:12 0.000192107
13 *982:13 0.000205278398
14 *982:14 6.44324e-05
15 *1686:A1 *1800:A0 0.000127315518

*RES
1 *982:14 *982:13 0.457407
2 *1713:B0 *982:14 7.52221
3 *2255:AN *982:13 8.01843
4 *982:13 *982:12 8.74209404
5 *982:12 *982:11 7.48926
6 *1712:A *982:12 3.83347
7 *982:11 *982:10 0.540512
8 *1706:A1 *982:11 3.85801
9 *1705:A1 *982:9 3.2999
10 *982:9 *982:8 1.82936
11 *982:10 *982:9 0.491423
12 *982:7 *982:10 0.990315
13 *1686:A1 *982:7 4.79671
14 *982:8 *1800:Y 4.76416
*END

*D_NET *983 0.000288725

*CONN
*I *1798:Y O *C 42.77 14.32 *L 0 *D OAI22X1
*I *1796:B I *C 42.7 17.765 *L 0.00021 *D OR2X1

*CAP
1 *1798:Y 9.48318e-05
2 *1796:B 4.95306e-05
3 *983:2 0.000144362451

*RES
1 *1796:B *983:2 4.22224
2 *983:2 *1798:Y 5.11193275
*END

*D_NET *984 0.000204802

*CONN
*I *1797:Y O *C 59.525 9.115 *L 0 *D NOR2XL
*I *1556:D I *C 61.1 11.115 *L 0.000307 *D DFFHQX1

*CAP
1 *1797:Y 4.93527e-05
2 *1556:D 5.30481e-05
3 *984:2 0.000102400781

*RES
1 *1556:D *984:2 4.47167
2 *984:2 *1797:Y 5.06079197
*END

*D_NET *985 0.000345945

*CONN
*I *1794:Y O *C 41.14 11.555 *L 0 *D AOI211XL
*I *1786:C0 I *C 41.585 14.535 *L 0.000392 *D OAI211X1

*CAP
1 *1794:Y 0.000172972676
2 *1786:C0 0.000172972676

*RES
1 *1786:C0 *1794:Y 9.81951
*END

*D_NET *986 0.00240839

*CONN
*I *1793:Y O *C 47.13 18.39 *L 0 *D INVX1
*I *1784:A0 I *C 52.1 11.115 *L 0.000392 *D OAI221X1
*I *1773:A I *C 47.01 26.5 *L 0.000792 *D NAND2X2
*I *1771:A I *C 41.41 26.5 *L 0.000792 *D NAND2X2
*I *1766:A I *C 48.01 26.5 *L 0.000792 *D NAND2X2

*CAP
1 *1784:A0 0.000374021
2 *1766:A 4.70841e-05
3 *1793:Y 4.79812e-05
4 *1773:A 2.17528e-05
5 *1771:A 0.000165878
6 *986:5 0.000660598281
7 *986:6 0.000309821
8 *986:7 0.000211772
9 *986:7 *113:13 0.000131487842
10 *1784:A0 *1004:7 0.00031924248
11 *1784:A0 *934:6 0.000118732451

*RES
1 *1771:A *986:7 11.0651
2 *986:7 *986:6 0.51403
3 *1773:A *986:7 6.81319
4 *986:6 *986:5 10.5576
5 *986:5 *1793:Y 10.3999
6 *1766:A *986:6 7.17748
7 *1784:A0 *986:5 19.3940392
*END

*D_NET *987 0.00323474

*CONN
*I *1796:Y O *C 43.35 18.04 *L 0 *D OR2X1
*I *1793:A I *C 46.9 17.765 *L 0.000395 *D INVX1
*I *1787:A1 I *C 52.1 17.575 *L 0.000392 *D AOI22X1
*I *1772:A I *C 40.41 26.5 *L 0.000792 *D NAND2X2
*I *1768:A I *C 49.21 28.22 *L 0.000792 *D NAND2X2
*I *1767:A I *C 50.21 28.22 *L 0.000792 *D NAND2X2
*I *1765:B I *C 40.34 24.975 *L 0.000796 *D NAND2BX2
*I *1764:A I *C 41.45 28.18 *L 0.000211 *D OR2X1

*CAP
1 *1787:A1 5.08434e-05
2 *1767:A 9.06561e-05
3 *1768:A 3.62982e-05
4 *1793:A 4.76864e-05
5 *1796:Y 1.31156e-05
6 *1764:A 4.61918e-05
7 *1765:B 7.81415e-05
8 *987:8 0.000239315
9 *987:9 0.000261425
10 *987:10 0.000306187
11 *987:11 0.000299813
12 *987:12 6.10944e-05
13 *987:13 0.000354886055
14 *987:14 0.000159976
15 *987:15 0.000153305
16 *987:13 *114:7 0.000149965283
17 *987:13 *110:5 0.000170350078
18 *987:9 *719:5 0.000302553184
19 *987:9 *886:2 0.000262618066
20 *987:8 *1068:8 0.00015032291

*RES
1 *987:15 *987:14 5.56071
2 *1772:A *987:15 3.29999
3 *1765:B *987:15 4.76421
4 *987:14 *987:13 2.47964
5 *1764:A *987:14 13.8349533
6 *987:12 *1796:Y 3.57252
7 *987:11 *987:12 4.32469
8 *987:13 *987:11 13.3562
9 *987:10 *987:11 1.72346
10 *1793:A *987:10 7.32364
11 *987:9 *987:13 3.31856
12 *1768:A *987:9 7.21281
13 *1767:A *987:9 11.4484
14 *987:8 *987:10 8.05913
15 *1787:A1 *987:8 4.28648
*END

*D_NET *988 0.000375032

*CONN
*I *1792:Y O *C 52.93 14.97 *L 0 *D INVX1
*I *1781:B1 I *C 50.9 14.725 *L 0.000392 *D OAI22X1
*I *1769:B1 I *C 52.1 14.725 *L 0.000392 *D OAI22X1

*CAP
1 *1792:Y 7.64715e-05
2 *1769:B1 2.49735e-05
3 *1781:B1 8.60683e-05
4 *988:3 0.000187516211

*RES
1 *1781:B1 *988:3 7.84015656
2 *1769:B1 *988:3 6.84985
3 *988:3 *1792:Y 7.47026
*END

*D_NET *989 0.000555754

*CONN
*I *1795:Y O *C 52.115 16.37 *L 0 *D NOR2X1
*I *1792:A I *C 52.7 14.345 *L 0.000395 *D INVX1
*I *1779:A1N I *C 55.3 14.345 *L 0.00021 *D OAI2BB1X1
*I *1770:A1N I *C 54.3 14.345 *L 0.00021 *D OAI2BB1X1

*CAP
1 *1779:A1N 5.35857e-05
2 *1770:A1N 2.18741e-05
3 *1795:Y 0.000104666
4 *989:4 0.000173211
5 *989:5 0.000202417383

*RES
1 *989:5 *1795:Y 5.41829
2 *1792:A *989:5 3.29996
3 *1770:A1N *989:4 6.80423
4 *989:4 *989:5 4.89173
5 *1779:A1N *989:4 7.62951374
*END

*D_NET *990 0.000270963

*CONN
*I *1790:Y O *C 52.33 12.39 *L 0 *D INVX1
*I *1782:A I *C 51.5 12.825 *L 0.00039 *D NAND2X1
*I *1776:A I *C 53.5 12.825 *L 0.00039 *D NAND2X1

*CAP
1 *1776:A 9.24475e-05
2 *1790:Y 7.33096e-06
3 *1782:A 2.71807e-05
4 *990:3 1.58547e-05
5 *990:4 0.00012814999

*RES
1 *1782:A *990:4 3.78438
2 *990:3 *1790:Y 0.239634
3 *990:4 *990:3 3.35192
4 *1776:A *990:4 11.4049911
*END

*D_NET *991 0.000680208

*CONN
*I *1791:Y O *C 51.555 16.2 *L 0 *D NAND2X1
*I *1790:A I *C 52.1 13.015 *L 0.000395 *D INVX1
*I *1784:A1 I *C 52.425 11.37 *L 0.000391 *D OAI221X1
*I *1781:A0 I *C 50.345 14.765 *L 0.000392 *D OAI22X1
*I *1769:A0 I *C 51.545 14.765 *L 0.000392 *D OAI22X1

*CAP
1 *1784:A1 4.70878e-05
2 *1791:Y 3.42134e-05
3 *1781:A0 7.18226e-05
4 *991:5 5.31074e-05
5 *991:6 8.45204e-05
6 *991:7 0.000115395
7 *991:8 0.000142931934
8 *1784:A1 *255:9 0.000131130215

*RES
1 *1781:A0 *991:8 10.9889507
2 *991:8 *1791:Y 3.9349
3 *1769:A0 *991:7 3.2999
4 *991:7 *991:8 0.589556
5 *991:6 *991:7 1.87548
6 *1790:A *991:6 3.2999
7 *991:5 *991:6 0.151078
8 *1784:A1 *991:5 4.65307
*END

*D_NET *992 0.000147581

*CONN
*I *1789:Y O *C 47.94 11.385 *L 0 *D AOI221X1
*I *1788:C0 I *C 47.585 9.405 *L 0.000392 *D OAI211X1

*CAP
1 *1789:Y 2.89679e-05
2 *1788:C0 4.48227e-05
3 *992:2 7.37905518e-05

*RES
1 *1788:C0 *992:2 3.95917892
2 *992:2 *1789:Y 3.64769
*END

*D_NET *993 0.000587106

*CONN
*I *1285:A I *C 49.7 14.535 *L 0.00021 *D BUFX2
*I *1788:Y O *C 47.745 8.81 *L 0 *D OAI211X1

*CAP
1 *1788:Y 0.000246941
2 *1285:A 4.66119e-05
3 *993:2 0.000293552871

*RES
1 *1285:A *993:2 4.19577
2 *993:2 *1788:Y 14.6231651
*END

*D_NET *994 0.000513792

*CONN
*I *1787:Y O *C 52.555 18.425 *L 0 *D AOI22X1
*I *1785:A I *C 53.965 21.63 *L 0.00021 *D AND2X1
*I *1783:B I *C 52.375 21.605 *L 0.000392 *D NOR2X1

*CAP
1 *1785:A 7.22402e-05
2 *1787:Y 6.51478e-05
3 *1783:B 3.37969e-05
4 *994:3 0.000150859
5 *994:4 0.000191748145

*RES
1 *1783:B *994:4 7.00037
2 *994:3 *1787:Y 7.80951
3 *994:4 *994:3 11.5805864
4 *1785:A *994:4 11.2074
*END

*D_NET *995 0.000134349

*CONN
*I *1786:Y O *C 41.745 15.13 *L 0 *D OAI211X1
*I *1780:C0 I *C 41.9 16.435 *L 0.000392 *D AOI221X1

*CAP
1 *1780:C0 4.63133e-05
2 *1786:Y 2.08611e-05
3 *995:2 6.71744336e-05

*RES
1 *995:2 *1786:Y 3.69359
2 *1780:C0 *995:2 4.22227383
*END

*D_NET *996 0.000486612

*CONN
*I *1784:Y O *C 53.34 11.56 *L 0 *D OAI221X1
*I *1555:D I *C 54.5 5.985 *L 0.000307 *D DFFHQX1

*CAP
1 *1784:Y 0.000181257
2 *1555:D 6.20489e-05
3 *996:2 0.000243306152

*RES
1 *1555:D *996:2 4.82318
2 *996:2 *1784:Y 7.17771053
*END

*D_NET *997 0.000519395

*CONN
*I *1785:Y O *C 54.14 21.275 *L 0 *D AND2X1
*I *1763:A I *C 53.3 24.605 *L 0.000392 *D NOR2X1
*I *1693:A I *C 54.34 23.03 *L 0.000392 *D NOR3X1
*I *1687:A I *C 53.015 24.77 *L 0.000793 *D NOR2X2

*CAP
1 *1785:Y 4.82215e-05
2 *1763:A 4.29139e-05
3 *1687:A 6.34182e-05
4 *997:4 6.46119e-05
5 *997:5 0.000105141
6 *997:6 0.000195085996

*RES
1 *1687:A *997:6 7.71515
2 *997:6 *997:5 5.07315
3 *1763:A *997:6 10.5090141
4 *997:4 *1785:Y 4.36598
5 *1693:A *997:5 6.60004
6 *997:5 *997:4 0.313814
*END

*D_NET *998 0.000731945

*CONN
*I *1783:Y O *C 52.515 21.25 *L 0 *D NOR2X1
*I *1761:A I *C 51.7 26.695 *L 0.000392 *D NOR2X1
*I *1691:A I *C 51.94 23.03 *L 0.000392 *D NOR3X1
*I *1685:A I *C 51.415 26.53 *L 0.000793 *D NOR2X2

*CAP
1 *1783:Y 2.82539e-05
2 *1691:A 2.65832e-05
3 *1761:A 1.92506e-05
4 *1685:A 5.71617e-05
5 *998:4 0.000102876
6 *998:5 0.000261306758
7 *998:6 0.00023651

*RES
1 *1685:A *998:6 7.54374
2 *998:6 *998:5 13.1552219
3 *1761:A *998:6 10.0611
4 *1691:A *998:5 3.68967
5 *998:4 *1783:Y 3.62925
6 *998:5 *998:4 1.35314
*END

*D_NET *999 0.000614762

*CONN
*I *1782:Y O *C 51.955 12.78 *L 0 *D NAND2X1
*I *1779:B0 I *C 54.865 14.575 *L 0.00039 *D OAI2BB1X1
*I *1778:C0 I *C 51.985 9.405 *L 0.000392 *D OAI211X1

*CAP
1 *1779:B0 4.49432e-05
2 *1778:C0 9.52486e-05
3 *1782:Y 5.84266e-06
4 *999:3 0.000206291
5 *999:4 0.000262439258

*RES
1 *999:4 *1782:Y 3.43145
2 *1778:C0 *999:4 5.3901
3 *999:3 *999:4 10.1794004
4 *1779:B0 *999:3 7.66593
*END

*D_NET *1000 0.000262141

*CONN
*I *1780:Y O *C 42.14 15.975 *L 0 *D AOI221X1
*I *1777:B I *C 44.3 16.435 *L 0.000796 *D NAND2X2

*CAP
1 *1780:Y 0.000131070615
2 *1777:B 0.000131070615

*RES
1 *1777:B *1780:Y 18.7124
*END

*D_NET *1001 0.000657916

*CONN
*I *1781:Y O *C 50.97 14.32 *L 0 *D OAI22X1
*I *1711:AN I *C 50.7 17.955 *L 0.00021 *D NAND2BX1
*I *1701:A I *C 50.1 16.435 *L 0.000392 *D NOR2X1
*I *1700:A I *C 49.34 18.01 *L 0.000392 *D NOR3X1

*CAP
1 *1781:Y 2.17565e-05
2 *1711:AN 8.80966e-05
3 *1701:A 9.95389e-06
4 *1700:A 4.79808e-05
5 *1001:4 0.000156701
6 *1001:5 0.000171124941
7 *1001:6 0.000162304

*RES
1 *1700:A *1001:6 7.49577
2 *1001:6 *1001:5 8.13545
3 *1001:5 *1001:4 0.956262
4 *1701:A *1001:5 3.35713
5 *1711:AN *1001:4 8.52763653
6 *1001:4 *1781:Y 3.61777
*END

*D_NET *1002 0.000473261

*CONN
*I *1779:Y O *C 54.735 15.02 *L 0 *D OAI2BB1X1
*I *1710:AN I *C 53.7 17.955 *L 0.00021 *D NAND2BX1
*I *1702:A I *C 54.5 17.765 *L 0.000392 *D NOR2X1
*I *1697:A I *C 55.34 18.01 *L 0.000392 *D NOR3X1

*CAP
1 *1697:A 5.15583e-05
2 *1779:Y 7.55194e-05
3 *1702:A 9.65615e-06
4 *1710:AN 5.47765e-05
5 *1002:4 0.000114619736
6 *1002:5 5.47765e-05
7 *1002:6 0.000112355

*RES
1 *1710:AN *1002:6 7.47835636
2 *1002:5 *1002:4 0.910831
3 *1002:6 *1002:5 3.33625
4 *1702:A *1002:5 3.35714
5 *1002:4 *1779:Y 4.79676
6 *1697:A *1002:6 7.42575
*END

*D_NET *1003 0.00027287

*CONN
*I *1778:Y O *C 52.145 8.81 *L 0 *D OAI211X1
*I *1554:D I *C 51.1 5.985 *L 0.000307 *D DFFHQX1

*CAP
1 *1778:Y 3.61204e-05
2 *1554:D 0.000100315
3 *1003:2 0.000136435029

*RES
1 *1554:D *1003:2 5.39779663
2 *1003:2 *1778:Y 4.0182
*END

*D_NET *1004 0.00274456

*CONN
*I *2254:B I *C 44.165 26.625 *L 0.000392 *D NOR2BX1
*I *2253:AN I *C 48.9 26.505 *L 0.00021 *D NOR2BX1
*I *1777:Y O *C 44.75 16.105 *L 0 *D NAND2X2
*I *1776:B I *C 53.7 13.205 *L 0.000392 *D NAND2X1
*I *1775:B I *C 43.6 26.455 *L 0.000212 *D NAND2XL
*I *1774:B I *C 50.175 26.275 *L 0.000392 *D NOR2X1
*I *1769:A1 I *C 51.7 14.535 *L 0.000391 *D OAI22X1

*CAP
1 *1776:B 0.000147048
2 *1769:A1 2.83735e-05
3 *1774:B 6.80117e-05
4 *2253:AN 1.80629e-05
5 *1777:Y 4.6493e-05
6 *2254:B 2.9264e-05
7 *1775:B 2.86703e-05
8 *1004:7 0.000304759
9 *1004:8 0.000149966
10 *1004:9 0.000463128086
11 *1004:10 0.000176729
12 *1004:11 0.000387908
13 *1004:12 0.000178396
14 *1004:11 *907:2 8.62479199e-05
15 *1774:B *679:16 0.000118374824
16 *1004:7 *399:5 0.000113785264
17 *1004:7 *395:6 8.01086426e-05
18 *1004:7 *1784:A0 0.00031924248

*RES
1 *1775:B *1004:12 3.86697
2 *1004:12 *1004:11 6.35445
3 *2254:B *1004:12 3.8595
4 *1004:10 *1777:Y 7.23505
5 *1004:9 *1004:10 9.35063
6 *1004:11 *1004:9 10.259
7 *2253:AN *1004:8 6.82346
8 *1004:8 *1004:11 1.23218
9 *1774:B *1004:8 7.72671
10 *1004:7 *1004:9 15.2997971
11 *1769:A1 *1004:7 6.84984
12 *1776:B *1004:7 9.40035
*END

*D_NET *1005 0.000372171

*CONN
*I *1776:Y O *C 53.955 12.78 *L 0 *D NAND2X1
*I *1770:B0 I *C 53.865 14.575 *L 0.00039 *D OAI2BB1X1
*I *1762:C0 I *C 53.785 9.405 *L 0.000392 *D OAI211X1

*CAP
1 *1770:B0 8.35068e-05
2 *1762:C0 0.00010257959
3 *1776:Y 8.35068e-05
4 *1005:3 0.00010257959

*RES
1 *1005:3 *1776:Y 3.29987
2 *1762:C0 *1005:3 5.37134
3 *1770:B0 *1776:Y 11.5252733
*END

*D_NET *1006 0.000615358

*CONN
*I *1775:Y O *C 43.74 26.795 *L 0 *D NAND2XL
*I *1765:AN I *C 40.9 24.795 *L 0.00021 *D NAND2BX2
*I *1764:B I *C 41.1 28.025 *L 0.00021 *D OR2X1

*CAP
1 *1775:Y 1.41261e-05
2 *1764:B 3.18894e-05
3 *1765:AN 9.936e-05
4 *1006:3 0.000103056
5 *1006:4 0.00012814999
6 *1006:5 0.000106693
7 *1006:4 *719:5 0.000132083896

*RES
1 *1006:5 *1006:4 0.151102
2 *1765:AN *1006:5 5.22763
3 *1764:B *1006:4 3.85557
4 *1006:4 *1006:3 8.74018669
5 *1006:3 *1775:Y 3.57244
*END

*D_NET *1007 0.000524759

*CONN
*I *1774:Y O *C 50.315 26.63 *L 0 *D NOR2X1
*I *1767:B I *C 49.9 28.025 *L 0.000796 *D NAND2X2
*I *1766:B I *C 47.7 26.695 *L 0.000796 *D NAND2X2

*CAP
1 *1774:Y 5.92461e-05
2 *1766:B 0.000203134
3 *1007:3 0.000262379648

*RES
1 *1766:B *1007:3 16.1478519
2 *1767:B *1007:3 6.59998
3 *1007:3 *1774:Y 4.39843
*END

*D_NET *1008 0.00201291

*CONN
*I *1750:B1 I *C 43.7 36.575 *L 0.000392 *D OAI22X1
*I *1735:B1 I *C 43.1 38.665 *L 0.000392 *D OAI22X1
*I *1756:B1 I *C 44.5 38.665 *L 0.000392 *D OAI22X1
*I *1742:B1 I *C 46.5 35.245 *L 0.000392 *D OAI22X1
*I *1734:B1 I *C 44.9 35.245 *L 0.000392 *D OAI22X1
*I *1746:B1 I *C 45.3 36.575 *L 0.000392 *D OAI22X1
*I *1758:B1 I *C 46.9 36.575 *L 0.000392 *D OAI22X1
*I *1773:Y O *C 47.15 26.365 *L 0 *D NAND2X2

*CAP
1 *1758:B1 5.71003e-05
2 *1773:Y 4.41666e-05
3 *1746:B1 3.89821e-05
4 *1756:B1 6.83082e-05
5 *1750:B1 5.09623e-05
6 *1735:B1 5.66827e-05
7 *1008:8 0.000201403
8 *1008:9 6.92025e-05
9 *1008:10 6.12723e-05
10 *1008:11 0.000242173672
11 *1008:12 0.000166475
12 *1008:13 0.000148715
13 *1008:14 0.000135301
14 *1008:15 0.000176548
15 *1756:B1 *1025:2 8.2612041e-05
16 *1008:11 *1856:A1 0.000149428848
17 *1758:B1 *1758:A1 0.000263571738

*RES
1 *1735:B1 *1008:15 7.36401
2 *1750:B1 *1008:14 4.22234
3 *1008:14 *1008:13 0.755832
4 *1008:15 *1008:14 4.19993
5 *1756:B1 *1008:15 7.53787
6 *1008:13 *1008:12 8.65676
7 *1734:B1 *1008:12 3.29995
8 *1008:12 *1008:11 4.53743
9 *1746:B1 *1008:10 4.22234
10 *1008:10 *1008:13 0.514034
11 *1742:B1 *1008:9 3.29995
12 *1008:9 *1008:11 3.35717
13 *1008:11 *1008:8 15.95819
14 *1008:8 *1773:Y 4.22234
15 *1758:B1 *1008:9 4.40862
*END

*D_NET *1009 0.00150871

*CONN
*I *1772:Y O *C 40.55 26.365 *L 0 *D NAND2X2
*I *1760:A1 I *C 36.3 28.215 *L 0.000391 *D OAI22X1
*I *1757:A1 I *C 35.1 23.085 *L 0.000391 *D OAI22X1
*I *1755:A1 I *C 38.1 24.795 *L 0.000391 *D OAI22X1
*I *1749:A1 I *C 37.1 26.505 *L 0.000391 *D OAI22X1
*I *1743:A1 I *C 36.1 24.795 *L 0.000391 *D OAI22X1
*I *1739:A1 I *C 37.9 23.085 *L 0.000391 *D OAI22X1
*I *1737:B1 I *C 38.1 28.405 *L 0.000392 *D OAI22X1

*CAP
1 *1772:Y 3.75522e-05
2 *1755:A1 2.51527e-05
3 *1737:B1 7.6294e-05
4 *1739:A1 9.42956e-05
5 *1760:A1 6.46104e-05
6 *1743:A1 1.10874e-05
7 *1757:A1 0.00011009
8 *1009:8 0.000130356
9 *1009:9 0.000147998
10 *1009:10 0.000167073
11 *1009:11 0.000106453
12 *1009:12 0.000178396699
13 *1009:13 8.75582e-05
14 *1009:14 0.00017488
15 *1009:8 *1016:8 9.69171484e-05

*RES
1 *1757:A1 *1009:14 5.30706
2 *1009:14 *1009:13 4.44751
3 *1743:A1 *1009:14 3.45474
4 *1760:A1 *1009:12 10.9403133
5 *1009:11 *1009:10 1.54583
6 *1009:12 *1009:11 0.986424
7 *1749:A1 *1009:11 3.29999
8 *1009:10 *1009:13 3.33638
9 *1009:13 *1009:9 0.66524
10 *1739:A1 *1009:10 5.21641
11 *1737:B1 *1009:12 4.5889
12 *1009:9 *1009:8 5.07302
13 *1755:A1 *1009:9 6.84988
14 *1009:8 *1772:Y 4.28792
*END

*D_NET *1010 0.00189805

*CONN
*I *1771:Y O *C 41.55 26.365 *L 0 *D NAND2X2
*I *1759:A1 I *C 39.3 33.345 *L 0.000391 *D OAI22X1
*I *1753:A1 I *C 38.1 33.345 *L 0.000391 *D OAI22X1
*I *1748:A1 I *C 40.3 31.635 *L 0.000391 *D OAI22X1
*I *1745:A1 I *C 35.9 31.635 *L 0.000391 *D OAI22X1
*I *1741:A1 I *C 35.3 29.925 *L 0.000391 *D OAI22X1
*I *1738:A1 I *C 34.9 28.215 *L 0.000391 *D OAI22X1
*I *1733:A1 I *C 41.025 33.09 *L 0.000391 *D OAI221X1

*CAP
1 *1771:Y 4.59554e-05
2 *1733:A1 1.54984e-05
3 *1748:A1 5.74006e-05
4 *1759:A1 2.58675e-05
5 *1753:A1 5.51344e-05
6 *1745:A1 7.69052e-06
7 *1738:A1 7.6352e-05
8 *1010:8 0.00021696
9 *1010:9 0.000219702715
10 *1010:10 0.000107288
11 *1010:11 8.51757e-05
12 *1010:12 0.000172852
13 *1010:13 0.000168085
14 *1010:14 0.000161648
15 *1010:12 *1852:AN 0.000130891797
16 *1010:9 *707:8 0.000128030781
17 *1010:9 *1736:B0 0.000105738643
18 *1733:A1 *1017:8 0.000117778779

*RES
1 *1738:A1 *1010:14 4.78915
2 *1010:14 *1010:13 2.09386
3 *1741:A1 *1010:14 3.29987
4 *1010:13 *1010:12 5.36129
5 *1745:A1 *1010:13 3.55332
6 *1010:12 *1010:11 1.29637
7 *1753:A1 *1010:12 7.41485
8 *1010:11 *1010:10 0.455786
9 *1759:A1 *1010:11 7.0721
10 *1010:10 *1010:9 0.99024
11 *1748:A1 *1010:10 7.68522
12 *1010:9 *1010:8 11.4314556
13 *1733:A1 *1010:9 6.9254
14 *1010:8 *1771:Y 7.01663
*END

*D_NET *1011 0.000983834

*CONN
*I *2252:AN I *C 53.5 23.085 *L 0.00021 *D NAND2BX1
*I *1770:Y O *C 53.735 15.02 *L 0 *D OAI2BB1X1
*I *1693:B I *C 54.5 23.085 *L 0.000393 *D NOR3X1
*I *1691:B I *C 52.1 23.085 *L 0.000393 *D NOR3X1

*CAP
1 *1693:B 6.85472e-05
2 *1770:Y 2.81946e-05
3 *2252:AN 1.72862e-05
4 *1691:B 9.2624e-05
5 *1011:4 0.000205756
6 *1011:5 0.000356018555
7 *1011:5 *258:10 9.94205469e-05
8 *1011:5 *1856:B0 0.000115990635

*RES
1 *1691:B *1011:5 7.99939
2 *2252:AN *1011:5 6.81293
3 *1011:5 *1011:4 15.632391
4 *1011:4 *1770:Y 3.85801
5 *1693:B *1011:5 7.6664
*END

*D_NET *1012 0.00138009

*CONN
*I *1769:Y O *C 52.17 14.32 *L 0 *D OAI22X1
*I *1763:B I *C 53.575 25.025 *L 0.000392 *D NOR2X1
*I *1761:B I *C 51.975 26.275 *L 0.000392 *D NOR2X1

*CAP
1 *1763:B 4.13699e-05
2 *1769:Y 0.000562553
3 *1761:B 8.61303e-05
4 *1012:3 0.000690042969

*RES
1 *1761:B *1012:3 4.99338
2 *1012:3 *1769:Y 20.9076405
3 *1763:B *1012:3 4.15435
*END

*D_NET *1013 0.00239265

*CONN
*I *1768:Y O *C 49.35 28.355 *L 0 *D NAND2X2
*I *1754:B1 I *C 51.5 28.405 *L 0.000392 *D OAI22X1
*I *1752:B1 I *C 48.7 33.155 *L 0.00021 *D OA22X1
*I *1751:B1 I *C 47.7 31.825 *L 0.000392 *D OAI22X1
*I *1747:B1 I *C 51.3 33.155 *L 0.000392 *D OAI22X1
*I *1744:B1 I *C 51.7 29.735 *L 0.000392 *D OAI22X1
*I *1740:B1 I *C 48.1 29.735 *L 0.000392 *D OAI22X1
*I *1737:A1 I *C 37.7 28.215 *L 0.000391 *D OAI22X1

*CAP
1 *1744:B1 1.41237e-05
2 *1754:B1 2.53911e-05
3 *1747:B1 0.000159861
4 *1768:Y 2.65213e-05
5 *1740:B1 3.40352e-05
6 *1751:B1 2.72405e-05
7 *1737:A1 6.71115e-05
8 *1013:8 9.48315e-05
9 *1013:9 0.000247
10 *1013:10 3.14735e-05
11 *1013:11 8.4701e-05
12 *1013:12 6.67005e-05
13 *1013:13 0.000236335
14 *1013:14 0.000448882578
15 *1013:15 0.000385819
16 *1013:15 *1884:B0 0.000131428242
17 *1013:15 *1727:A 9.5903877e-05
18 *1013:8 *722:8 8.8930127e-05
19 *1013:8 *1027:2 0.000126361846

*RES
1 *1737:A1 *1013:15 7.74185
2 *1013:15 *1013:14 8.58745
3 *1751:B1 *1013:13 7.01256
4 *1013:14 *1013:12 0.186738
5 *1013:13 *1013:14 8.9377
6 *1740:B1 *1013:12 6.95191
7 *1013:12 *1013:11 0.691679
8 *1013:10 *1768:Y 3.79137
9 *1013:11 *1013:10 3.33633
10 *1013:9 *1013:13 4.63064
11 *1752:B1 *1013:9 3.29987
12 *1747:B1 *1013:9 12.5776529
13 *1754:B1 *1013:8 3.98406
14 *1744:B1 *1013:8 3.57239
15 *1013:8 *1013:11 5.58582
*END

*D_NET *1014 0.00189102

*CONN
*I *1767:Y O *C 50.35 28.355 *L 0 *D NAND2X2
*I *1754:A1 I *C 51.1 28.215 *L 0.000391 *D OAI22X1
*I *1752:A1 I *C 48.525 33.2975 *L 0.000212 *D OA22X1
*I *1751:A1 I *C 47.3 31.635 *L 0.000391 *D OAI22X1
*I *1747:A1 I *C 50.9 33.345 *L 0.000391 *D OAI22X1
*I *1744:A1 I *C 51.3 29.925 *L 0.000391 *D OAI22X1
*I *1740:A1 I *C 47.7 29.925 *L 0.000391 *D OAI22X1
*I *1736:A1 I *C 42.3 33.345 *L 0.000391 *D OAI22X1

*CAP
1 *1744:A1 4.53602e-05
2 *1754:A1 1.6452e-05
3 *1747:A1 0.000106991
4 *1767:Y 2.24724e-05
5 *1752:A1 5.28702e-05
6 *1740:A1 4.85781e-05
7 *1736:A1 0.000149129
8 *1014:8 7.24782e-05
9 *1014:9 3.15294e-05
10 *1014:10 0.000199316
11 *1014:11 0.000204028
12 *1014:12 0.000289678574
13 *1014:13 8.48769e-05
14 *1014:14 0.000216661
15 *1736:A1 *1725:B 0.000128507617
16 *1014:14 *1030:2 0.000139951709
17 *1747:A1 *1034:2 8.21352051e-05

*RES
1 *1736:A1 *1014:14 11.329174
2 *1014:13 *1014:12 1.07473
3 *1014:14 *1014:13 3.91273
4 *1751:A1 *1014:13 3.29991
5 *1014:12 *1014:11 10.5827
6 *1740:A1 *1014:12 4.01023
7 *1014:10 *1014:14 0.888203
8 *1752:A1 *1014:10 7.27141
9 *1014:9 *1767:Y 0.65725
10 *1014:11 *1014:9 3.50424
11 *1747:A1 *1014:10 8.8682
12 *1014:8 *1014:11 0.241844
13 *1754:A1 *1014:8 3.64772
14 *1744:A1 *1014:8 4.35078
*END

*D_NET *1015 0.00212997

*CONN
*I *1750:A1 I *C 43.3 36.765 *L 0.000391 *D OAI22X1
*I *1756:A1 I *C 44.1 38.475 *L 0.000391 *D OAI22X1
*I *1735:A1 I *C 42.7 38.475 *L 0.000391 *D OAI22X1
*I *1742:A1 I *C 46.1 35.055 *L 0.000391 *D OAI22X1
*I *1746:A1 I *C 44.9 36.765 *L 0.000391 *D OAI22X1
*I *1734:A1 I *C 44.5 35.055 *L 0.000391 *D OAI22X1
*I *1758:A1 I *C 46.5 36.765 *L 0.000391 *D OAI22X1
*I *1766:Y O *C 48.15 26.365 *L 0 *D NAND2X2

*CAP
1 *1766:Y 6.01421e-05
2 *1758:A1 2.03253e-05
3 *1742:A1 9.85879e-05
4 *1746:A1 1.60915e-05
5 *1734:A1 3.21277e-05
6 *1756:A1 9.39975e-05
7 *1750:A1 1.16819e-05
8 *1015:8 0.000329136836
9 *1015:9 0.000322638
10 *1015:10 0.000179889
11 *1015:11 6.75902e-05
12 *1015:12 0.000104067
13 *1015:13 9.91805e-05
14 *1015:14 0.000124453
15 *1015:15 8.12408e-05
16 *1015:9 *1868:A 8.27908496e-05
17 *1015:9 *117:13 0.000142455098
18 *1758:A1 *1758:B1 0.000263571738

*RES
1 *1015:15 *1015:14 1.59139
2 *1015:13 *1015:15 3.33643
3 *1735:A1 *1015:15 3.30004
4 *1015:14 *1015:12 4.30383
5 *1750:A1 *1015:14 3.45476
6 *1756:A1 *1015:13 7.96856
7 *1015:11 *1015:12 3.75962
8 *1015:12 *1015:10 1.21322
9 *1734:A1 *1015:11 4.21299
10 *1746:A1 *1015:11 3.80652
11 *1015:10 *1015:9 0.665237
12 *1742:A1 *1015:10 11.5651
13 *1015:9 *1015:8 17.6649094
14 *1758:A1 *1015:9 6.75911
15 *1015:8 *1766:Y 4.07876
*END

*D_NET *1016 0.00179255

*CONN
*I *1765:Y O *C 40.55 25.42 *L 0 *D NAND2BX2
*I *1760:B1 I *C 36.7 28.405 *L 0.000392 *D OAI22X1
*I *1757:B1 I *C 35.5 22.895 *L 0.000392 *D OAI22X1
*I *1755:B1 I *C 38.5 24.985 *L 0.000392 *D OAI22X1
*I *1749:B1 I *C 37.5 26.315 *L 0.000392 *D OAI22X1
*I *1743:B1 I *C 36.5 24.985 *L 0.000392 *D OAI22X1
*I *1739:B1 I *C 38.3 22.895 *L 0.000392 *D OAI22X1
*I *1738:B1 I *C 35.3 28.405 *L 0.000392 *D OAI22X1

*CAP
1 *1765:Y 2.59858e-05
2 *1755:B1 4.57778e-05
3 *1739:B1 9.26238e-05
4 *1749:B1 2.00288e-05
5 *1743:B1 5.07823e-05
6 *1757:B1 0.000100912
7 *1738:B1 0.000105322
8 *1016:8 9.81704e-05
9 *1016:9 0.000152589
10 *1016:10 7.67734e-05
11 *1016:11 0.000180843
12 *1016:12 6.78325e-05
13 *1016:13 0.000119804
14 *1016:14 0.000344872461
15 *1016:15 0.000111521
16 *1755:B1 *1896:A0 0.000101804736
17 *1016:8 *1009:8 9.69171484e-05

*RES
1 *1738:B1 *1016:15 7.96871
2 *1757:B1 *1016:14 8.19552
3 *1743:B1 *1016:13 4.32047
4 *1760:B1 *1016:12 3.30002
5 *1016:14 *1016:11 9.96959209
6 *1016:13 *1016:11 3.34673
7 *1016:11 *1016:10 0.569704
8 *1016:12 *1016:13 1.69223
9 *1016:15 *1016:12 3.33638
10 *1749:B1 *1016:10 6.84983
11 *1016:10 *1016:9 0.816449
12 *1739:B1 *1016:14 8.19963
13 *1755:B1 *1016:9 7.37542
14 *1016:9 *1016:8 4.62715
15 *1016:8 *1765:Y 3.86866
*END

*D_NET *1017 0.00172949

*CONN
*I *1764:Y O *C 41.75 28.3 *L 0 *D OR2X1
*I *1759:B1 I *C 39.7 33.155 *L 0.000392 *D OAI22X1
*I *1753:B1 I *C 38.5 33.155 *L 0.000392 *D OAI22X1
*I *1748:B1 I *C 40.7 31.825 *L 0.000392 *D OAI22X1
*I *1745:B1 I *C 36.3 31.825 *L 0.000392 *D OAI22X1
*I *1741:B1 I *C 35.7 29.735 *L 0.000392 *D OAI22X1
*I *1736:B1 I *C 42.7 33.155 *L 0.000392 *D OAI22X1
*I *1733:B1 I *C 41.3 33.345 *L 0.00039 *D OAI221X1

*CAP
1 *1736:B1 0.000150204
2 *1764:Y 0.000125229
3 *1733:B1 4.88862e-06
4 *1748:B1 1.82398e-05
5 *1759:B1 1.93106e-05
6 *1753:B1 3.01586e-05
7 *1741:B1 4.21391e-05
8 *1017:8 0.00018221
9 *1017:9 0.000183701523
10 *1017:10 0.000108063
11 *1017:11 7.92158e-05
12 *1017:12 9.61409e-05
13 *1017:13 0.000123979
14 *1017:14 0.000118316
15 *1017:15 0.000104965
16 *1017:14 *718:5 9.54866406e-05
17 *1017:13 *1852:AN 0.000129461289
18 *1017:8 *1733:A1 0.000117778779

*RES
1 *1741:B1 *1017:15 4.22232
2 *1017:15 *1017:14 1.41363
3 *1745:B1 *1017:14 3.30005
4 *1017:14 *1017:13 15.4149532
5 *1753:B1 *1017:13 3.79141
6 *1017:13 *1017:12 0.884403
7 *1759:B1 *1017:12 3.73307
8 *1017:12 *1017:11 0.79361
9 *1748:B1 *1017:11 3.5903
10 *1017:11 *1017:10 0.483834
11 *1017:10 *1017:9 1.26239
12 *1017:8 *1017:10 0.63884
13 *1733:B1 *1017:8 3.33627
14 *1017:9 *1764:Y 5.37134
15 *1736:B1 *1017:8 12.3127
*END

*D_NET *1018 0.00033617

*CONN
*I *1762:Y O *C 53.945 8.81 *L 0 *D OAI211X1
*I *1553:D I *C 56.9 9.405 *L 0.000307 *D DFFHQX1

*CAP
1 *1762:Y 0.000168085098
2 *1553:D 0.000168085098

*RES
1 *1553:D *1762:Y 19.3975
*END

*D_NET *1019 0.000306964

*CONN
*I *1763:Y O *C 53.715 24.67 *L 0 *D NOR2X1
*I *1692:B I *C 54.1 26.505 *L 0.000211 *D AND2X1
*I *1690:B I *C 53.9 24.795 *L 0.000211 *D AND2X1

*CAP
1 *1692:B 5.89484e-05
2 *1763:Y 7.17043e-05
3 *1019:3 8.17771e-05
4 *1019:4 9.45329688e-05

*RES
1 *1690:B *1019:4 3.30001
2 *1019:4 *1763:Y 10.7940435
3 *1692:B *1019:3 4.5096
4 *1019:3 *1019:4 0.415878
*END

*D_NET *1020 0.000121117

*CONN
*I *1761:Y O *C 52.115 26.63 *L 0 *D NOR2X1
*I *1689:B I *C 53.3 26.505 *L 0.000211 *D AND2X1
*I *1688:B I *C 52.5 26.505 *L 0.000211 *D AND2X1

*CAP
1 *1689:B 4.75642e-05
2 *1761:Y 1.29941e-05
3 *1020:3 6.05583203e-05

*RES
1 *1688:B *1020:3 0.499999
2 *1020:3 *1761:Y 0.503796
3 *1689:B *1020:3 7.31754303
*END

*D_NET *1021 0.00070405

*CONN
*I *1760:Y O *C 36.77 28 *L 0 *D OAI22X1
*I *1732:A I *C 42.22 31.57 *L 0.000392 *D NOR4X1

*CAP
1 *1760:Y 0.000352025039
2 *1732:A 0.000352025039

*RES
1 *1732:A *1760:Y 19.859
*END

*D_NET *1022 0.00068742

*CONN
*I *1759:Y O *C 39.77 33.56 *L 0 *D OAI22X1
*I *1726:C I *C 45.185 32.9 *L 0.000392 *D NOR4X1

*CAP
1 *1759:Y 0.000176608555
2 *1726:C 0.000176608555
3 *1726:C *1736:B0 0.000165224082
4 *1726:C *1733:C0 0.00016897916

*RES
1 *1726:C *1759:Y 21.2449
*END

*D_NET *1023 0.000505924

*CONN
*I *1758:Y O *C 46.97 36.98 *L 0 *D OAI22X1
*I *1726:D I *C 45.405 33.35 *L 0.000392 *D NOR4X1

*CAP
1 *1758:Y 8.20156e-05
2 *1726:D 0.000117958
3 *1023:2 0.000199973574
4 *1726:D *1035:2 0.000105977061

*RES
1 *1726:D *1023:2 9.11402702
2 *1023:2 *1758:Y 7.69469
*END

*D_NET *1024 0.00142479

*CONN
*I *1757:Y O *C 35.57 23.3 *L 0 *D OAI22X1
*I *1726:A I *C 44.82 33.41 *L 0.000392 *D NOR4X1

*CAP
1 *1757:Y 0.000639259805
2 *1726:A 0.000639259805
3 *1726:A *401:4 0.000146269795

*RES
1 *1726:A *1757:Y 42.2771
*END

*D_NET *1025 0.00125122

*CONN
*I *1756:Y O *C 44.57 38.26 *L 0 *D OAI22X1
*I *1731:B I *C 39.025 29.67 *L 0.000392 *D NOR4X1

*CAP
1 *1756:Y 6.39003e-05
2 *1731:B 0.000520404
3 *1025:2 0.000584304336
4 *1025:2 *1756:B1 8.2612041e-05

*RES
1 *1731:B *1025:2 24.7039795
2 *1025:2 *1756:Y 8.22624
*END

*D_NET *1026 0.00050962

*CONN
*I *1755:Y O *C 38.57 24.58 *L 0 *D OAI22X1
*I *1731:A I *C 38.82 29.99 *L 0.000392 *D NOR4X1

*CAP
1 *1755:Y 0.000214576719
2 *1731:A 0.000214576719
3 *1731:A *1737:B0 8.04662695e-05

*RES
1 *1731:A *1755:Y 11.3838
*END

*D_NET *1027 0.00129908

*CONN
*I *1754:Y O *C 51.57 28 *L 0 *D OAI22X1
*I *1731:C I *C 39.185 29.48 *L 0.000392 *D NOR4X1

*CAP
1 *1754:Y 0.000131012
2 *1731:C 0.000333189
3 *1027:2 0.000464200977
4 *1731:C *1724:A0 0.000138223174
5 *1027:2 *1013:8 0.000126361846
6 *1027:2 *100:2 0.00010609627

*RES
1 *1731:C *1027:2 13.4642124
2 *1027:2 *1754:Y 10.6221
*END

*D_NET *1028 0.000395298

*CONN
*I *1753:Y O *C 38.57 33.56 *L 0 *D OAI22X1
*I *1731:D I *C 39.405 29.93 *L 0.000392 *D NOR4X1

*CAP
1 *1731:D 0.000109315
2 *1753:Y 8.83336e-05
3 *1028:2 0.000197649004

*RES
1 *1028:2 *1753:Y 4.65307
2 *1731:D *1028:2 5.15961647
*END

*D_NET *1029 0.000954807

*CONN
*I *1752:Y O *C 49.54 33.47 *L 0 *D OA22X1
*I *1733:C0 I *C 41.75 33.28 *L 0.000393 *D OAI221X1

*CAP
1 *1752:Y 9.71558e-05
2 *1733:C0 9.91224e-05
3 *1029:2 0.000104368
4 *1029:3 0.000106334688
5 *1733:C0 *1726:C 0.00016897916
6 *1029:2 *894:2 0.000179529199
7 *1029:2 *1726:B 0.00019931793

*RES
1 *1733:C0 *1029:3 9.93418694
2 *1029:2 *1752:Y 9.73804
3 *1029:3 *1029:2 0.204032
*END

*D_NET *1030 0.00054872

*CONN
*I *1751:Y O *C 47.77 31.42 *L 0 *D OAI22X1
*I *1732:B I *C 42.425 31.89 *L 0.000392 *D NOR4X1

*CAP
1 *1751:Y 0.000156285
2 *1732:B 4.80998e-05
3 *1030:2 0.000204384336
4 *1030:2 *1014:14 0.000139951709

*RES
1 *1732:B *1030:2 7.46973
2 *1030:2 *1751:Y 10.3197098
*END

*D_NET *1031 0.000719786

*CONN
*I *1750:Y O *C 43.77 36.98 *L 0 *D OAI22X1
*I *1724:A1 I *C 41.9 30.115 *L 0.000392 *D OAI31X1

*CAP
1 *1750:Y 0.000101923
2 *1724:A1 0.000188113
3 *1031:2 0.000290036211
4 *1031:2 *79:2 0.000139713291

*RES
1 *1724:A1 *1031:2 13.8857365
2 *1031:2 *1750:Y 5.63642
*END

*D_NET *1032 0.000741899

*CONN
*I *1749:Y O *C 37.57 26.72 *L 0 *D OAI22X1
*I *1724:A0 I *C 41.65 29.91 *L 0.000392 *D OAI31X1

*CAP
1 *1749:Y 0.000232040879
2 *1724:A0 0.000232040879
3 *1724:A0 *1884:B0 0.000139594082
4 *1724:A0 *1731:C 0.000138223174

*RES
1 *1724:A0 *1749:Y 25.5593
*END

*D_NET *1033 0.00029099

*CONN
*I *1748:Y O *C 40.77 31.42 *L 0 *D OAI22X1
*I *1732:C I *C 42.585 32.08 *L 0.000392 *D NOR4X1

*CAP
1 *1748:Y 0.000145494941
2 *1732:C 0.000145494941

*RES
1 *1732:C *1748:Y 18.8178
*END

*D_NET *1034 0.000770628

*CONN
*I *1747:Y O *C 51.37 33.56 *L 0 *D OAI22X1
*I *1726:B I *C 45.025 33.09 *L 0.000392 *D NOR4X1

*CAP
1 *1747:Y 7.3255e-05
2 *1726:B 0.000126361
3 *1034:2 0.000199615957
4 *1726:B *1725:B 8.99434082e-05
5 *1726:B *1029:2 0.00019931793
6 *1034:2 *1747:A1 8.21352051e-05

*RES
1 *1726:B *1034:2 10.8941793
2 *1034:2 *1747:Y 7.7494
*END

*D_NET *1035 0.0007658

*CONN
*I *1746:Y O *C 45.37 36.98 *L 0 *D OAI22X1
*I *1727:B I *C 44.825 29.67 *L 0.000392 *D NOR4X1

*CAP
1 *1746:Y 2.03228e-05
2 *1727:B 0.000309589
3 *1035:2 0.000329911719
4 *1035:2 *1726:D 0.000105977061

*RES
1 *1727:B *1035:2 9.52148438
2 *1035:2 *1746:Y 3.62547
*END

*D_NET *1036 0.000956476

*CONN
*I *1745:Y O *C 36.37 31.42 *L 0 *D OAI22X1
*I *1727:C I *C 44.985 29.48 *L 0.000392 *D NOR4X1

*CAP
1 *1727:C 8.91672e-05
2 *1745:Y 0.000237764
3 *1036:2 0.000326931484
4 *1036:2 *718:5 9.22083887e-05
5 *1036:2 *894:2 9.20295703e-05
6 *1036:2 *1893:B0 0.000118374824

*RES
1 *1036:2 *1745:Y 16.6110992
2 *1727:C *1036:2 4.63208
*END

*D_NET *1037 0.000693321

*CONN
*I *1744:Y O *C 51.77 30.14 *L 0 *D OAI22X1
*I *1727:D I *C 45.205 29.93 *L 0.000392 *D NOR4X1

*CAP
1 *1744:Y 0.000152231
2 *1727:D 4.91132e-05
3 *1037:2 0.000203132637
4 *1037:3 0.000100018
5 *1037:2 *1740:B0 8.65459473e-05
6 *1037:2 *1725:D 0.000102281572

*RES
1 *1727:D *1037:3 7.57561
2 *1037:3 *1037:2 1.32281
3 *1037:2 *1744:Y 9.84346867
*END

*D_NET *1038 0.00117546

*CONN
*I *1743:Y O *C 36.57 24.58 *L 0 *D OAI22X1
*I *1727:A I *C 44.62 29.99 *L 0.000392 *D NOR4X1

*CAP
1 *1743:Y 0.000539779648
2 *1727:A 0.000539779648
3 *1727:A *1013:15 9.5903877e-05

*RES
1 *1727:A *1743:Y 30.7362
*END

*D_NET *1039 0.000793159

*CONN
*I *1742:Y O *C 46.57 34.84 *L 0 *D OAI22X1
*I *1725:B I *C 43.425 29.67 *L 0.000392 *D NOR4X1

*CAP
1 *1742:Y 5.1735e-05
2 *1725:B 0.00019324
3 *1039:2 0.000244975098
4 *1725:B *1736:A1 0.000128507617
5 *1725:B *1726:B 8.99434082e-05
6 *1039:2 *670:9 8.47578027e-05

*RES
1 *1725:B *1039:2 14.9166584
2 *1039:2 *1742:Y 4.86107
*END

*D_NET *1040 0.00105679

*CONN
*I *1741:Y O *C 35.77 30.14 *L 0 *D OAI22X1
*I *1725:C I *C 43.585 29.48 *L 0.000392 *D NOR4X1

*CAP
1 *1725:C 4.72071e-05
2 *1741:Y 2.62267e-05
3 *1040:2 0.000281810762
4 *1040:3 0.00026083
5 *1040:2 *886:2 9.70959668e-05
6 *1040:2 *1730:A 0.000108540059
7 *1040:2 *1892:B0 0.000152587891
8 *1725:C *1722:A0 8.2492832e-05

*RES
1 *1040:3 *1741:Y 3.76913
2 *1040:2 *1040:3 13.2050514
3 *1725:C *1040:2 4.36595
*END

*D_NET *1041 0.000496387

*CONN
*I *1740:Y O *C 48.17 30.14 *L 0 *D OAI22X1
*I *1725:D I *C 43.805 29.93 *L 0.000392 *D NOR4X1

*CAP
1 *1740:Y 0.000197052949
2 *1725:D 0.000197052949
3 *1725:D *1037:2 0.000102281572

*RES
1 *1725:D *1740:Y 17.3335
*END

*D_NET *1042 0.000978232

*CONN
*I *1739:Y O *C 38.37 23.3 *L 0 *D OAI22X1
*I *1725:A I *C 43.22 29.99 *L 0.000392 *D NOR4X1

*CAP
1 *1725:A 0.000131425
2 *1739:Y 0.000307921
3 *1042:2 0.00043934582
4 *1725:A *670:10 9.95397559e-05

*RES
1 *1042:2 *1739:Y 17.0719624
2 *1725:A *1042:2 12.7584
*END

*D_NET *1043 0.000674248

*CONN
*I *1738:Y O *C 35.37 28 *L 0 *D OAI22X1
*I *1730:C I *C 40.585 28.66 *L 0.000392 *D NOR4X1

*CAP
1 *1730:C 0.000111163
2 *1738:Y 7.83203e-05
3 *1043:2 0.000189483164
4 *1730:C *96:18 0.000142574307
5 *1730:C *1892:B0 0.0001527071

*RES
1 *1043:2 *1738:Y 7.94643
2 *1730:C *1043:2 16.6244507
*END

*D_NET *1044 0.000327289

*CONN
*I *1737:Y O *C 38.17 28 *L 0 *D OAI22X1
*I *1730:A I *C 40.22 28.15 *L 0.000392 *D NOR4X1

*CAP
1 *1730:A 8.34457e-05
2 *1737:Y 2.59288e-05
3 *1044:2 0.000109374521
4 *1730:A *1040:2 0.000108540059

*RES
1 *1044:2 *1737:Y 6.75911
2 *1730:A *1044:2 8.37743282
*END

*D_NET *1045 0.000717878

*CONN
*I *1736:Y O *C 42.77 33.56 *L 0 *D OAI22X1
*I *1730:B I *C 40.425 28.47 *L 0.000392 *D NOR4X1

*CAP
1 *1736:Y 0.00035893918
2 *1730:B 0.00035893918

*RES
1 *1730:B *1736:Y 26.0619
*END

*D_NET *1046 0.00112009

*CONN
*I *1735:Y O *C 43.17 38.26 *L 0 *D OAI22X1
*I *1730:D I *C 40.805 28.21 *L 0.000392 *D NOR4X1

*CAP
1 *1735:Y 2.05672e-05
2 *1730:D 0.000483688
3 *1046:2 0.000504255313
4 *1730:D *1875:A1 0.000111579893

*RES
1 *1730:D *1046:2 27.5622597
2 *1046:2 *1735:Y 3.71192
*END

*D_NET *1047 0.0004884

*CONN
*I *1734:Y O *C 44.97 34.84 *L 0 *D OAI22X1
*I *1732:D I *C 42.805 31.63 *L 0.000392 *D NOR4X1

*CAP
1 *1734:Y 3.68937e-05
2 *1732:D 0.000207307
3 *1047:2 0.000244200234

*RES
1 *1732:D *1047:2 13.5407448
2 *1047:2 *1734:Y 3.99925
*END

*D_NET *1048 0.000295758

*CONN
*I *1733:Y O *C 41.94 32.9 *L 0 *D OAI221X1
*I *1724:A2 I *C 42.1 30.115 *L 0.000391 *D OAI31X1

*CAP
1 *1733:Y 0.000147879121
2 *1724:A2 0.000147879121

*RES
1 *1724:A2 *1733:Y 9.08709
*END

*D_NET *1049 0.000524521

*CONN
*I *1732:Y O *C 42.94 32.275 *L 0 *D NOR4X1
*I *1729:A I *C 42.9 28.025 *L 0.000395 *D INVX1
*I *1721:A0N I *C 42.845 26.24 *L 0.000209 *D OAI2BB1X1

*CAP
1 *1729:A 1.03725e-05
2 *1732:Y 4.28547e-05
3 *1721:A0N 5.34051e-05
4 *1049:3 7.79041e-05
5 *1049:4 0.000173985957
6 *1049:5 0.000166

*RES
1 *1049:5 *1049:4 6.02253
2 *1049:3 *1049:5 3.88554
3 *1721:A0N *1049:3 7.5879097
4 *1049:4 *1732:Y 4.05643
5 *1729:A *1049:5 0.454677
*END

*D_NET *1050 9.29832e-05

*CONN
*I *1729:Y O *C 43.13 28.65 *L 0 *D INVX1
*I *1722:A1 I *C 43.9 28.215 *L 0.000391 *D OAI211X1

*CAP
1 *1729:Y 4.64916211e-05
2 *1722:A1 4.64916211e-05

*RES
1 *1722:A1 *1729:Y 7.55358
*END

*D_NET *1051 0.000526786

*CONN
*I *1731:Y O *C 39.54 29.285 *L 0 *D NOR4X1
*I *1728:A I *C 41.9 28.025 *L 0.000395 *D INVX1
*I *1724:B0 I *C 42.3 30.115 *L 0.000394 *D OAI31X1

*CAP
1 *1731:Y 0.000144719
2 *1728:A 6.25238e-05
3 *1051:3 0.000200867656
4 *1051:4 0.000118672

*RES
1 *1051:4 *1051:3 0.831494
2 *1728:A *1051:4 4.36586
3 *1051:3 *1731:Y 12.2263432
4 *1724:B0 *1051:3 3.29986
*END

*D_NET *1052 0.000246167

*CONN
*I *1728:Y O *C 42.13 28.65 *L 0 *D INVX1
*I *1722:A0 I *C 43.7 28.405 *L 0.000391 *D OAI211X1

*CAP
1 *1728:Y 8.18371777e-05
2 *1722:A0 8.18371777e-05
3 *1722:A0 *1725:C 8.2492832e-05

*RES
1 *1722:A0 *1728:Y 15.0342
*END

*D_NET *1053 0.000846386

*CONN
*I *1730:Y O *C 40.94 28.855 *L 0 *D NOR4X1
*I *1707:A1 I *C 42.1 21.185 *L 0.000391 *D AOI32X1
*I *1723:B I *C 42.06 19.61 *L 0.000211 *D AND3XL

*CAP
1 *1730:Y 0.000336346
2 *1723:B 8.68471e-05
3 *1053:3 0.000423192969

*RES
1 *1723:B *1053:3 4.89508
2 *1053:3 *1730:Y 10.1168156
3 *1707:A1 *1053:3 3.29998
*END

*D_NET *1054 0.000124216

*CONN
*I *1284:A I *C 45.3 28.215 *L 0.00021 *D BUFX2
*I *1727:Y O *C 45.34 29.285 *L 0 *D NOR4X1

*CAP
1 *1727:Y 8.28486e-06
2 *1284:A 5.38232e-05
3 *1054:2 6.2108042e-05

*RES
1 *1284:A *1054:2 7.47084618
2 *1054:2 *1727:Y 3.35718
*END

*D_NET *1055 0.000141382

*CONN
*I *1283:A I *C 45.1 31.635 *L 0.00021 *D BUFX2
*I *1726:Y O *C 45.54 32.705 *L 0 *D NOR4X1

*CAP
1 *1726:Y 1.9729e-05
2 *1283:A 5.09621e-05
3 *1055:2 7.06911084e-05

*RES
1 *1283:A *1055:2 4.26900387
2 *1055:2 *1726:Y 3.62549
*END

*D_NET *1056 0.000547767

*CONN
*I *1276:A I *C 43.5 24.795 *L 0.00021 *D BUFX2
*I *1725:Y O *C 43.94 29.285 *L 0 *D NOR4X1

*CAP
1 *1725:Y 8.04821e-06
2 *1276:A 4.65503e-05
3 *1056:2 0.000181078
4 *1056:3 0.000219583516
5 *1056:3 *111:4 9.25064063e-05

*RES
1 *1276:A *1056:3 4.2264
2 *1056:3 *1056:2 7.11047649
3 *1056:2 *1725:Y 0.239562
*END

*D_NET *1057 0.000295162

*CONN
*I *1724:Y O *C 42.47 29.62 *L 0 *D OAI31X1
*I *1721:A1N I *C 43.1 26.695 *L 0.00021 *D OAI2BB1X1

*CAP
1 *1724:Y 8.70218e-05
2 *1721:A1N 6.05593e-05
3 *1057:2 0.000147581104

*RES
1 *1721:A1N *1057:2 4.36595
2 *1057:2 *1724:Y 5.06472588
*END

*D_NET *1058 0.000383496

*CONN
*I *1723:Y O *C 42.7 20.045 *L 0 *D AND3XL
*I *1720:A2 I *C 44.3 19.855 *L 0.000392 *D AOI32X1
*I *1718:A0 I *C 45.5 19.855 *L 0.000391 *D AOI22X1

*CAP
1 *1718:A0 6.66371e-05
2 *1720:A2 1.56769e-05
3 *1723:Y 0.000109434
4 *1058:3 0.000191748145

*RES
1 *1058:3 *1723:Y 5.67626953
2 *1720:A2 *1058:3 3.59037
3 *1718:A0 *1058:3 4.70361
*END

*D_NET *1059 0.000866294

*CONN
*I *1722:Y O *C 44.545 28.81 *L 0 *D OAI211X1
*I *1718:A1 I *C 45.7 20.045 *L 0.000392 *D AOI22X1

*CAP
1 *1722:Y 0.000349104414
2 *1718:A1 0.000349104414
3 *1718:A1 *117:15 0.000168085098

*RES
1 *1718:A1 *1722:Y 28.1577
*END

*D_NET *1060 0.000119328

*CONN
*I *1721:Y O *C 42.535 26.02 *L 0 *D OAI2BB1X1
*I *1719:A1N I *C 42.7 24.605 *L 0.00021 *D OAI2BB1X1

*CAP
1 *1721:Y 1.91925e-05
2 *1719:A1N 4.04717e-05
3 *1060:2 5.9664248e-05

*RES
1 *1719:A1N *1060:2 4.22227383
2 *1060:2 *1721:Y 3.66543
*END

*D_NET *1061 0.00036788

*CONN
*I *1719:Y O *C 42.135 25.28 *L 0 *D OAI2BB1X1
*I *1707:A2 I *C 42.3 21.185 *L 0.000392 *D AOI32X1

*CAP
1 *1707:A2 0.000155985
2 *1719:Y 2.79552e-05
3 *1061:2 0.000183939941

*RES
1 *1061:2 *1719:Y 3.77211
2 *1707:A2 *1061:2 19.0087547
*END

*D_NET *1062 0.000278592

*CONN
*I *1281:A I *C 46.3 17.955 *L 0.00021 *D BUFX2
*I *1720:Y O *C 44.77 19.205 *L 0 *D AOI32X1

*CAP
1 *1281:A 9.66793e-05
2 *1720:Y 4.26167e-05
3 *1062:2 0.000139296055

*RES
1 *1062:2 *1720:Y 4.12067
2 *1281:A *1062:2 11.69765
*END

*D_NET *1063 0.00082469

*CONN
*I *1718:Y O *C 46.155 19.195 *L 0 *D AOI22X1
*I *1717:B I *C 50.965 19.41 *L 0.000793 *D NOR2X2
*I *1714:B I *C 51.3 17.575 *L 0.000392 *D NAND2X1

*CAP
1 *1714:B 3.14096e-05
2 *1718:Y 0.000277457
3 *1717:B 0.000103472
4 *1063:3 0.000412344922

*RES
1 *1717:B *1063:3 8.40523
2 *1063:3 *1718:Y 18.5382366
3 *1714:B *1063:3 7.06555
*END

*D_NET *1064 0.00195998

*CONN
*I *1717:Y O *C 51.355 19.57 *L 0 *D NOR2X2
*I *1715:A I *C 57.5 14.345 *L 0.000395 *D INVX1
*I *1700:B I *C 49.5 17.955 *L 0.000393 *D NOR3X1
*I *1699:B I *C 56.1 19.665 *L 0.000793 *D NOR2BX2
*I *1698:B I *C 48.9 16.245 *L 0.000793 *D NOR2BX2
*I *1697:B I *C 55.5 17.955 *L 0.000393 *D NOR3X1

*CAP
1 *1715:A 0.000202355
2 *1699:B 3.17661e-05
3 *1697:B 6.10383e-05
4 *1700:B 6.67589e-05
5 *1717:Y 0.000102041
6 *1698:B 3.68949e-05
7 *1064:6 0.000196754
8 *1064:7 0.000461697578
9 *1064:8 0.000177444
10 *1064:9 0.000181854
11 *1064:10 0.00023198
12 *1064:7 *398:4 8.32080859e-05
13 *1064:7 *397:4 0.000126183037

*RES
1 *1698:B *1064:10 3.79132
2 *1064:10 *1064:9 0.844426
3 *1064:9 *1064:8 4.77559
4 *1064:8 *1717:Y 8.15329
5 *1700:B *1064:9 10.6353
6 *1064:7 *1064:10 18.4775581
7 *1697:B *1064:6 7.62859
8 *1064:6 *1064:7 5.63242
9 *1699:B *1064:6 7.14477
10 *1715:A *1064:7 13.5088
*END

*D_NET *1065 7.99894e-05

*CONN
*I *1715:Y O *C 57.73 14.97 *L 0 *D INVX1
*I *1705:C0 I *C 57.185 14.535 *L 0.000392 *D OAI211X1

*CAP
1 *1715:Y 3.99947168e-05
2 *1705:C0 3.99947168e-05

*RES
1 *1705:C0 *1715:Y 7.46179
*END

*D_NET *1066 0.000329375

*CONN
*I *1716:Y O *C 54.95 16.16 *L 0 *D OR2X1
*I *1712:B I *C 55.5 16.625 *L 0.000392 *D NAND2X1
*I *1706:C0 I *C 56.785 16.245 *L 0.000392 *D OAI211X1

*CAP
1 *1706:C0 0.000111162
2 *1716:Y 2.58092e-05
3 *1712:B 5.35256e-05
4 *1066:3 0.000138878818

*RES
1 *1066:3 *1712:B 6.84986
2 *1712:B *1716:Y 0.737181
3 *1706:C0 *1066:3 7.84921646
*END

*D_NET *1067 0.000396848

*CONN
*I *1714:Y O *C 51.555 18 *L 0 *D NAND2X1
*I *1711:B I *C 50.1 17.765 *L 0.000392 *D NAND2BX1
*I *1710:B I *C 53.1 17.765 *L 0.000392 *D NAND2BX1

*CAP
1 *1710:B 9.56649e-05
2 *1714:Y 1.63317e-05
3 *1711:B 8.64272e-05
4 *1067:3 0.000198423867

*RES
1 *1711:B *1067:3 7.96866
2 *1067:3 *1714:Y 6.78082
3 *1710:B *1067:3 8.11994076
*END

*D_NET *1068 0.00129175

*CONN
*I *1713:Y O *C 53.135 15.76 *L 0 *D OAI2BB1X1
*I *1704:B I *C 48.565 19.41 *L 0.000793 *D NOR2X2
*I *1703:B I *C 54.365 19.41 *L 0.000793 *D NOR2X2
*I *1702:B I *C 54.775 18.185 *L 0.000392 *D NOR2X1
*I *1701:B I *C 50.375 16.015 *L 0.000392 *D NOR2X1

*CAP
1 *1702:B 4.4763e-05
2 *1703:B 3.00414e-05
3 *1713:Y 6.8785e-05
4 *1701:B 0.000141977
5 *1704:B 5.29896e-05
6 *1068:5 0.000134705
7 *1068:6 0.000119686
8 *1068:7 0.000175537
9 *1068:8 0.000259697441
10 *1704:B *1070:3 0.000113248828
11 *1068:8 *987:8 0.00015032291

*RES
1 *1704:B *1068:8 8.33562
2 *1068:8 *1068:7 2.09843
3 *1701:B *1068:8 15.7384872
4 *1068:7 *1068:6 4.03933
5 *1068:6 *1713:Y 4.47688
6 *1703:B *1068:5 3.86738
7 *1068:5 *1068:7 4.52827
8 *1702:B *1068:5 4.09384
*END

*D_NET *1069 0.0011003

*CONN
*I *1712:Y O *C 55.755 16.2 *L 0 *D NAND2X1
*I *1709:B I *C 48.365 18.21 *L 0.000793 *D NOR2X2
*I *1708:B I *C 53.365 19.41 *L 0.000793 *D NOR2X2
*I *1700:C I *C 49.76 18.105 *L 0.000392 *D NOR3X1
*I *1697:C I *C 55.76 18.105 *L 0.000392 *D NOR3X1

*CAP
1 *1712:Y 7.4804e-05
2 *1708:B 5.77563e-05
3 *1700:C 2.42593e-05
4 *1709:B 6.40748e-05
5 *1069:5 0.000150501
6 *1069:6 6.63987e-05
7 *1069:7 0.000185429
8 *1069:8 0.000189423555
9 *1069:8 *959:4 0.000198960313
10 *1069:7 *258:9 8.8691709e-05

*RES
1 *1709:B *1069:8 7.87091255
2 *1069:8 *1069:7 2.78189
3 *1700:C *1069:8 6.84994
4 *1708:B *1069:6 4.29828
5 *1069:6 *1069:7 3.34925
6 *1069:7 *1069:5 5.38687
7 *1069:5 *1712:Y 4.65306
8 *1697:C *1069:5 3.3
*END

*D_NET *1070 0.000483751

*CONN
*I *1711:Y O *C 50.32 18.415 *L 0 *D NAND2BX1
*I *1709:A I *C 48.615 17.93 *L 0.000793 *D NOR2X2
*I *1704:A I *C 48.815 19.69 *L 0.000793 *D NOR2X2

*CAP
1 *1704:A 2.67023e-05
2 *1709:A 4.2796e-05
3 *1711:Y 5.94862e-05
4 *1070:3 0.000128984453
5 *1070:3 *959:4 0.000112533574
6 *1070:3 *1704:B 0.000113248828

*RES
1 *1070:3 *1711:Y 12.1376514
2 *1709:A *1070:3 4.19973
3 *1704:A *1070:3 3.91284
*END

*D_NET *1071 0.000282168

*CONN
*I *1710:Y O *C 53.32 18.415 *L 0 *D NAND2BX1
*I *1708:A I *C 53.615 19.69 *L 0.000793 *D NOR2X2
*I *1703:A I *C 54.615 19.69 *L 0.000793 *D NOR2X2

*CAP
1 *1703:A 5.97236e-05
2 *1708:A 8.34456e-06
3 *1710:Y 7.51066e-06
4 *1071:3 6.69953e-05
5 *1071:4 7.38501563e-05
6 *1071:5 6.57434e-05

*RES
1 *1071:5 *1710:Y 0.239546
2 *1071:4 *1071:5 4.24854
3 *1071:3 *1071:4 3.35712
4 *1708:A *1071:4 3.35712
5 *1703:A *1071:3 10.8567476
*END

*D_NET *1072 0.00045383

*CONN
*I *1706:Y O *C 56.945 15.65 *L 0 *D OAI211X1
*I *1552:D I *C 62.1 14.535 *L 0.000307 *D DFFHQX1

*CAP
1 *1706:Y 0.000226914883
2 *1552:D 0.000226914883

*RES
1 *1552:D *1706:Y 18.3842
*END

*D_NET *1073 0.000421166

*CONN
*I *1705:Y O *C 57.345 15.13 *L 0 *D OAI211X1
*I *1551:D I *C 59.9 12.825 *L 0.000307 *D DFFHQX1

*CAP
1 *1705:Y 0.00013429
2 *1551:D 7.62932e-05
3 *1073:2 0.000210583203

*RES
1 *1551:D *1073:2 4.96752
2 *1073:2 *1705:Y 12.5617981
*END

*D_NET *1074 0.00529915

*CONN
*I *1668:A0 I *C 34.96 45.15 *L 0.000211 *D AOI21XL
*I *1643:A0 I *C 34.16 43.77 *L 0.000211 *D AOI21XL
*I *1632:A0 I *C 26.96 45.15 *L 0.000211 *D AOI21XL
*I *1622:A0 I *C 26.36 24.63 *L 0.000211 *D AOI21XL
*I *1670:A1 I *C 26.5 31.065 *L 0.000212 *D AOI21XL
*I *1654:A0 I *C 26.16 23.25 *L 0.000211 *D AOI21XL
*I *1681:A0 I *C 27.96 17.79 *L 0.000211 *D AOI21XL
*I *1661:A1 I *C 36.9 17.385 *L 0.000212 *D AOI21XL
*I *1709:Y O *C 48.755 18.05 *L 0 *D NOR2X2

*CAP
1 *1709:Y 1.27578e-05
2 *1661:A1 2.61677e-05
3 *1668:A0 0.000100195
4 *1632:A0 4.86389e-05
5 *1670:A1 2.2532e-05
6 *1622:A0 2.06258e-05
7 *1654:A0 4.1666e-05
8 *1074:9 7.06902e-05
9 *1074:10 0.000165167
10 *1074:11 0.000203667
11 *1074:12 0.000359236
12 *1074:13 0.000357269
13 *1074:14 0.000264284
14 *1074:15 0.000292419
15 *1074:16 5.71036e-05
16 *1074:17 0.000260594
17 *1074:18 0.000240741
18 *1074:19 0.000175178
19 *1074:20 0.000235437
20 *1074:21 0.000362098203
21 *1074:22 7.09886e-05
22 *1074:20 *1682:A0 0.000208139414
23 *1074:19 *385:9 0.000169575215
24 *1074:17 *329:7 0.000470995898
25 *1074:17 *326:5 0.000339984883
26 *1074:12 *90:39 9.31620605e-05
27 *1074:11 *347:4 0.000248134141
28 *1074:11 *400:6 0.000239133828
29 *1074:10 *1083:9 0.000142574307

*RES
1 *1654:A0 *1074:22 3.98035
2 *1074:22 *1074:21 3.34679
3 *1074:21 *1074:20 15.8720016
4 *1622:A0 *1074:22 3.71491
5 *1074:19 *1074:21 12.9481
6 *1074:18 *1074:19 3.34679
7 *1670:A1 *1074:19 6.80499
8 *1074:17 *1074:18 9.86502
9 *1074:16 *1074:15 3.34679
10 *1074:15 *1074:17 3.56888
11 *1632:A0 *1074:16 4.4313
12 *1074:14 *1074:13 7.9222
13 *1074:20 *1074:14 3.91496
14 *1681:A0 *1074:20 3.30005
15 *1074:12 *1074:15 9.3792
16 *1643:A0 *1074:12 3.30005
17 *1668:A0 *1074:12 11.7001
18 *1074:13 *1074:11 8.23995
19 *1661:A1 *1074:13 6.81201
20 *1074:11 *1074:10 7.38963
21 *1074:10 *1074:9 10.749
22 *1074:9 *1709:Y 3.57251
*END

*D_NET *1075 0.00351065

*CONN
*I *1659:A0 I *C 49.36 50.61 *L 0.000211 *D AOI21XL
*I *1636:A0 I *C 51.36 48.57 *L 0.000211 *D AOI21XL
*I *1663:A1 I *C 55.3 48.165 *L 0.000212 *D AOI21XL
*I *1623:A0 I *C 51.76 38.31 *L 0.000211 *D AOI21XL
*I *1662:A0 I *C 50.36 47.19 *L 0.000211 *D AOI21XL
*I *1648:A0 I *C 54.36 33.51 *L 0.000211 *D AOI21XL
*I *1675:A0 I *C 54.56 31.47 *L 0.000211 *D AOI21XL
*I *1676:A1 I *C 54.3 30.495 *L 0.000212 *D AOI21XL
*I *1708:Y O *C 53.755 19.57 *L 0 *D NOR2X2

*CAP
1 *1663:A1 6.10315e-05
2 *1708:Y 1.55561e-05
3 *1623:A0 8.36239e-05
4 *1636:A0 2.8489e-05
5 *1662:A0 3.49899e-05
6 *1659:A0 0.000127256
7 *1075:9 0.000122843
8 *1075:10 0.000358763
9 *1075:11 9.26256e-05
10 *1075:12 0.00031227
11 *1075:13 0.000213266
12 *1075:14 0.000501215469
13 *1075:15 0.000337065
14 *1075:16 9.68015e-05
15 *1075:17 0.0001902
16 *1075:15 *385:3 0.000100314619
17 *1075:14 *1092:9 0.000129222871
18 *1075:14 *1082:12 0.000159144404
19 *1075:10 *106:15 9.57250586e-05
20 *1075:9 *1676:A0 0.000153899189
21 *1663:A1 *95:106 0.000177025801
22 *1663:A1 *730:5 0.000119328496

*RES
1 *1659:A0 *1075:17 5.97278
2 *1075:17 *1075:16 4.45509
3 *1662:A0 *1075:17 4.06257
4 *1075:16 *1075:15 1.42136
5 *1636:A0 *1075:16 7.06157
6 *1623:A0 *1075:14 8.35089
7 *1075:15 *1075:14 14.4174
8 *1075:14 *1075:13 15.2545
9 *1075:12 *1708:Y 3.5724
10 *1075:11 *1075:15 1.14154
11 *1648:A0 *1075:13 3.29979
12 *1075:10 *1075:12 21.4730492
13 *1676:A1 *1075:10 3.29979
14 *1075:9 *1075:10 1.20937
15 *1075:13 *1075:9 1.39973
16 *1675:A0 *1075:9 3.29979
17 *1663:A1 *1075:11 7.77258
*END

*D_NET *1076 0.000334263

*CONN
*I *1240:A I *C 45.1 21.375 *L 0.00021 *D BUFX2
*I *1707:Y O *C 42.77 21.835 *L 0 *D AOI32X1

*CAP
1 *1707:Y 0.000123858447
2 *1240:A 0.000123858447
3 *1240:A *112:9 8.65459473e-05

*RES
1 *1240:A *1707:Y 19.1319
*END

*D_NET *1077 0.00028789

*CONN
*I *1702:Y O *C 54.915 17.83 *L 0 *D NOR2X1
*I *1699:AN I *C 56.5 19.46 *L 0.00021 *D NOR2BX2

*CAP
1 *1702:Y 0.000143945215
2 *1699:AN 0.000143945215

*RES
1 *1699:AN *1702:Y 15.6567
*END

*D_NET *1078 0.000143528

*CONN
*I *1701:Y O *C 50.515 16.37 *L 0 *D NOR2X1
*I *1698:AN I *C 49.3 16.04 *L 0.00021 *D NOR2BX2

*CAP
1 *1701:Y 4.19612e-05
2 *1698:AN 2.98028e-05
3 *1078:2 7.17639941e-05

*RES
1 *1698:AN *1078:2 3.64771
2 *1078:2 *1701:Y 4.11307812
*END

*D_NET *1079 0.00506675

*CONN
*I *1660:A0 I *C 34.56 36.93 *L 0.000211 *D AOI21XL
*I *1673:A1 I *C 39.3 37.335 *L 0.000212 *D AOI21XL
*I *1645:A0 I *C 30.36 36.93 *L 0.000211 *D AOI21XL
*I *1630:A0 I *C 28.16 34.89 *L 0.000211 *D AOI21XL
*I *1624:A0 I *C 26.96 28.05 *L 0.000211 *D AOI21XL
*I *1656:A0 I *C 27.16 23.25 *L 0.000211 *D AOI21XL
*I *1682:A0 I *C 28.56 16.41 *L 0.000211 *D AOI21XL
*I *1683:A1 I *C 35.3 17.385 *L 0.000212 *D AOI21XL
*I *1704:Y O *C 48.955 19.57 *L 0 *D NOR2X2

*CAP
1 *1704:Y 0.000112949
2 *1673:A1 9.81662e-05
3 *1683:A1 1.931e-05
4 *1645:A0 9.53332e-06
5 *1682:A0 0.000107291
6 *1656:A0 4.32171e-05
7 *1624:A0 4.38081e-05
8 *1079:9 0.000157834
9 *1079:10 0.000208438
10 *1079:11 0.000223394
11 *1079:12 0.000131485
12 *1079:13 0.000134466
13 *1079:14 0.000260771
14 *1079:15 0.00037724
15 *1079:16 0.000284852
16 *1079:17 0.000549734
17 *1079:18 0.000565169
18 *1079:19 0.000569522383
19 *1079:20 0.000100973
20 *1682:A0 *1074:20 0.000208139414
21 *1079:13 *683:6 8.44001758e-05
22 *1079:11 *1091:15 0.000189423555
23 *1079:11 *400:7 0.000263690957
24 *1673:A1 *1646:A1 0.00022029877
25 *1673:A1 *2091:A0 0.000102639199

*RES
1 *1079:20 *1079:19 7.66109
2 *1624:A0 *1079:20 4.28789
3 *1656:A0 *1079:18 7.14858
4 *1079:17 *1079:16 9.67876
5 *1079:18 *1079:17 14.7249699
6 *1079:19 *1079:18 9.70775
7 *1079:15 *1079:19 4.48854
8 *1630:A0 *1079:15 3.29995
9 *1682:A0 *1079:17 5.67757
10 *1079:14 *1079:15 9.60282
11 *1645:A0 *1079:14 3.40241
12 *1079:13 *1079:14 10.0733
13 *1660:A0 *1079:13 3.29995
14 *1079:12 *1079:13 4.04141
15 *1079:16 *1079:11 7.61099
16 *1683:A1 *1079:16 6.80504
17 *1079:11 *1079:10 8.54208
18 *1673:A1 *1079:12 10.4939
19 *1079:10 *1079:9 7.46741
20 *1079:9 *1704:Y 8.8308
*END

*D_NET *1080 0.00500238

*CONN
*I *1640:A0 I *C 42.96 50.61 *L 0.000211 *D AOI21XL
*I *1634:A0 I *C 41.76 50.61 *L 0.000211 *D AOI21XL
*I *1666:A1 I *C 41.3 48.165 *L 0.000212 *D AOI21XL
*I *1665:A0 I *C 45.56 47.19 *L 0.000211 *D AOI21XL
*I *1627:A0 I *C 58.16 43.77 *L 0.000211 *D AOI21XL
*I *1650:A0 I *C 49.56 38.31 *L 0.000211 *D AOI21XL
*I *1678:A0 I *C 55.36 26.67 *L 0.000211 *D AOI21XL
*I *1679:A1 I *C 58.3 20.805 *L 0.000212 *D AOI21XL
*I *1703:Y O *C 54.755 19.57 *L 0 *D NOR2X2

*CAP
1 *1679:A1 7.66525e-05
2 *1703:Y 3.12917e-05
3 *1650:A0 9.97754e-05
4 *1665:A0 2.23498e-05
5 *1640:A0 6.20442e-05
6 *1666:A1 2.99794e-05
7 *1080:9 0.000437382
8 *1080:10 0.000666677969
9 *1080:11 0.000153661
10 *1080:12 0.000514807
11 *1080:13 0.000326813
12 *1080:14 4.98266e-05
13 *1080:15 0.00032783
14 *1080:16 0.000238238
15 *1080:17 0.00057441
16 *1080:18 0.000317688
17 *1080:19 6.96739e-05
18 *1080:20 9.14336e-05
19 *1080:21 0.000246763
20 *1080:21 *374:3 9.52482227e-05
21 *1080:18 *1093:12 0.000176310547
22 *1080:17 *729:7 0.000100135801
23 *1080:16 *1096:14 0.00017356873
24 *1080:16 *105:9 0.000119805332

*RES
1 *1666:A1 *1080:21 3.79505
2 *1634:A0 *1080:20 3.30005
3 *1080:20 *1080:21 1.81636
4 *1080:19 *1080:20 3.35712
5 *1080:21 *1080:18 6.9639
6 *1640:A0 *1080:19 7.69083
7 *1080:18 *1080:17 8.70157
8 *1665:A0 *1080:18 6.80502
9 *1080:16 *1080:17 11.3227
10 *1650:A0 *1080:16 5.26967
11 *1080:17 *1080:15 14.1659975
12 *1080:14 *1703:Y 3.90572
13 *1080:13 *1080:14 0.480082
14 *1080:12 *1080:13 4.38818
15 *1678:A0 *1080:12 3.30005
16 *1080:11 *1080:13 4.93138
17 *1080:10 *1080:12 12.7467
18 *1080:9 *1080:10 8.79928
19 *1080:15 *1080:9 1.13395
20 *1627:A0 *1080:15 3.30005
21 *1679:A1 *1080:11 8.07494
*END

*D_NET *1081 0.00106955

*CONN
*I *1282:A I *C 38.1 17.955 *L 0.00021 *D BUFX2
*I *1700:Y O *C 49.94 17.815 *L 0 *D NOR3X1

*CAP
1 *1700:Y 0.000252365
2 *1282:A 0.000168682
3 *1081:2 0.000421047227
4 *1081:2 *1835:A 0.000227451328

*RES
1 *1282:A *1081:2 10.4451
2 *1081:2 *1700:Y 12.1113062
*END

*D_NET *1082 0.00352001

*CONN
*I *1635:A1 I *C 51.7 44.175 *L 0.000212 *D AOI21XL
*I *1639:A1 I *C 51.12 50.59 *L 0.000392 *D AOI21X1
*I *1641:A1 I *C 52.12 47.17 *L 0.000392 *D AOI21X1
*I *1664:A1 I *C 53.12 47.17 *L 0.000392 *D AOI21X1
*I *1628:A1 I *C 55.1 40.755 *L 0.000212 *D AOI21XL
*I *1649:A1 I *C 54.72 34.91 *L 0.000392 *D AOI21X1
*I *1652:A1 I *C 55.12 30.07 *L 0.000392 *D AOI21X1
*I *1677:A1 I *C 56.32 24.65 *L 0.000392 *D AOI21X1
*I *1699:Y O *C 56.25 20 *L 0 *D NOR2BX2

*CAP
1 *1699:Y 2.74745e-05
2 *1652:A1 3.00394e-05
3 *1628:A1 4.98857e-05
4 *1649:A1 4.65521e-05
5 *1664:A1 6.04409e-05
6 *1641:A1 3.13551e-05
7 *1639:A1 8.38057e-05
8 *1082:9 0.000232339
9 *1082:10 0.000484406953
10 *1082:11 0.000469387
11 *1082:12 0.00032568
12 *1082:13 0.000214459
13 *1082:14 0.000156879
14 *1082:15 0.000411689
15 *1082:16 0.000340759
16 *1082:17 0.000210586
17 *1082:12 *1075:14 0.000159144404
18 *1649:A1 *106:13 0.000185132031

*RES
1 *1639:A1 *1082:17 7.75105
2 *1635:A1 *1082:16 3.29997
3 *1082:16 *1082:15 11.7287636
4 *1082:14 *1082:16 2.09015
5 *1641:A1 *1082:14 3.96143
6 *1082:13 *1082:14 3.69924
7 *1082:17 *1082:13 9.62179
8 *1664:A1 *1082:13 7.72385
9 *1082:12 *1082:11 10.8908
10 *1082:15 *1082:12 4.06702
11 *1649:A1 *1082:12 10.4271
12 *1082:11 *1082:10 5.69025
13 *1628:A1 *1082:15 10.7004
14 *1652:A1 *1082:11 3.6477
15 *1082:9 *1699:Y 3.79141
16 *1082:10 *1082:9 10.5311
17 *1677:A1 *1082:10 3.29997
*END

*D_NET *1083 0.00502002

*CONN
*I *1646:A1 I *C 40.32 36.91 *L 0.000392 *D AOI21X1
*I *1644:A1 I *C 32.52 36.91 *L 0.000392 *D AOI21X1
*I *1631:A1 I *C 28.5 37.335 *L 0.000212 *D AOI21XL
*I *1671:A1 I *C 34.12 33.49 *L 0.000392 *D AOI21X1
*I *1655:A1 I *C 34.52 26.65 *L 0.000392 *D AOI21X1
*I *1625:A1 I *C 31.7 24.225 *L 0.000212 *D AOI21XL
*I *1658:A1 I *C 30.32 16.39 *L 0.000392 *D AOI21X1
*I *1684:A1 I *C 38.52 16.39 *L 0.000392 *D AOI21X1
*I *1698:Y O *C 49.05 16.58 *L 0 *D NOR2BX2

*CAP
1 *1698:Y 0.000109675
2 *1646:A1 0.000203909
3 *1684:A1 9.67413e-05
4 *1655:A1 8.85149e-05
5 *1671:A1 0.000148237
6 *1644:A1 2.92674e-05
7 *1625:A1 4.67329e-05
8 *1658:A1 0.000117364
9 *1631:A1 0.000119745
10 *1083:9 0.000233827
11 *1083:10 0.000376282
12 *1083:11 0.0002954
13 *1083:12 6.00226e-05
14 *1083:13 0.000409662734
15 *1083:14 0.000318347
16 *1083:15 0.000119983
17 *1083:16 0.000356079
18 *1083:17 0.00036663
19 *1658:A1 *331:5 0.000172257422
20 *1083:14 *327:5 0.000141143799
21 *1083:13 *109:11 0.00015377998
22 *1644:A1 *105:18 8.36849219e-05
23 *1083:11 *398:4 0.000318527227
24 *1083:11 *397:4 0.000211238867
25 *1671:A1 *1882:A 8.01086426e-05
26 *1083:9 *1074:10 0.000142574307
27 *1646:A1 *1673:A1 0.00022029877

*RES
1 *1631:A1 *1083:17 9.73256
2 *1658:A1 *1083:16 13.3612
3 *1083:15 *1083:14 8.25555
4 *1625:A1 *1083:15 4.26422
5 *1083:17 *1083:13 15.2460337
6 *1083:12 *1083:17 0.13237
7 *1644:A1 *1083:12 6.84043
8 *1083:16 *1083:11 6.92232
9 *1083:14 *1083:16 4.8379
10 *1083:13 *1083:14 6.84973
11 *1083:10 *1083:12 0.897277
12 *1671:A1 *1083:10 9.59391
13 *1655:A1 *1083:13 8.03408
14 *1083:11 *1083:9 13.0009
15 *1684:A1 *1083:11 13.9826
16 *1646:A1 *1083:10 11.8316
17 *1083:9 *1698:Y 8.37746
*END

*D_NET *1084 0.000600457

*CONN
*I *1274:A I *C 55.9 23.275 *L 0.000212 *D INVXL
*I *1674:A1 I *C 57.5 20.235 *L 0.000212 *D AOI21XL
*I *1697:Y O *C 55.94 17.815 *L 0 *D NOR3X1

*CAP
1 *1674:A1 4.16051e-05
2 *1697:Y 9.39963e-05
3 *1274:A 0.000106991
4 *1084:3 0.000193238262
5 *1084:4 0.000164628

*RES
1 *1084:4 *1084:3 1.34184
2 *1274:A *1084:4 5.65850735
3 *1084:3 *1697:Y 5.5245
4 *1674:A1 *1084:3 4.36234
*END

*D_NET *1085 0.000787973

*CONN
*I *1696:Y O *C 53.115 21.25 *L 0 *D NOR2X1
*I *1694:A I *C 57.5 21.185 *L 0.000395 *D INVX1
*I *1693:C I *C 54.76 22.935 *L 0.000392 *D NOR3X1
*I *1691:C I *C 52.36 22.935 *L 0.000392 *D NOR3X1

*CAP
1 *1694:A 5.20937e-05
2 *1693:C 2.71192e-05
3 *1696:Y 4.96519e-05
4 *1691:C 6.08555e-05
5 *1085:4 0.000122608
6 *1085:5 0.000174284
7 *1085:6 0.000187158594
8 *1085:4 *257:10 0.0001142025

*RES
1 *1691:C *1085:6 4.53971
2 *1085:6 *1696:Y 4.07865
3 *1085:5 *1085:6 4.89541
4 *1693:C *1085:5 6.91926479
5 *1085:4 *1085:5 5.53427
6 *1694:A *1085:4 4.2878
*END

*D_NET *1086 0.0010848

*CONN
*I *1694:Y O *C 57.73 21.81 *L 0 *D INVX1
*I *1692:A I *C 54.565 26.25 *L 0.00021 *D AND2X1
*I *1688:A I *C 52.965 26.25 *L 0.00021 *D AND2X1
*I *1686:C0 I *C 57.385 17.955 *L 0.000392 *D OAI211X1

*CAP
1 *1686:C0 0.000104486
2 *1694:Y 0.00014162
3 *1688:A 7.5458e-05
4 *1086:4 0.000151694
5 *1086:5 0.000249981875
6 *1086:6 0.00016403
7 *1086:7 8.39223e-05
8 *1086:5 *1091:9 0.000113606455

*RES
1 *1688:A *1086:7 11.3424063
2 *1692:A *1086:6 6.60008
3 *1086:6 *1086:5 10.085
4 *1086:7 *1086:6 3.35724
5 *1086:4 *1694:Y 4.58518
6 *1686:C0 *1086:4 5.08397
7 *1086:5 *1694:Y 5.7233
*END

*D_NET *1087 0.000800967

*CONN
*I *2252:B I *C 52.9 23.275 *L 0.000392 *D NAND2BX1
*I *1695:Y O *C 54.755 21.42 *L 0 *D NAND2X1
*I *1690:A I *C 54.365 25.05 *L 0.00021 *D AND2X1
*I *1689:A I *C 53.765 26.25 *L 0.00021 *D AND2X1

*CAP
1 *1695:Y 1.86563e-05
2 *1690:A 4.25565e-05
3 *1689:A 8.29708e-05
4 *2252:B 7.87394e-05
5 *1087:4 0.000142695
6 *1087:5 9.60808e-05
7 *1087:6 9.16718e-05
8 *1087:7 0.000247597695

*RES
1 *2252:B *1087:7 7.62136
2 *1689:A *1087:6 8.09676
3 *1087:6 *1087:5 0.181445
4 *1087:7 *1087:4 8.75639915
5 *1087:5 *1087:7 4.12915
6 *1690:A *1087:5 7.45422
7 *1087:4 *1695:Y 0.657371
*END

*D_NET *1088 0.000137687

*CONN
*I *1280:A I *C 55.3 24.795 *L 0.00021 *D BUFX2
*I *1693:Y O *C 54.94 23.225 *L 0 *D NOR3X1

*CAP
1 *1693:Y 1.6689e-05
2 *1280:A 5.21544e-05
3 *1088:2 6.88433643e-05

*RES
1 *1280:A *1088:2 4.17208672
2 *1088:2 *1693:Y 3.81909
*END

*D_NET *1089 0.00370884

*CONN
*I *1692:Y O *C 54.74 26.605 *L 0 *D AND2X1
*I *1682:A1 I *C 28.7 16.815 *L 0.000212 *D AOI21XL
*I *1681:A1 I *C 28.1 17.385 *L 0.000212 *D AOI21XL
*I *1678:A1 I *C 55.5 27.075 *L 0.000212 *D AOI21XL
*I *1675:A1 I *C 54.7 31.065 *L 0.000212 *D AOI21XL
*I *1658:A0 I *C 30.1 16.625 *L 0.000391 *D AOI21X1
*I *1657:A1 I *C 26.3 20.805 *L 0.000212 *D AOI21XL
*I *1652:A0 I *C 54.9 30.305 *L 0.000391 *D AOI21X1
*I *1651:A1 I *C 34.3 30.495 *L 0.000212 *D AOI21XL

*CAP
1 *1678:A1 5.13812e-05
2 *1675:A1 4.42305e-05
3 *1692:Y 5.13812e-05
4 *1651:A1 9.65536e-05
5 *1658:A0 7.50394e-05
6 *1682:A1 2.36086e-05
7 *1681:A1 1.59126e-05
8 *1657:A1 8.98862e-05
9 *1089:9 0.000188646
10 *1089:10 0.000159448
11 *1089:11 6.81861e-05
12 *1089:12 0.000409067
13 *1089:13 0.000222082
14 *1089:14 0.000157651
15 *1089:15 0.000812172891
16 *1089:16 0.000164207
17 *1089:17 0.000509921
18 *1089:17 *328:8 9.48309863e-05
19 *1089:17 *339:5 9.73939941e-05
20 *1089:15 *1894:A1 0.000130355361
21 *1089:15 *78:3 0.000246882441

*RES
1 *1657:A1 *1089:17 8.23314
2 *1681:A1 *1089:16 3.64756
3 *1089:16 *1089:17 5.20531
4 *1089:17 *1089:15 17.5138702
5 *1682:A1 *1089:14 3.61523
6 *1089:14 *1089:16 1.23225
7 *1658:A0 *1089:14 5.05352
8 *1651:A1 *1089:13 8.27109
9 *1089:15 *1089:12 13.8906
10 *1089:13 *1089:15 9.53861
11 *1089:11 *1089:10 3.48562
12 *1089:12 *1089:11 6.99876
13 *1089:10 *1692:Y 3.29989
14 *1675:A1 *1089:9 4.18499
15 *1089:9 *1089:10 2.79052
16 *1652:A0 *1089:9 3.29989
17 *1678:A1 *1692:Y 1.52354
*END

*D_NET *1090 0.00128508

*CONN
*I *1279:A I *C 51.1 38.475 *L 0.00021 *D BUFX2
*I *1691:Y O *C 52.54 23.225 *L 0 *D NOR3X1

*CAP
1 *1691:Y 9.85877e-05
2 *1279:A 7.49824e-05
3 *1090:2 0.000303387637
4 *1090:3 0.000279782
5 *1090:3 *1093:10 0.000235557559
6 *1090:3 *1095:9 0.000292778008

*RES
1 *1279:A *1090:3 11.3311
2 *1090:2 *1691:Y 11.8021965
3 *1090:3 *1090:2 9.60441
*END

*D_NET *1091 0.00363624

*CONN
*I *1690:Y O *C 54.54 24.695 *L 0 *D AND2X1
*I *1684:A0 I *C 38.3 16.625 *L 0.000391 *D AOI21X1
*I *1683:A0 I *C 35.16 17.79 *L 0.000211 *D AOI21XL
*I *1680:A0 I *C 33.96 19.83 *L 0.000211 *D AOI21XL
*I *1679:A0 I *C 58.16 21.21 *L 0.000211 *D AOI21XL
*I *1677:A0 I *C 56.1 24.415 *L 0.000391 *D AOI21X1
*I *1676:A0 I *C 54.16 30.09 *L 0.000211 *D AOI21XL
*I *1674:A0 I *C 57.36 19.83 *L 0.000211 *D AOI21XL
*I *1661:A0 I *C 36.76 17.79 *L 0.000211 *D AOI21XL

*CAP
1 *1677:A0 2.56296e-05
2 *1690:Y 1.87172e-05
3 *1676:A0 6.25275e-05
4 *1684:A0 4.85185e-05
5 *1661:A0 1.32304e-05
6 *1683:A0 0.0002054
7 *1680:A0 0.000121115
8 *1091:9 0.000242708
9 *1091:10 0.000217973
10 *1091:11 0.000196694
11 *1091:12 0.000197651
12 *1091:13 0.000284851
13 *1091:14 0.000344753281
14 *1091:15 0.000256659
15 *1091:16 0.000220477
16 *1091:17 0.00016594
17 *1091:15 *1079:11 0.000189423555
18 *1091:15 *403:5 0.000175476074
19 *1091:14 *724:7 0.00017249584
20 *1091:14 *400:4 9.41753418e-05
21 *1676:A0 *1092:10 0.000114321709
22 *1676:A0 *1075:9 0.000153899189
23 *1091:9 *1086:5 0.000113606455

*RES
1 *1680:A0 *1683:A0 9.28431
2 *1683:A0 *1091:17 8.15816
3 *1091:17 *1091:16 1.42122
4 *1661:A0 *1091:17 6.77829
5 *1091:16 *1091:15 8.41976
6 *1684:A0 *1091:16 7.36745
7 *1091:15 *1091:14 8.52706
8 *1091:14 *1091:13 16.1283016
9 *1091:12 *1091:11 7.31454
10 *1676:A0 *1091:12 12.0404
11 *1091:11 *1690:Y 6.75909
12 *1091:10 *1091:11 1.26987
13 *1677:A0 *1091:10 6.8499
14 *1091:13 *1091:9 8.51082
15 *1674:A0 *1091:13 3.29993
16 *1679:A0 *1091:9 3.29993
17 *1091:9 *1091:10 7.34604
*END

*D_NET *1092 0.0056774

*CONN
*I *1689:Y O *C 53.94 26.605 *L 0 *D AND2X1
*I *1673:A0 I *C 39.16 36.93 *L 0.000211 *D AOI21XL
*I *1672:A0 I *C 47.76 48.57 *L 0.000211 *D AOI21XL
*I *1671:A0 I *C 33.9 33.725 *L 0.000391 *D AOI21X1
*I *1670:A0 I *C 26.36 31.47 *L 0.000211 *D AOI21XL
*I *1669:A0 I *C 26.76 33.51 *L 0.000211 *D AOI21XL
*I *1666:A0 I *C 41.16 48.57 *L 0.000211 *D AOI21XL
*I *1664:A0 I *C 52.9 47.405 *L 0.000391 *D AOI21X1
*I *1663:A0 I *C 55.16 48.57 *L 0.000211 *D AOI21XL

*CAP
1 *1663:A0 4.60159e-05
2 *1689:Y 0.000196878
3 *1664:A0 4.33338e-05
4 *1672:A0 2.13952e-05
5 *1666:A0 0.000201164
6 *1673:A0 5.77609e-05
7 *1671:A0 2.20526e-05
8 *1670:A0 4.80406e-05
9 *1669:A0 0.000164334
10 *1092:9 0.000380161
11 *1092:10 0.000574409961
12 *1092:11 7.89721e-05
13 *1092:12 5.25107e-05
14 *1092:13 0.000124217
15 *1092:14 0.000311497
16 *1092:15 0.000251413
17 *1092:16 0.000135962
18 *1092:17 0.000489355
19 *1092:18 0.000273825
20 *1092:19 0.000223339
21 *1092:20 7.68334e-05
22 *1669:A0 *1586:CK 7.00951e-05
23 *1669:A0 *92:28 2.68220547e-05
24 *1669:A0 *1580:D 0.000109910967
25 *1092:17 *346:4 0.000321388242
26 *1092:17 *1856:A1 0.000120282178
27 *1092:14 *1672:B0 0.000124096875
28 *1664:A0 *95:106 0.000422835352
29 *1092:10 *78:3 0.000113427637
30 *1092:10 *1676:A0 0.000114321709
31 *1092:9 *385:3 0.000114560127
32 *1092:9 *1075:14 0.000129222871
33 *1663:A0 *2007:B0 0.000236988066

*RES
1 *1092:20 *1669:A0 4.13747
2 *1670:A0 *1092:20 4.25377
3 *1669:A0 *1092:19 10.6453
4 *1092:19 *1092:18 2.13177
5 *1092:18 *1092:17 11.2732
6 *1671:A0 *1092:18 6.80513
7 *1092:16 *1092:17 11.177
8 *1673:A0 *1092:16 4.40792
9 *1092:17 *1092:15 10.9461
10 *1666:A0 *1092:14 11.8547
11 *1092:14 *1092:13 4.37684
12 *1672:A0 *1092:14 6.80513
13 *1092:12 *1092:13 3.3572
14 *1092:13 *1092:11 0.665224
15 *1664:A0 *1092:12 4.11291
16 *1092:10 *1689:Y 16.4265633
17 *1092:15 *1092:10 3.3364
18 *1092:11 *1092:9 3.3572
19 *1092:9 *1092:10 11.3013
20 *1663:A0 *1092:11 7.77264
*END

*D_NET *1093 0.00479031

*CONN
*I *1688:Y O *C 53.14 26.605 *L 0 *D AND2X1
*I *1668:A1 I *C 35.1 44.745 *L 0.000212 *D AOI21XL
*I *1667:A1 I *C 36.1 48.165 *L 0.000212 *D AOI21XL
*I *1665:A1 I *C 45.7 47.595 *L 0.000212 *D AOI21XL
*I *1662:A1 I *C 50.5 47.595 *L 0.000212 *D AOI21XL
*I *1660:A1 I *C 34.7 37.335 *L 0.000212 *D AOI21XL
*I *1646:A0 I *C 40.1 37.145 *L 0.000391 *D AOI21X1
*I *1641:A0 I *C 51.9 47.405 *L 0.000391 *D AOI21X1
*I *1637:A1 I *C 44.9 48.165 *L 0.000212 *D AOI21XL

*CAP
1 *1688:Y 5.91911e-05
2 *1641:A0 2.39027e-05
3 *1662:A1 2.68192e-05
4 *1665:A1 1.46669e-05
5 *1637:A1 2.2407e-05
6 *1646:A0 0.000310304
7 *1667:A1 7.12873e-05
8 *1668:A1 8.52531e-06
9 *1660:A1 8.57672e-05
10 *1093:9 0.000435772
11 *1093:10 0.00053257
12 *1093:11 0.000214339
13 *1093:12 0.000191156
14 *1093:13 0.00016385
15 *1093:14 0.000203906
16 *1093:15 0.000373123
17 *1093:16 0.000364719
18 *1093:17 0.000612616523
19 *1093:15 *374:3 0.000180959707
20 *1665:A1 *379:3 0.000204682344
21 *1093:12 *1080:18 0.000176310547
22 *1093:12 *730:7 0.000131964688
23 *1093:11 *1096:10 0.000145912168
24 *1093:10 *1090:3 0.000235557559

*RES
1 *1660:A1 *1093:17 4.98959
2 *1093:17 *1093:16 4.79284
3 *1093:16 *1093:15 9.72013
4 *1668:A1 *1093:16 3.35713
5 *1093:15 *1093:14 10.0492
6 *1667:A1 *1093:15 10.8278
7 *1646:A0 *1093:17 23.0669975
8 *1093:14 *1093:13 0.665232
9 *1637:A1 *1093:14 6.89307
10 *1665:A1 *1093:13 6.74911
11 *1093:13 *1093:12 4.09733
12 *1093:12 *1093:11 1.11893
13 *1662:A1 *1093:12 6.84977
14 *1093:11 *1093:10 7.6924
15 *1641:A0 *1093:11 6.80507
16 *1093:9 *1688:Y 10.9517
17 *1093:10 *1093:9 11.1843
*END

*D_NET *1094 0.000285149

*CONN
*I *1686:Y O *C 57.545 18.55 *L 0 *D OAI211X1
*I *1550:D I *C 60.1 16.245 *L 0.000307 *D DFFHQX1

*CAP
1 *1686:Y 0.000142574307
2 *1550:D 0.000142574307

*RES
1 *1550:D *1686:Y 16.0953
*END

*D_NET *1095 0.00426513

*CONN
*I *1624:A1 I *C 27.1 27.645 *L 0.000212 *D AOI21XL
*I *1622:A1 I *C 26.5 24.225 *L 0.000212 *D AOI21XL
*I *1627:A1 I *C 58.3 44.175 *L 0.000212 *D AOI21XL
*I *1625:A0 I *C 31.56 24.63 *L 0.000211 *D AOI21XL
*I *1628:A0 I *C 54.96 40.35 *L 0.000211 *D AOI21XL
*I *1623:A1 I *C 51.9 37.905 *L 0.000212 *D AOI21XL
*I *1626:A1 I *C 34.1 23.655 *L 0.000212 *D AOI21XL
*I *1629:A1 I *C 52.9 37.905 *L 0.000212 *D AOI21XL
*I *1687:Y O *C 53.155 24.89 *L 0 *D NOR2X2

*CAP
1 *1627:A1 0.000266611
2 *1629:A1 2.25908e-05
3 *1687:Y 3.28394e-05
4 *1623:A1 5.82325e-05
5 *1626:A1 5.34626e-05
6 *1625:A0 1.4005e-05
7 *1624:A1 0.000160395
8 *1622:A1 2.00866e-05
9 *1095:9 0.000434160234
10 *1095:10 0.000426827
11 *1095:11 4.10675e-05
12 *1095:12 0.000277761
13 *1095:13 8.60702e-05
14 *1095:14 0.000249744
15 *1095:15 0.000398161
16 *1095:16 0.000313462
17 *1095:17 0.00026041
18 *1095:18 0.000330806
19 *1095:15 *106:16 0.000217080117
20 *1095:15 *708:4 0.000181913379
21 *1095:10 *78:3 0.000126659873
22 *1095:9 *1090:3 0.000292778008

*RES
1 *1622:A1 *1095:18 6.84997
2 *1095:18 *1095:17 3.68903
3 *1624:A1 *1095:18 16.1877861
4 *1095:17 *1095:16 2.32828
5 *1625:A0 *1095:17 6.77834
6 *1626:A1 *1095:16 7.45489
7 *1095:16 *1095:15 11.7234
8 *1095:15 *1095:14 9.50603
9 *1623:A1 *1095:13 7.58975
10 *1095:14 *1095:12 3.56133
11 *1095:11 *1687:Y 6.94383
12 *1095:12 *1095:11 3.35706
13 *1095:13 *1095:10 3.33631
14 *1095:10 *1095:12 9.94446
15 *1629:A1 *1095:13 6.81193
16 *1095:9 *1095:10 9.89852
17 *1628:A0 *1095:9 3.3
18 *1627:A1 *1095:9 15.6651
*END

*D_NET *1096 0.00537038

*CONN
*I *1631:A0 I *C 28.36 36.93 *L 0.000211 *D AOI21XL
*I *1630:A1 I *C 28.3 34.485 *L 0.000212 *D AOI21XL
*I *1632:A1 I *C 27.1 44.745 *L 0.000212 *D AOI21XL
*I *1633:A1 I *C 29.7 48.165 *L 0.000212 *D AOI21XL
*I *1634:A1 I *C 41.9 51.015 *L 0.000212 *D AOI21XL
*I *1636:A1 I *C 51.5 48.165 *L 0.000212 *D AOI21XL
*I *1621:A1 I *C 46.9 47.595 *L 0.000212 *D AOI21XL
*I *1635:A0 I *C 51.56 43.77 *L 0.000211 *D AOI21XL
*I *1685:Y O *C 51.555 26.41 *L 0 *D NOR2X2

*CAP
1 *1636:A1 5.04276e-05
2 *1635:A0 4.76839e-05
3 *1685:Y 2.55693e-05
4 *1621:A1 0.000108418
5 *1634:A1 2.02041e-05
6 *1630:A1 8.1003e-05
7 *1632:A1 6.53238e-05
8 *1096:9 6.86636e-05
9 *1096:10 0.000350651
10 *1096:11 0.000460865
11 *1096:12 0.000335992
12 *1096:13 4.65491e-05
13 *1096:14 0.000298378
14 *1096:15 0.000329973
15 *1096:16 0.000416873
16 *1096:17 0.000412643
17 *1096:18 0.000285206
18 *1096:19 0.000315666
19 *1096:20 0.000470697891
20 *1096:19 *2238:A 8.53538477e-05
21 *1096:19 *2032:B0 0.000101089473
22 *1096:18 *686:5 0.000112771992
23 *1096:16 *435:4 0.000248551367
24 *1096:14 *1080:16 0.00017356873
25 *1096:14 *105:9 8.53538477e-05
26 *1096:11 *679:12 0.000103116035
27 *1096:10 *1093:11 0.000145912168
28 *1096:9 *1639:B0 0.000123858447

*RES
1 *1632:A1 *1096:20 7.77269
2 *1631:A0 *1096:19 3.29989
3 *1630:A1 *1096:19 4.94036
4 *1096:19 *1096:20 9.22862
5 *1096:20 *1096:18 7.03207
6 *1096:17 *1096:16 10.0542
7 *1096:18 *1096:17 5.86684
8 *1633:A1 *1096:18 3.29989
9 *1634:A1 *1096:16 6.80514
10 *1096:16 *1096:15 7.50732
11 *1096:15 *1096:14 7.17648
12 *1621:A1 *1096:15 12.2910738
13 *1096:13 *1685:Y 3.79126
14 *1096:12 *1096:13 6.80514
15 *1096:11 *1096:12 8.10371
16 *1096:10 *1096:11 4.6566
17 *1096:14 *1096:10 8.07802
18 *1635:A0 *1096:10 10.3999
19 *1636:A1 *1096:9 4.28788
20 *1096:9 *1096:14 3.56883
*END

*D_NET *1097 0.000795126

*CONN
*I *1684:Y O *C 38.98 15.99 *L 0 *D AOI21X1
*I *1618:D I *C 40.1 5.985 *L 0.000307 *D DFFHQX1

*CAP
1 *1684:Y 0.000344097617
2 *1618:D 0.000344097617
3 *1618:D *735:6 0.000106930732

*RES
1 *1618:D *1684:Y 28.2207
*END

*D_NET *1098 0.000573874

*CONN
*I *1683:Y O *C 35.74 17.83 *L 0 *D AOI21XL
*I *1620:D I *C 36.7 11.115 *L 0.000307 *D DFFHQX1

*CAP
1 *1683:Y 0.000250163
2 *1620:D 3.6774e-05
3 *1098:2 0.000286936758

*RES
1 *1620:D *1098:2 4.16931
2 *1098:2 *1683:Y 21.6736794
*END

*D_NET *1099 0.000145912

*CONN
*I *1682:Y O *C 29.14 16.37 *L 0 *D AOI21XL
*I *1619:D I *C 29.7 14.535 *L 0.000307 *D DFFHQX1

*CAP
1 *1682:Y 2.19341e-05
2 *1619:D 5.10219e-05
3 *1099:2 7.2956084e-05

*RES
1 *1619:D *1099:2 4.3129921
2 *1099:2 *1682:Y 3.84244
*END

*D_NET *1100 0.000228524

*CONN
*I *1681:Y O *C 28.54 17.83 *L 0 *D AOI21XL
*I *1615:D I *C 27.5 16.245 *L 0.000307 *D DFFHQX1

*CAP
1 *1681:Y 5.4419e-05
2 *1615:D 5.98431e-05
3 *1100:2 0.0001142621

*RES
1 *1615:D *1100:2 7.87758827
2 *1100:2 *1681:Y 4.07859
*END

*D_NET *1101 0.000368714

*CONN
*I *1680:Y O *C 34.54 19.79 *L 0 *D AOI21XL
*I *1614:D I *C 31.9 17.955 *L 0.000307 *D DFFHQX1

*CAP
1 *1680:Y 5.78762e-05
2 *1614:D 0.000119448
3 *1101:2 6.4909e-05
4 *1101:3 0.000126481055

*RES
1 *1614:D *1101:3 12.1229887
2 *1101:2 *1680:Y 4.28789
3 *1101:3 *1101:2 3.34688
*END

*D_NET *1102 0.000310063

*CONN
*I *1679:Y O *C 58.74 21.25 *L 0 *D AOI21XL
*I *1604:D I *C 60.9 19.665 *L 0.000307 *D DFFHQX1

*CAP
1 *1679:Y 0.00015503168
2 *1604:D 0.00015503168

*RES
1 *1604:D *1679:Y 16.1735
*END

*D_NET *1103 0.000380874

*CONN
*I *1678:Y O *C 55.94 26.63 *L 0 *D AOI21XL
*I *1603:D I *C 59.3 26.505 *L 0.000307 *D DFFHQX1

*CAP
1 *1678:Y 0.000190436836
2 *1603:D 0.000190436836

*RES
1 *1603:D *1678:Y 16.8905
*END

*D_NET *1104 0.000309467

*CONN
*I *1677:Y O *C 56.78 25.05 *L 0 *D AOI21X1
*I *1602:D I *C 59.5 23.085 *L 0.000307 *D DFFHQX1

*CAP
1 *1677:Y 0.000106275
2 *1602:D 4.84589e-05
3 *1104:2 0.000154733662

*RES
1 *1602:D *1104:2 4.31297
2 *1104:2 *1677:Y 6.54566288
*END

*D_NET *1105 0.000445485

*CONN
*I *1676:Y O *C 54.74 30.05 *L 0 *D AOI21XL
*I *1600:D I *C 58.9 29.925 *L 0.000307 *D DFFHQX1

*CAP
1 *1676:Y 0.000222742559
2 *1600:D 0.000222742559

*RES
1 *1600:D *1676:Y 17.2936
*END

*D_NET *1106 0.000498056

*CONN
*I *1675:Y O *C 55.14 31.51 *L 0 *D AOI21XL
*I *1599:D I *C 60.7 31.635 *L 0.000307 *D DFFHQX1

*CAP
1 *1675:Y 0.00020051002
2 *1599:D 0.00020051002
3 *1599:D *532:2 9.70363574e-05

*RES
1 *1599:D *1675:Y 18.3626
*END

*D_NET *1107 0.000320315

*CONN
*I *1674:Y O *C 57.94 19.79 *L 0 *D AOI21XL
*I *1598:D I *C 60.5 17.955 *L 0.000307 *D DFFHQX1

*CAP
1 *1674:Y 0.000160157676
2 *1598:D 0.000160157676

*RES
1 *1598:D *1674:Y 16.3373
*END

*D_NET *1108 0.000204325

*CONN
*I *1673:Y O *C 39.74 36.89 *L 0 *D AOI21XL
*I *1588:D I *C 38.1 36.765 *L 0.000307 *D DFFHQX1

*CAP
1 *1673:Y 8.49365e-05
2 *1588:D 1.72258e-05
3 *1108:2 0.000102162363

*RES
1 *1588:D *1108:2 6.81562
2 *1108:2 *1673:Y 8.07499886
*END

*D_NET *1109 0.000278473

*CONN
*I *1672:Y O *C 48.34 48.61 *L 0 *D AOI21XL
*I *1566:D I *C 47.9 52.155 *L 0.000307 *D DFFHQX1

*CAP
1 *1672:Y 5.52531e-05
2 *1566:D 7.02735e-05
3 *1109:2 6.89625e-05
4 *1109:3 8.39829492e-05

*RES
1 *1566:D *1109:3 4.83834743
2 *1109:3 *1109:2 0.362861
3 *1109:2 *1672:Y 4.22226
*END

*D_NET *1110 0.00014782

*CONN
*I *1671:Y O *C 34.58 33.09 *L 0 *D AOI21X1
*I *1586:D I *C 33.3 33.345 *L 0.000307 *D DFFHQX1

*CAP
1 *1671:Y 4.84589e-05
2 *1586:D 2.54509e-05
3 *1110:2 7.39097607e-05

*RES
1 *1586:D *1110:2 3.80267
2 *1110:2 *1671:Y 4.27889824
*END

*D_NET *1111 0.000190735

*CONN
*I *1670:Y O *C 26.94 31.51 *L 0 *D AOI21XL
*I *1584:D I *C 26.3 29.925 *L 0.000307 *D DFFHQX1

*CAP
1 *1670:Y 3.91598e-05
2 *1584:D 5.62076e-05
3 *1111:2 9.53674316e-05

*RES
1 *1584:D *1111:2 4.44531441
2 *1111:2 *1670:Y 3.93496
*END

*D_NET *1112 0.000519753

*CONN
*I *1669:Y O *C 27.34 33.47 *L 0 *D AOI21XL
*I *1582:D I *C 22.7 33.345 *L 0.000307 *D DFFHQX1

*CAP
1 *1669:Y 0.00011533499
2 *1582:D 0.00011533499
3 *1582:D *1515:CK 1.13249e-06
4 *1582:D *92:28 8.67844e-05
5 *1582:D *1580:CK 0
6 *1582:D *1582:CK 1.69872886e-05
7 *1582:D *693:5 0.000184178359

*RES
1 *1582:D *1669:Y 17.419
*END

*D_NET *1113 0.000237226

*CONN
*I *1668:Y O *C 35.54 45.19 *L 0 *D AOI21XL
*I *1583:D I *C 34.1 45.315 *L 0.000307 *D DFFHQX1

*CAP
1 *1668:Y 8.77378e-05
2 *1583:D 3.08755e-05
3 *1113:2 0.000118613242

*RES
1 *1583:D *1113:2 10.2944374
2 *1113:2 *1668:Y 7.89723
*END

*D_NET *1114 0.000352025

*CONN
*I *1667:Y O *C 36.54 48.61 *L 0 *D AOI21XL
*I *1581:D I *C 39.3 50.445 *L 0.000307 *D DFFHQX1

*CAP
1 *1581:D 8.19565e-05
2 *1667:Y 9.4056e-05
3 *1114:2 0.00017601252

*RES
1 *1114:2 *1667:Y 8.41248035
2 *1581:D *1114:2 8.2777
*END

*D_NET *1115 0.000383615

*CONN
*I *1666:Y O *C 41.74 48.61 *L 0 *D AOI21XL
*I *1572:D I *C 41.3 53.865 *L 0.000307 *D DFFHQX1

*CAP
1 *1666:Y 2.9623e-05
2 *1572:D 0.000112236
3 *1115:2 0.000141859053
4 *1115:2 *704:5 9.98973828e-05

*RES
1 *1572:D *1115:2 6.84916973
2 *1115:2 *1666:Y 3.86687
*END

*D_NET *1116 0.000179052

*CONN
*I *1665:Y O *C 46.14 47.15 *L 0 *D AOI21XL
*I *1571:D I *C 45.3 45.315 *L 0.000307 *D DFFHQX1

*CAP
1 *1665:Y 3.04582e-05
2 *1571:D 5.9068e-05
3 *1116:2 8.95261719e-05

*RES
1 *1571:D *1116:2 4.49812412
2 *1116:2 *1665:Y 3.93497
*END

*D_NET *1117 0.000411868

*CONN
*I *1664:Y O *C 53.58 46.77 *L 0 *D AOI21X1
*I *1570:D I *C 56.9 47.025 *L 0.000307 *D DFFHQX1

*CAP
1 *1664:Y 0.000139236445
2 *1570:D 0.000139236445
3 *1570:D *729:7 0.000133395195

*RES
1 *1570:D *1664:Y 16.6867
*END

*D_NET *1118 0.000372291

*CONN
*I *1663:Y O *C 55.74 48.61 *L 0 *D AOI21XL
*I *1568:D I *C 57.7 52.155 *L 0.000307 *D DFFHQX1

*CAP
1 *1663:Y 0.000128985
2 *1568:D 5.71601e-05
3 *1118:2 0.000186145313

*RES
1 *1568:D *1118:2 4.47159
2 *1118:2 *1663:Y 12.7180815
*END

*D_NET *1119 0.000520468

*CONN
*I *1662:Y O *C 50.94 47.15 *L 0 *D AOI21XL
*I *1567:D I *C 52.5 52.155 *L 0.000307 *D DFFHQX1

*CAP
1 *1662:Y 9.066e-05
2 *1567:D 0.000169574
3 *1119:2 0.000260233887

*RES
1 *1567:D *1119:2 6.70552254
2 *1119:2 *1662:Y 5.26509
*END

*D_NET *1120 0.000175357

*CONN
*I *1661:Y O *C 37.34 17.83 *L 0 *D AOI21XL
*I *1616:D I *C 36.9 16.245 *L 0.000307 *D DFFHQX1

*CAP
1 *1661:Y 3.57029e-05
2 *1616:D 5.19756e-05
3 *1120:2 8.76784277e-05

*RES
1 *1616:D *1120:2 4.27138805
2 *1120:2 *1661:Y 3.93495
*END

*D_NET *1121 0.000254631

*CONN
*I *1660:Y O *C 35.14 36.89 *L 0 *D AOI21XL
*I *1587:D I *C 36.3 38.475 *L 0.000307 *D DFFHQX1

*CAP
1 *1660:Y 4.95311e-05
2 *1587:D 3.34385e-05
3 *1121:2 8.2969668e-05
4 *1121:2 *685:6 8.8691709e-05

*RES
1 *1587:D *1121:2 4.26386
2 *1121:2 *1660:Y 4.55999374
*END

*D_NET *1122 0.000566125

*CONN
*I *1659:Y O *C 49.94 50.57 *L 0 *D AOI21XL
*I *1559:D I *C 50.3 57.285 *L 0.000307 *D DFFHQX1

*CAP
1 *1559:D 7.15848e-05
2 *1659:Y 5.3107e-05
3 *1122:2 0.000229954727
4 *1122:3 0.000211477

*RES
1 *1122:3 *1659:Y 4.07866
2 *1559:D *1122:2 4.98199463
3 *1122:2 *1122:3 3.48495
*END

*D_NET *1123 0.000402689

*CONN
*I *1658:Y O *C 30.78 15.99 *L 0 *D AOI21X1
*I *1617:D I *C 32.9 12.825 *L 0.000307 *D DFFHQX1

*CAP
1 *1658:Y 0.000152707
2 *1617:D 4.86379e-05
3 *1123:2 0.000201344492

*RES
1 *1617:D *1123:2 4.31302
2 *1123:2 *1658:Y 13.0107403
*END

*D_NET *1124 0.000318646

*CONN
*I *1657:Y O *C 26.74 21.25 *L 0 *D AOI21XL
*I *1613:D I *C 26.3 17.955 *L 0.000307 *D DFFHQX1

*CAP
1 *1657:Y 5.42404e-05
2 *1613:D 8.87517e-05
3 *1124:2 7.05716e-05
4 *1124:3 0.000105082988

*RES
1 *1613:D *1124:3 5.11050224
2 *1124:3 *1124:2 0.362841
3 *1124:2 *1657:Y 4.07859
*END

*D_NET *1125 0.000264406

*CONN
*I *1656:Y O *C 27.74 23.21 *L 0 *D AOI21XL
*I *1611:D I *C 25.3 23.085 *L 0.000307 *D DFFHQX1

*CAP
1 *1656:Y 0.000115276
2 *1611:D 1.69271e-05
3 *1125:2 0.000132203105

*RES
1 *1611:D *1125:2 6.80834
2 *1125:2 *1656:Y 8.67974758
*END

*D_NET *1126 0.000136614

*CONN
*I *1655:Y O *C 34.98 26.25 *L 0 *D AOI21X1
*I *1609:D I *C 33.7 26.505 *L 0.000307 *D DFFHQX1

*CAP
1 *1655:Y 6.83069238e-05
2 *1609:D 6.83069238e-05

*RES
1 *1609:D *1655:Y 11.3893
*END

*D_NET *1127 0.000421166

*CONN
*I *1654:Y O *C 26.74 23.21 *L 0 *D AOI21XL
*I *1607:D I *C 22.1 23.085 *L 0.000307 *D DFFHQX1

*CAP
1 *1654:Y 2.4556e-05
2 *1607:D 0.000186027
3 *1127:2 0.000210583203

*RES
1 *1607:D *1127:2 13.9116049
2 *1127:2 *1654:Y 3.64772
*END

*D_NET *1128 0.000179291

*CONN
*I *1653:Y O *C 27.74 26.63 *L 0 *D AOI21XL
*I *1605:D I *C 26.3 26.505 *L 0.000307 *D DFFHQX1

*CAP
1 *1653:Y 4.29152e-05
2 *1605:D 4.67302e-05
3 *1128:2 8.96453906e-05

*RES
1 *1605:D *1128:2 4.40740585
2 *1128:2 *1653:Y 4.00686
*END

*D_NET *1129 0.000344157

*CONN
*I *1652:Y O *C 55.58 29.67 *L 0 *D AOI21X1
*I *1601:D I *C 58.9 28.215 *L 0.000307 *D DFFHQX1

*CAP
1 *1652:Y 0.000172078613
2 *1601:D 0.000172078613

*RES
1 *1601:D *1652:Y 16.8033
*END

*D_NET *1130 0.000202775

*CONN
*I *1651:Y O *C 34.74 30.05 *L 0 *D AOI21XL
*I *1597:D I *C 32.9 29.925 *L 0.000307 *D DFFHQX1

*CAP
1 *1651:Y 8.48168e-05
2 *1597:D 1.65707e-05
3 *1130:2 0.0001013875

*RES
1 *1597:D *1130:2 6.82346
2 *1130:2 *1651:Y 8.22615623
*END

*D_NET *1131 0.000221252

*CONN
*I *1650:Y O *C 50.14 38.35 *L 0 *D AOI21XL
*I *1595:D I *C 49.7 40.185 *L 0.000307 *D DFFHQX1

*CAP
1 *1650:Y 3.10533e-05
2 *1595:D 7.95729e-05
3 *1131:2 0.000110626221

*RES
1 *1595:D *1131:2 4.98199463
2 *1131:2 *1650:Y 3.84475
*END

*D_NET *1132 0.000308633

*CONN
*I *1649:Y O *C 55.18 35.31 *L 0 *D AOI21X1
*I *1593:D I *C 58.1 35.055 *L 0.000307 *D DFFHQX1

*CAP
1 *1649:Y 0.000154316426
2 *1593:D 0.000154316426

*RES
1 *1593:D *1649:Y 16.3769
*END

*D_NET *1133 0.000277042

*CONN
*I *1648:Y O *C 54.94 33.47 *L 0 *D AOI21XL
*I *1591:D I *C 58.1 33.345 *L 0.000307 *D DFFHQX1

*CAP
1 *1591:D 0.000116228
2 *1648:Y 2.22932e-05
3 *1133:2 0.000138521191

*RES
1 *1133:2 *1648:Y 6.80512
2 *1591:D *1133:2 9.26327705
*END

*D_NET *1134 0.000291824

*CONN
*I *1647:Y O *C 54.94 36.89 *L 0 *D AOI21XL
*I *1589:D I *C 58.1 36.765 *L 0.000307 *D DFFHQX1

*CAP
1 *1589:D 0.000123621
2 *1647:Y 2.22915e-05
3 *1134:2 0.000145912168

*RES
1 *1134:2 *1647:Y 6.80512
2 *1589:D *1134:2 9.26327705
*END

*D_NET *1135 0.000208855

*CONN
*I *1646:Y O *C 40.78 36.51 *L 0 *D AOI21X1
*I *1585:D I *C 39.5 38.475 *L 0.000307 *D DFFHQX1

*CAP
1 *1646:Y 3.12334e-05
2 *1585:D 7.31939e-05
3 *1135:2 0.000104427334

*RES
1 *1585:D *1135:2 8.02874565
2 *1135:2 *1646:Y 7.09143
*END

*D_NET *1136 0.000202179

*CONN
*I *1645:Y O *C 30.94 36.89 *L 0 *D AOI21XL
*I *1579:D I *C 29.9 38.475 *L 0.000307 *D DFFHQX1

*CAP
1 *1645:Y 3.99946e-05
2 *1579:D 6.10948e-05
3 *1136:2 0.000101089473

*RES
1 *1579:D *1136:2 4.61912155
2 *1136:2 *1645:Y 4.04857
*END

*D_NET *1137 0.00011003

*CONN
*I *1644:Y O *C 32.98 36.51 *L 0 *D AOI21X1
*I *1577:D I *C 33.1 38.475 *L 0.000307 *D DFFHQX1

*CAP
1 *1644:Y 7.86757e-06
2 *1577:D 4.71475e-05
3 *1137:2 5.50150879e-05

*RES
1 *1577:D *1137:2 4.32813168
2 *1137:2 *1644:Y 3.34681
*END

*D_NET *1138 0.000507593

*CONN
*I *1643:Y O *C 34.74 43.73 *L 0 *D AOI21XL
*I *1575:D I *C 30.5 45.315 *L 0.000307 *D DFFHQX1

*CAP
1 *1643:Y 0.000191688535
2 *1575:D 0.000191688535
3 *1575:D *491:3 0.000124216084

*RES
1 *1575:D *1643:Y 17.72
*END

*D_NET *1139 0.000198483

*CONN
*I *1642:Y O *C 34.74 48.61 *L 0 *D AOI21XL
*I *1573:D I *C 36.1 50.445 *L 0.000307 *D DFFHQX1

*CAP
1 *1642:Y 4.54194e-05
2 *1573:D 5.38224e-05
3 *1139:2 9.92417383e-05

*RES
1 *1573:D *1139:2 4.47168
2 *1139:2 *1642:Y 4.82547283
*END

*D_NET *1140 0.000553489

*CONN
*I *1641:Y O *C 52.58 46.77 *L 0 *D AOI21X1
*I *1569:D I *C 60.1 47.025 *L 0.000307 *D DFFHQX1

*CAP
1 *1569:D 0.00015217
2 *1641:Y 2.05044e-05
3 *1140:2 0.000172674648
4 *1569:D *90:21 7.56979e-06
5 *1569:D *90:22 7.71284e-05
6 *1569:D *1570:CK 8.04663249e-06
7 *1569:D *730:5 0.00011539459

*RES
1 *1140:2 *1641:Y 6.80514
2 *1569:D *1140:2 12.5894547
*END

*D_NET *1141 0.000442028

*CONN
*I *1640:Y O *C 43.54 50.57 *L 0 *D AOI21XL
*I *1563:D I *C 45.9 53.865 *L 0.000307 *D DFFHQX1

*CAP
1 *1640:Y 0.000162303
2 *1563:D 5.87111e-05
3 *1141:2 0.000221014023

*RES
1 *1563:D *1141:2 4.61534
2 *1141:2 *1640:Y 13.0162239
*END

*D_NET *1142 0.00046438

*CONN
*I *1639:Y O *C 51.58 50.19 *L 0 *D AOI21X1
*I *1561:D I *C 54.3 53.865 *L 0.000307 *D DFFHQX1

*CAP
1 *1639:Y 0.000190556055
2 *1561:D 0.000190556055
3 *1561:D *86:23 3.14713e-05
4 *1561:D *86:24 1.58548e-05
5 *1561:D *1561:CK 7.98702e-06
6 *1561:D *86:25 1.12653e-05
7 *1561:D *86:27 1.6689271e-05

*RES
1 *1561:D *1639:Y 18.2294
*END

*D_NET *1143 0.000535965

*CONN
*I *1638:Y O *C 39.94 48.61 *L 0 *D AOI21XL
*I *1557:D I *C 39.3 55.575 *L 0.000307 *D DFFHQX1

*CAP
1 *1638:Y 0.000162782
2 *1557:D 4.55961e-05
3 *1143:2 0.000208377832
4 *1143:2 *740:5 0.000119209287

*RES
1 *1557:D *1143:2 4.31671
2 *1143:2 *1638:Y 7.81297684
*END

*D_NET *1144 0.000586033

*CONN
*I *1637:Y O *C 45.34 48.61 *L 0 *D AOI21XL
*I *1565:D I *C 46.5 55.575 *L 0.000307 *D DFFHQX1

*CAP
1 *1565:D 0.000252307
2 *1637:Y 4.07098e-05
3 *1144:2 0.000293016426

*RES
1 *1144:2 *1637:Y 4.22226
2 *1565:D *1144:2 9.02628899
*END

*D_NET *1145 0.000830948

*CONN
*I *1636:Y O *C 51.94 48.61 *L 0 *D AOI21XL
*I *1560:D I *C 53.5 57.285 *L 0.000307 *D DFFHQX1

*CAP
1 *1636:Y 0.000287113
2 *1560:D 8.33892e-05
3 *1145:2 0.000370502461
4 *1145:2 *2007:B0 8.99434082e-05

*RES
1 *1560:D *1145:2 5.12576
2 *1145:2 *1636:Y 22.9595909
*END

*D_NET *1146 0.000136137

*CONN
*I *1635:Y O *C 52.14 43.73 *L 0 *D AOI21XL
*I *1562:D I *C 52.1 45.315 *L 0.000307 *D DFFHQX1

*CAP
1 *1635:Y 7.68919e-06
2 *1562:D 6.03793e-05
3 *1146:2 6.80685059e-05

*RES
1 *1562:D *1146:2 4.47165966
2 *1146:2 *1635:Y 3.34679
*END

*D_NET *1147 0.000497222

*CONN
*I *1634:Y O *C 42.34 50.57 *L 0 *D AOI21XL
*I *1564:D I *C 42.5 55.575 *L 0.000307 *D DFFHQX1

*CAP
1 *1564:D 0.000123977
2 *1634:Y 0.000124634
3 *1147:2 0.000248610977

*RES
1 *1147:2 *1634:Y 5.65854
2 *1564:D *1147:2 8.95094872
*END

*D_NET *1148 0.000143528

*CONN
*I *1633:Y O *C 30.14 48.61 *L 0 *D AOI21XL
*I *1574:D I *C 29.7 50.445 *L 0.000307 *D DFFHQX1

*CAP
1 *1633:Y 2.41995e-05
2 *1574:D 4.75645e-05
3 *1148:2 7.17639941e-05

*RES
1 *1574:D *1148:2 4.26387787
2 *1148:2 *1633:Y 3.86694
*END

*D_NET *1149 0.000144243

*CONN
*I *1632:Y O *C 27.54 45.19 *L 0 *D AOI21XL
*I *1576:D I *C 26.9 47.025 *L 0.000307 *D DFFHQX1

*CAP
1 *1632:Y 3.55243e-05
2 *1576:D 3.65973e-05
3 *1149:2 7.21216211e-05

*RES
1 *1576:D *1149:2 4.1731596
2 *1149:2 *1632:Y 4.0786
*END

*D_NET *1150 0.000316262

*CONN
*I *1631:Y O *C 28.94 36.89 *L 0 *D AOI21XL
*I *1578:D I *C 26.7 38.475 *L 0.000307 *D DFFHQX1

*CAP
1 *1631:Y 5.14388e-05
2 *1578:D 0.000106692
3 *1150:2 0.000158131123

*RES
1 *1578:D *1150:2 11.9588375
2 *1150:2 *1631:Y 4.19132
*END

*D_NET *1151 0.000421166

*CONN
*I *1630:Y O *C 28.74 34.93 *L 0 *D AOI21XL
*I *1580:D I *C 25.9 33.345 *L 0.000307 *D DFFHQX1

*CAP
1 *1630:Y 4.23794e-05
2 *1580:D 0.000113248
3 *1151:2 0.000155627725
4 *1580:D *1669:A0 0.000109910967

*RES
1 *1580:D *1151:2 12.4758482
2 *1151:2 *1630:Y 4.12067
*END

*D_NET *1152 0.000130892

*CONN
*I *1629:Y O *C 53.34 38.35 *L 0 *D AOI21XL
*I *1590:D I *C 53.1 40.185 *L 0.000307 *D DFFHQX1

*CAP
1 *1629:Y 1.74642e-05
2 *1590:D 4.79817e-05
3 *1152:2 6.54458984e-05

*RES
1 *1590:D *1152:2 4.26387787
2 *1152:2 *1629:Y 3.71573
*END

*D_NET *1153 0.000460625

*CONN
*I *1628:Y O *C 55.54 40.31 *L 0 *D AOI21XL
*I *1594:D I *C 60.5 41.895 *L 0.000307 *D DFFHQX1

*CAP
1 *1628:Y 0.000230312344
2 *1594:D 0.000230312344

*RES
1 *1594:D *1628:Y 18.2669
*END

*D_NET *1154 0.000243187

*CONN
*I *1627:Y O *C 58.74 43.73 *L 0 *D AOI21XL
*I *1596:D I *C 60.5 45.315 *L 0.000307 *D DFFHQX1

*CAP
1 *1627:Y 6.98576e-05
2 *1596:D 5.17359e-05
3 *1154:2 0.000121593477

*RES
1 *1596:D *1154:2 4.26388
2 *1154:2 *1627:Y 5.32150269
*END

*D_NET *1155 0.000194669

*CONN
*I *1626:Y O *C 34.54 23.21 *L 0 *D AOI21XL
*I *1606:D I *C 32.9 23.085 *L 0.000307 *D DFFHQX1

*CAP
1 *1626:Y 6.65189e-05
2 *1606:D 3.08155e-05
3 *1155:2 9.73343848e-05

*RES
1 *1606:D *1155:2 7.17493
2 *1155:2 *1626:Y 7.7726841
*END

*D_NET *1156 0.000221014

*CONN
*I *1625:Y O *C 32.14 24.67 *L 0 *D AOI21XL
*I *1610:D I *C 30.1 24.795 *L 0.000307 *D DFFHQX1

*CAP
1 *1625:Y 9.41152e-05
2 *1610:D 1.63918e-05
3 *1156:2 0.000110507012

*RES
1 *1610:D *1156:2 6.80845
2 *1156:2 *1625:Y 8.37743282
*END

*D_NET *1157 0.000185013

*CONN
*I *1624:Y O *C 27.54 28.09 *L 0 *D AOI21XL
*I *1612:D I *C 26.1 28.215 *L 0.000307 *D DFFHQX1

*CAP
1 *1624:Y 7.61154e-05
2 *1612:D 1.6391e-05
3 *1157:2 9.25064063e-05

*RES
1 *1612:D *1157:2 6.80834
2 *1157:2 *1624:Y 7.92384148
*END

*D_NET *1158 0.000249982

*CONN
*I *1623:Y O *C 52.34 38.35 *L 0 *D AOI21XL
*I *1592:D I *C 51.9 41.895 *L 0.000307 *D DFFHQX1

*CAP
1 *1623:Y 2.9981e-05
2 *1592:D 8.15981e-05
3 *1158:2 4.33927e-05
4 *1158:3 9.50098047e-05

*RES
1 *1592:D *1158:3 5.09536266
2 *1158:3 *1158:2 0.33261
3 *1158:2 *1623:Y 3.93496
*END

*D_NET *1159 0.000319958

*CONN
*I *1622:Y O *C 26.94 24.67 *L 0 *D AOI21XL
*I *1608:D I *C 22.7 24.795 *L 0.000307 *D DFFHQX1

*CAP
1 *1622:Y 1.94899e-05
2 *1608:D 0.000140489
3 *1159:2 0.000159978867

*RES
1 *1608:D *1159:2 10.0191832
2 *1159:2 *1622:Y 6.80502
*END

*D_NET *1160 0.000248313

*CONN
*I *1621:Y O *C 47.34 47.15 *L 0 *D AOI21XL
*I *1558:D I *C 48.9 45.315 *L 0.000307 *D DFFHQX1

*CAP
1 *1621:Y 8.20757e-05
2 *1558:D 4.20808e-05
3 *1160:2 0.000124156475

*RES
1 *1558:D *1160:2 4.16928
2 *1160:2 *1621:Y 11.4053488
*END

*D_NET *1161 0.000280499

*CONN
*I *1797:A I *C 59.17 9.45 *L 0.000212 *D NOR2XL
*I *1420:QN O *C 57.7 7.315 *L 0 *D DFFRX1
*I *1290:A I *C 57.9 9.595 *L 0.00241 *D CLKINVX6

*CAP
1 *1797:A 6.68773e-05
2 *1290:A 1.01932e-05
3 *1420:QN 6.31814e-05
4 *1161:3 0.000140249727

*RES
1 *1161:3 *1420:QN 4.64447
2 *1290:A *1161:3 3.35711
3 *1797:A *1161:3 10.9328032
*END

*D_NET *1162 0.00366592

*CONN
*I *1478:A I *C 64.3 48.925 *L 0.000211 *D AND2XL
*I *1471:A I *C 64.5 14.725 *L 0.000211 *D AND2XL
*I *1468:A I *C 67.5 33.155 *L 0.000211 *D AND2XL
*I *1453:A I *C 64.3 50.255 *L 0.000211 *D AND2XL
*I *1448:A I *C 65.9 18.145 *L 0.000211 *D AND2XL
*I *1443:A I *C 65.5 46.835 *L 0.000211 *D AND2XL
*I *1442:A I *C 67.5 26.315 *L 0.000211 *D AND2XL
*I *1438:A I *C 66.5 45.505 *L 0.000211 *D AND2XL
*I *1423:A I *C 64.5 9.215 *L 0.000211 *D AND2XL
*I *1420:Q O *C 58.33 7.425 *L 0 *D DFFRX1

*CAP
1 *1468:A 5.25109e-05
2 *1442:A 5.51372e-05
3 *1438:A 1.61547e-05
4 *1448:A 3.03417e-05
5 *1420:Q 0.000253438
6 *1453:A 4.54174e-05
7 *1478:A 4.11248e-05
8 *1162:10 0.000345288
9 *1162:11 0.000519990938
10 *1162:12 0.000491141
11 *1162:13 5.66844e-05
12 *1162:14 0.000113369
13 *1162:15 0.000473383
14 *1162:16 0.000318112
15 *1162:17 0.000431005
16 *1162:18 0.000206409
17 *1162:19 0.000216423

*RES
1 *1478:A *1162:19 3.79133
2 *1453:A *1162:19 3.93498
3 *1162:19 *1162:18 9.58564
4 *1423:A *1162:17 3.30002
5 *1471:A *1162:16 3.30002
6 *1162:17 *1420:Q 16.1479721
7 *1162:16 *1162:17 4.22573
8 *1443:A *1162:18 3.30002
9 *1162:15 *1162:16 3.57549
10 *1162:18 *1162:14 1.74475
11 *1448:A *1162:15 3.86698
12 *1438:A *1162:14 3.50428
13 *1162:13 *1162:12 3.33624
14 *1162:12 *1162:11 8.63085
15 *1162:14 *1162:10 6.80503
16 *1162:10 *1162:12 9.46072
17 *1162:11 *1162:15 10.2778
18 *1442:A *1162:11 7.51515
19 *1468:A *1162:13 7.66644
*END

*D_NET *1163 0.00333869

*CONN
*I *2112:B I *C 54.3 10.925 *L 0.000392 *D NAND2BX1
*I *1556:Q O *C 58.54 10.99 *L 0 *D DFFHQX1
*I *1428:B I *C 63.3 57.285 *L 0.00021 *D AND2XL

*CAP
1 *1428:B 9.22709e-05
2 *1556:Q 1.71631e-05
3 *2112:B 0.000145437
4 *1163:3 0.000563505
5 *1163:4 9.84633e-05
6 *1163:5 0.000662028828
7 *1163:6 0.000542341
8 *1163:7 0.000524461
9 *1163:8 2.48002e-05
10 *1163:9 0.00023991
11 *1163:7 *122:70 8.60691113e-05
12 *1163:3 *375:4 8.39233398e-05
13 *1163:3 *342:4 0.000153899189
14 *1428:B *95:76 0.000104427334

*RES
1 *2112:B *1163:9 10.1715
2 *1163:8 *1556:Q 3.57241
3 *1163:9 *1163:8 3.34672
4 *1163:7 *1163:9 5.81503
5 *1163:6 *1163:7 13.5315
6 *1163:5 *1163:6 4.15757
7 *1163:4 *1163:3 3.35705
8 *1163:3 *1163:5 17.3603287
9 *1428:B *1163:4 9.1334
*END

