*SPEF "IEEE 1481-1998"
*DESIGN "aer_pending_direct_gray_sync_core_reset"
*DATE "Fri Aug 21 03:20:00 2026"
*VENDOR "Cadence Design Systems, Inc."
*PROGRAM "Innovus"
*VERSION "23.14-s088_1"
*DESIGN_FLOW "COUPLING C" "PIN_CAP NONE" "NAME_SCOPE LOCAL"
*DIVIDER /
*DELIMITER :
*BUS_DELIMITER []
*T_UNIT 1 NS
*C_UNIT 1 PF
*R_UNIT 1 OHM
*L_UNIT 1 HENRY

// MMMC spef file for corner 'rc_180nm'

*NAME_MAP

*1 FE_PHN82_req_meta_q_15
*2 FE_PHN81_req_meta_q_0
*3 FE_PHN80_reset_release_q_0
*4 FE_PHN79_req_meta_q_4
*5 FE_PHN78_req_meta_q_8
*6 FE_PHN77_req_meta_q_2
*7 FE_PHN76_req_meta_q_1
*8 FE_PHN75_req_meta_q_11
*9 FE_PHN74_req_meta_q_6
*10 FE_PHN73_req_meta_q_12
*11 FE_PHN72_req_meta_q_9
*12 FE_PHN71_req_meta_q_3
*13 FE_PHN70_req_meta_q_14
*14 FE_PHN69_req_meta_q_13
*15 FE_PHN68_reset_release_q_0
*16 FE_PHN67_n_24
*17 FE_PHN66_n_29
*18 FE_PHN65_n_35
*19 FE_PHN64_n_20
*20 FE_PHN63_n_33
*21 FE_PHN62_n_31
*22 FE_PHN61_n_30
*23 FE_PHN60_n_26
*24 FE_PHN59_n_25
*25 FE_PHN58_n_28
*26 FE_PHN57_pending_q_12
*27 FE_PHN56_pending_q_8
*28 FE_PHN55_pending_q_0
*29 FE_PHN54_pending_q_10
*30 FE_PHN53_pending_q_14
*31 FE_PHN52_pending_q_5
*32 FE_PHN51_pending_q_1
*33 FE_PHN50_pending_q_3
*34 FE_PHN49_pending_q_6
*35 FE_PHN48_pending_q_7
*36 FE_PHN47_req_meta_q_5
*37 FE_PHN46_req_meta_q_7
*38 FE_PHN45_req_meta_q_10
*39 FE_PHN44_req_meta_q_1
*40 FE_PHN43_req_meta_q_12
*41 FE_PHN42_req_meta_q_4
*42 FE_PHN41_req_meta_q_14
*43 FE_PHN40_req_meta_q_11
*44 FE_PHN39_req_meta_q_2
*45 FE_PHN38_req_meta_q_6
*46 FE_PHN37_req_meta_q_3
*47 FE_PHN36_req_meta_q_8
*48 FE_PHN35_req_meta_q_0
*49 FE_PHN34_req_meta_q_13
*50 FE_PHN33_req_meta_q_9
*51 FE_PHN32_out_valid_q
*52 FE_PHN31_n_34
*53 FE_PHN30_n_27
*54 FE_PHN29_n_21
*55 FE_PHN28_n_32
*56 FE_PHN27_n_22
*57 FE_PHN26_n_23
*58 FE_PHN25_out_addr_2
*59 FE_PHN24_rst_n
*60 FE_PHN23_out_addr_0
*61 FE_PHN22_out_addr_3
*62 FE_PHN21_out_addr_1
*63 FE_PHN20_req_meta_q_15
*64 FE_PHN19_req_meta_q_5
*65 FE_PHN18_reset_release_q_0
*66 FE_PHN17_req_meta_q_7
*67 FE_PHN16_req_meta_q_8
*68 FE_PHN15_req_meta_q_6
*69 FE_PHN14_req_meta_q_0
*70 FE_PHN13_req_meta_q_12
*71 FE_PHN12_req_meta_q_5
*72 FE_PHN11_req_meta_q_1
*73 FE_PHN10_req_meta_q_14
*74 FE_PHN9_req_meta_q_3
*75 FE_PHN8_req_meta_q_2
*76 FE_PHN7_req_meta_q_15
*77 FE_PHN6_req_meta_q_9
*78 FE_PHN5_req_meta_q_13
*79 FE_PHN4_req_meta_q_10
*80 FE_PHN3_req_meta_q_4
*81 FE_PHN2_req_meta_q_11
*82 FE_PHN1_rst_n
*83 CTS_1
*84 FE_OFN0_reset_release_q_1
*85 clk
*86 rst_n
*87 src_req_async[15]
*88 src_req_async[14]
*89 src_req_async[13]
*90 src_req_async[12]
*91 src_req_async[11]
*92 src_req_async[10]
*93 src_req_async[9]
*94 src_req_async[8]
*95 src_req_async[7]
*96 src_req_async[6]
*97 src_req_async[5]
*98 src_req_async[4]
*99 src_req_async[3]
*100 src_req_async[2]
*101 src_req_async[1]
*102 src_req_async[0]
*103 src_ack_async[15]
*104 src_ack_async[14]
*105 src_ack_async[13]
*106 src_ack_async[12]
*107 src_ack_async[11]
*108 src_ack_async[10]
*109 src_ack_async[9]
*110 src_ack_async[8]
*111 src_ack_async[7]
*112 src_ack_async[6]
*113 src_ack_async[5]
*114 src_ack_async[4]
*115 src_ack_async[3]
*116 src_ack_async[2]
*117 src_ack_async[1]
*118 src_ack_async[0]
*119 out_addr[3]
*120 out_addr[2]
*121 out_addr[1]
*122 out_addr[0]
*123 out_valid
*124 out_ready
*125 pending_q[15]
*126 pending_q[14]
*127 pending_q[13]
*128 pending_q[12]
*129 pending_q[11]
*130 pending_q[10]
*131 pending_q[9]
*132 pending_q[8]
*133 pending_q[7]
*134 pending_q[6]
*135 pending_q[5]
*136 pending_q[4]
*137 pending_q[3]
*138 pending_q[2]
*139 pending_q[1]
*140 pending_q[0]
*141 epoch_gray_q[3]
*142 epoch_gray_q[2]
*143 epoch_gray_q[1]
*144 epoch_gray_q[0]
*145 ack_q[15]
*146 ack_q[14]
*147 ack_q[13]
*148 ack_q[12]
*149 ack_q[11]
*150 ack_q[10]
*151 ack_q[9]
*152 ack_q[8]
*153 ack_q[7]
*154 ack_q[6]
*155 ack_q[5]
*156 ack_q[4]
*157 ack_q[3]
*158 ack_q[2]
*159 ack_q[1]
*160 ack_q[0]
*161 req_sync_q[15]
*162 req_sync_q[14]
*163 req_sync_q[13]
*164 req_sync_q[12]
*165 req_sync_q[11]
*166 req_sync_q[10]
*167 req_sync_q[9]
*168 req_sync_q[8]
*169 req_sync_q[7]
*170 req_sync_q[6]
*171 req_sync_q[5]
*172 req_sync_q[4]
*173 req_sync_q[3]
*174 req_sync_q[2]
*175 req_sync_q[1]
*176 req_sync_q[0]
*177 reset_release_q[1]
*178 reset_release_q[0]
*179 req_meta_q[15]
*180 req_meta_q[14]
*181 req_meta_q[13]
*182 req_meta_q[12]
*183 req_meta_q[11]
*184 req_meta_q[10]
*185 req_meta_q[9]
*186 req_meta_q[8]
*187 req_meta_q[7]
*188 req_meta_q[6]
*189 req_meta_q[5]
*190 req_meta_q[4]
*191 req_meta_q[3]
*192 req_meta_q[2]
*193 req_meta_q[1]
*194 req_meta_q[0]
*195 UNCONNECTED
*196 UNCONNECTED0
*197 UNCONNECTED1
*198 UNCONNECTED2
*199 UNCONNECTED3
*200 UNCONNECTED4
*201 UNCONNECTED5
*202 UNCONNECTED6
*203 UNCONNECTED7
*204 UNCONNECTED8
*205 UNCONNECTED9
*206 UNCONNECTED10
*207 UNCONNECTED11
*208 UNCONNECTED12
*209 UNCONNECTED13
*210 UNCONNECTED14
*211 n_0
*212 n_1
*213 n_2
*214 n_3
*215 n_4
*216 n_5
*217 n_6
*218 n_7
*219 n_8
*220 n_10
*221 n_11
*222 n_12
*223 n_13
*224 n_14
*225 n_15
*226 n_16
*227 n_17
*228 n_19
*229 n_20
*230 n_21
*231 n_22
*232 n_23
*233 n_24
*234 n_25
*235 n_26
*236 n_27
*237 n_28
*238 n_29
*239 n_30
*240 n_31
*241 n_32
*242 n_33
*243 n_34
*244 n_35
*245 n_38
*246 n_54
*247 n_56
*248 n_57
*249 n_58
*250 n_59
*251 n_60
*252 n_61
*253 n_62
*254 n_63
*255 n_64
*256 n_65
*257 n_66
*258 n_67
*259 n_68
*260 n_69
*261 n_70
*262 n_71
*263 n_72
*264 n_73
*265 n_74
*266 n_75
*267 n_76
*268 n_77
*269 n_78
*270 n_79
*271 n_80
*272 n_81
*273 n_82
*274 n_83
*275 n_84
*276 n_85
*277 n_86
*278 n_87
*279 n_89
*280 n_90
*281 n_91
*282 n_92
*283 n_93
*284 n_94
*285 n_95
*286 n_96
*287 n_97
*288 n_98
*289 n_99
*290 n_100
*291 n_101
*292 n_102
*293 n_103
*294 n_104
*295 n_105
*296 n_106
*297 n_107
*298 n_108
*299 n_109
*300 n_110
*301 n_111
*302 n_112
*303 n_113
*304 n_114
*305 n_115
*306 n_116
*307 n_117
*308 n_118
*309 n_120
*310 n_121
*311 n_122
*312 n_123
*313 n_124
*314 n_125
*315 n_126
*316 n_127
*317 n_128
*318 n_129
*319 n_130
*320 n_131
*321 n_132
*322 n_133
*323 n_134
*324 n_135
*325 n_136
*326 n_137
*327 n_138
*328 n_139
*329 n_140
*330 n_141
*331 n_142
*332 n_143
*333 n_144
*334 n_145
*335 n_146
*336 n_147
*337 n_148
*338 n_149
*339 n_150
*340 n_151
*341 n_153
*342 n_154
*343 n_155
*344 n_156
*345 n_157
*346 n_158
*347 n_159
*348 n_160
*349 n_161
*350 n_162
*351 n_163
*352 n_164
*353 n_165
*354 n_166
*355 n_167
*356 n_168
*357 n_169
*358 n_170
*359 n_171
*360 n_172
*361 n_173
*362 n_174
*363 n_175
*364 n_176
*365 n_177
*366 n_197
*367 n_237
*368 out_valid_q
*369 FE_PHC82_req_meta_q_15
*370 FE_PHC81_req_meta_q_0
*371 FE_PHC80_reset_release_q_0
*372 FE_PHC79_req_meta_q_4
*373 FE_PHC78_req_meta_q_8
*374 FE_PHC77_req_meta_q_2
*375 FE_PHC76_req_meta_q_1
*376 FE_PHC75_req_meta_q_11
*377 FE_PHC74_req_meta_q_6
*378 FE_PHC73_req_meta_q_12
*379 FE_PHC72_req_meta_q_9
*380 FE_PHC71_req_meta_q_3
*381 FE_PHC70_req_meta_q_14
*382 FE_PHC69_req_meta_q_13
*383 FE_PHC68_reset_release_q_0
*384 FE_PHC67_n_24
*385 FE_PHC66_n_29
*386 FE_PHC65_n_35
*387 FE_PHC64_n_20
*388 FE_PHC63_n_33
*389 FE_PHC62_n_31
*390 FE_PHC61_n_30
*391 FE_PHC60_n_26
*392 FE_PHC59_n_25
*393 FE_PHC58_n_28
*394 FE_PHC57_pending_q_12
*395 FE_PHC56_pending_q_8
*396 FE_PHC55_pending_q_0
*397 FE_PHC54_pending_q_10
*398 FE_PHC53_pending_q_14
*399 FE_PHC52_pending_q_5
*400 FE_PHC51_pending_q_1
*401 FE_PHC50_pending_q_3
*402 FE_PHC49_pending_q_6
*403 FE_PHC48_pending_q_7
*404 FE_PHC47_req_meta_q_5
*405 FE_PHC46_req_meta_q_7
*406 FE_PHC45_req_meta_q_10
*407 FE_PHC44_req_meta_q_1
*408 FE_PHC43_req_meta_q_12
*409 FE_PHC42_req_meta_q_4
*410 FE_PHC41_req_meta_q_14
*411 FE_PHC40_req_meta_q_11
*412 FE_PHC39_req_meta_q_2
*413 FE_PHC38_req_meta_q_6
*414 FE_PHC37_req_meta_q_3
*415 FE_PHC36_req_meta_q_8
*416 FE_PHC35_req_meta_q_0
*417 FE_PHC34_req_meta_q_13
*418 FE_PHC33_req_meta_q_9
*419 FE_PHC32_out_valid_q
*420 FE_PHC31_n_34
*421 FE_PHC30_n_27
*422 FE_PHC29_n_21
*423 FE_PHC28_n_32
*424 FE_PHC27_n_22
*425 FE_PHC26_n_23
*426 FE_PHC25_out_addr_2
*427 FE_PHC24_rst_n
*428 FE_PHC23_out_addr_0
*429 FE_PHC22_out_addr_3
*430 FE_PHC21_out_addr_1
*431 FE_PHC20_req_meta_q_15
*432 FE_PHC19_req_meta_q_5
*433 FE_PHC18_reset_release_q_0
*434 FE_PHC17_req_meta_q_7
*435 FE_PHC16_req_meta_q_8
*436 FE_PHC15_req_meta_q_6
*437 FE_PHC14_req_meta_q_0
*438 FE_PHC13_req_meta_q_12
*439 FE_PHC12_req_meta_q_5
*440 FE_PHC11_req_meta_q_1
*441 FE_PHC10_req_meta_q_14
*442 FE_PHC9_req_meta_q_3
*443 FE_PHC8_req_meta_q_2
*444 FE_PHC7_req_meta_q_15
*445 FE_PHC6_req_meta_q_9
*446 FE_PHC5_req_meta_q_13
*447 FE_PHC4_req_meta_q_10
*448 FE_PHC3_req_meta_q_4
*449 FE_PHC2_req_meta_q_11
*450 FE_PHC1_rst_n
*451 CTS_ccl_a_buf_00001
*452 FE_OFC0_reset_release_q_1
*453 pending_q_reg\[0\]
*454 pending_q_reg\[2\]
*455 pending_q_reg\[4\]
*456 pending_q_reg\[6\]
*457 pending_q_reg\[8\]
*458 pending_q_reg\[10\]
*459 pending_q_reg\[12\]
*460 pending_q_reg\[14\]
*461 pending_q_reg\[5\]
*462 pending_q_reg\[3\]
*463 pending_q_reg\[1\]
*464 pending_q_reg\[9\]
*465 pending_q_reg\[13\]
*466 pending_q_reg\[7\]
*467 pending_q_reg\[11\]
*468 pending_q_reg\[15\]
*469 g5746__2398
*470 g5747__5107
*471 g5757__6260
*472 g5749__4319
*473 g5745__8428
*474 g5755__5526
*475 g5754__6783
*476 g5756__3680
*477 g5750__1617
*478 g5748__2802
*479 g5758__1705
*480 g5751__5122
*481 g5753__8246
*482 g5752__7098
*483 g5744__6131
*484 g5743__1881
*485 out_addr_q_reg\[0\]
*486 g5760__5115
*487 g5764__7482
*488 g5761__4733
*489 g5762__6161
*490 g5763__9315
*491 g5765
*492 g5766__9945
*493 g5767__2883
*494 g5768__2346
*495 g5769__1666
*496 g5770__7410
*497 g5771__6417
*498 g5772__5477
*499 g5773__2398
*500 g5779__5107
*501 g5780__6260
*502 g5781__4319
*503 g5778__8428
*504 g5782__5526
*505 g5775__6783
*506 out_addr_q_reg\[1\]
*507 g5777__3680
*508 g5776__1617
*509 g5783__2802
*510 g5784__1705
*511 g5785__5122
*512 g5786__8246
*513 g5787__7098
*514 g5788__6131
*515 g5789__1881
*516 g5790__5115
*517 g5791__7482
*518 g5792__4733
*519 out_addr_q_reg\[2\]
*520 g5794__6161
*521 g5795__9315
*522 g5798
*523 epoch_gray_q_reg\[3\]
*524 g5799__9945
*525 g5802
*526 g5806
*527 g5807
*528 g5808
*529 g5803__2883
*530 g5809__2346
*531 g5810__1666
*532 g5811__7410
*533 out_addr_q_reg\[3\]
*534 g5812__6417
*535 g5813__5477
*536 g5814__2398
*537 g5816__5107
*538 g5815__6260
*539 g5818
*540 g5819__8428
*541 g5820
*542 g5821__5526
*543 g5824__6783
*544 g5825__3680
*545 g5826__1617
*546 g5829
*547 g5832__2802
*548 g5827__1705
*549 g5831__5122
*550 g5835__8246
*551 g5823__7098
*552 g5828__6131
*553 g5830__1881
*554 g5833__5115
*555 g5834__7482
*556 g5836__4733
*557 g5837__6161
*558 g5839__9315
*559 g5838__9945
*560 g5841__2883
*561 g5842__2346
*562 g5862__1666
*563 g5855__7410
*564 g5856__6417
*565 g5857__5477
*566 g5858__2398
*567 g5859__5107
*568 g5860__6260
*569 g5861__4319
*570 g5840__8428
*571 ack_q_reg\[3\]
*572 ack_q_reg\[2\]
*573 ack_q_reg\[9\]
*574 ack_q_reg\[13\]
*575 ack_q_reg\[14\]
*576 g5867__5526
*577 ack_q_reg\[0\]
*578 ack_q_reg\[1\]
*579 ack_q_reg\[10\]
*580 ack_q_reg\[4\]
*581 ack_q_reg\[15\]
*582 ack_q_reg\[8\]
*583 ack_q_reg\[12\]
*584 ack_q_reg\[7\]
*585 ack_q_reg\[6\]
*586 ack_q_reg\[11\]
*587 ack_q_reg\[5\]
*588 g5876
*589 g5901__6783
*590 g5891__3680
*591 g5903__1617
*592 g5889__2802
*593 g5890__1705
*594 g5892__5122
*595 g5887__8246
*596 g5869__7098
*597 g5870__6131
*598 g5871__1881
*599 g5872__5115
*600 g5873__7482
*601 g5874__4733
*602 g5875__6161
*603 g5877__9315
*604 g5878__9945
*605 g5868__2883
*606 g5888__2346
*607 g5895__1666
*608 g5899__7410
*609 g5898__6417
*610 g5894__5477
*611 g5897__2398
*612 g5900__5107
*613 g5896__6260
*614 g5886
*615 g5893__4319
*616 g5880__8428
*617 g5879__5526
*618 g5884__6783
*619 g5883__3680
*620 g5882__1617
*621 g5881__2802
*622 g5885__1705
*623 g5911__5122
*624 g5904__8246
*625 g5905__7098
*626 g5906__6131
*627 g5907__1881
*628 g5908__5115
*629 g5909__7482
*630 g5910__4733
*631 g5902__6161
*632 g5919__9315
*633 g5913__9945
*634 g5914__2883
*635 g5915__2346
*636 g5912__1666
*637 g5916__7410
*638 g5917__6417
*639 g5918__5477
*640 g5922
*641 req_sync_q_reg\[12\]
*642 req_sync_q_reg\[2\]
*643 req_sync_q_reg\[0\]
*644 req_sync_q_reg\[7\]
*645 req_sync_q_reg\[9\]
*646 req_sync_q_reg\[8\]
*647 req_sync_q_reg\[13\]
*648 req_sync_q_reg\[3\]
*649 req_sync_q_reg\[1\]
*650 g5941__2398
*651 req_sync_q_reg\[6\]
*652 req_sync_q_reg\[14\]
*653 req_sync_q_reg\[4\]
*654 req_sync_q_reg\[15\]
*655 req_sync_q_reg\[5\]
*656 reset_release_q_reg\[1\]
*657 req_sync_q_reg\[11\]
*658 req_sync_q_reg\[10\]
*659 req_meta_q_reg\[2\]
*660 req_meta_q_reg\[13\]
*661 req_meta_q_reg\[4\]
*662 req_meta_q_reg\[6\]
*663 req_meta_q_reg\[12\]
*664 req_meta_q_reg\[11\]
*665 req_meta_q_reg\[5\]
*666 req_meta_q_reg\[9\]
*667 req_meta_q_reg\[3\]
*668 req_meta_q_reg\[0\]
*669 req_meta_q_reg\[1\]
*670 req_meta_q_reg\[10\]
*671 req_meta_q_reg\[7\]
*672 req_meta_q_reg\[14\]
*673 req_meta_q_reg\[8\]
*674 reset_release_q_reg\[0\]
*675 req_meta_q_reg\[15\]
*676 g2
*677 epoch_gray_q_reg\[0\]
*678 epoch_gray_q_reg\[1\]
*679 out_valid_q_reg
*680 epoch_gray_q_reg\[2\]
*681 g6100


*PORTS

*85 I *C 0 0.28
*86 I *C 0 7.56
*87 I *C 0 140.84
*88 I *C 0 133
*89 I *C 0 125.16
*90 I *C 0 117.32
*91 I *C 0 109.48
*92 I *C 0 101.64
*93 I *C 0 93.8
*94 I *C 0 85.96
*95 I *C 0 78.12
*96 I *C 0 70.28
*97 I *C 0 62.44
*98 I *C 0 54.6
*99 I *C 0 46.76
*100 I *C 0 38.92
*101 I *C 0 31.08
*102 I *C 0 23.24
*103 O *C 146.52 28.84
*104 O *C 146.52 35.56
*105 O *C 146.52 42.84
*106 O *C 146.52 49.56
*107 O *C 146.52 56.84
*108 O *C 146.52 63.56
*109 O *C 146.52 70.84
*110 O *C 146.52 78.12
*111 O *C 146.52 84.84
*112 O *C 146.52 92.12
*113 O *C 146.52 98.84
*114 O *C 146.52 106.12
*115 O *C 146.52 112.84
*116 O *C 146.52 120.12
*117 O *C 146.52 126.84
*118 O *C 146.52 134.12
*119 O *C 146.52 0.28
*120 O *C 146.52 7.56
*121 O *C 146.52 14.84
*122 O *C 146.52 21.56
*123 O *C 146.52 140.84
*124 I *C 0 15.4


*D_NET *1 0.000782208

*CONN
*I *369:A I *C 33.33 113.96 *L 0.00446 *D BUFX3
*I *444:Y O *C 28.71 117.32 *L 0 *D BUFX12

*CAP
1 *369:A 6.32992e-05
2 *444:Y 4.12088e-05
3 *1:2 7.65387e-05
4 *1:3 6.57213e-05
5 *1:4 0.00017784
6 *1:5 0.00019264
7 *1:5 *179:2 8.248e-05
8 *1:4 *179:3 8.24799991e-05

*RES
1 *1:4 *369:A 6.4000001
2 *1:4 *1:5 0.936035
3 *1:3 *1:5 0.183887
4 *1:2 *1:3 6.4000001
5 *444:Y *1:2 0.223828
*END

*D_NET *2 0.00097265

*CONN
*I *370:Y O *C 25.41 47.32 *L 0 *D BUFX3
*I *416:A I *C 29.37 47.32 *L 0.00339 *D CLKBUFX1

*CAP
1 *370:Y 3.72982e-05
2 *416:A 6.3301e-05
3 *2:2 0.00028449
4 *2:3 0.000152522
5 *2:4 0.000282519
6 *2:5 0.000152522

*RES
1 *2:3 *416:A 6.4000001
2 *2:3 *2:5 0.467969
3 *2:4 *2:5 6.4000001
4 *2:2 *2:4 1.34297
5 *370:Y *2:2 0.189941
*END

*D_NET *3 0.00311393

*CONN
*I *371:Y O *C 49.83 27.16 *L 0 *D BUFX3
*I *383:A I *C 29.37 23.24 *L 0.00339 *D CLKBUFX1

*CAP
1 *371:Y 6.32978e-05
2 *383:A 3.98576e-05
3 *3:2 0.000287822
4 *3:3 0.00046536
5 *3:4 0.000301754
6 *3:5 0.000301754
7 *3:6 8.76398e-05
8 *3:7 7.89411e-05
9 *3:8 0.000347641
10 *3:9 0.000185611
11 *3:10 0.000185611
12 *3:11 7.51918e-05
13 *3:12 5.09208e-05
14 *3:13 0.000161397
15 *3:2 *82:13 3.79e-05
16 *3:3 *82:11 3.79e-05
17 *3:4 *82:9 6.691e-05
18 *3:5 *82:6 6.691e-05
19 *3:6 *82:9 2.527e-05
20 *3:7 *82:6 2.527e-05
21 *3:3 *82:10 8.282e-05
22 *3:8 *82:8 8.282e-05
23 *3:9 *82:14 2.766e-05
24 *3:10 *82:12 2.76600061e-05

*RES
1 *3:9 *371:Y 6.4000001
2 *3:10 *3:9 0.936035
3 *3:13 *3:10 6.4000001
4 *3:2 *3:13 0.735449
5 *3:3 *3:2 0.919238
6 *3:8 *3:3 2.02246
7 *3:8 *3:4 0.155957
8 *3:5 *3:4 1.83857
9 *3:6 *3:5 0.155957
10 *3:7 *3:6 0.367676
11 *3:12 *3:7 6.4000001
12 *3:11 *383:A 0.223828
13 *3:11 *3:12 6.4000001
*END

*D_NET *4 0.0068357

*CONN
*I *372:Y O *C 61.71 97.72 *L 0 *D BUFX3
*I *409:A I *C 24.09 87.64 *L 0.00339 *D CLKBUFX1

*CAP
1 *372:Y 6.33026e-05
2 *409:A 6.33026e-05
3 *4:2 0.000235723
4 *4:3 0.000235723
5 *4:4 0.00090382
6 *4:5 0.00090382
7 *4:6 0.000808797
8 *4:7 0.000808797
9 *4:8 0.000244991
10 *4:9 0.00044087
11 *4:10 0.000253707
12 *4:11 0.000441449
13 *4:12 0.00040835
14 *4:13 5.09317e-05
15 *4:14 0.000399096
16 *4:14 *84:114 9.66e-05
17 *4:12 *84:115 9.66e-05
18 *4:11 *84:114 8.153e-05
19 *4:9 *84:115 8.15299977e-05
20 *4:4 *47:14 6.68e-06
21 *4:5 *47:13 6.68e-06
22 *4:6 *47:12 0.0001017
23 *4:7 *47:10 0.000101699997

*RES
1 *4:13 *372:Y 6.4000001
2 *4:14 *4:13 6.4000001
3 *4:12 *4:14 2.39014
4 *4:11 *4:12 0.155957
5 *4:9 *4:11 2.20625
6 *4:9 *4:10 0.155957
7 *4:8 *4:10 1.10312
8 *4:6 *4:8 6.4000001
9 *4:7 *4:6 3.74404
10 *4:4 *4:7 6.4000001
11 *4:2 *409:A 6.4000001
12 *4:5 *4:4 4.78027
13 *4:3 *4:2 0.936035
14 *4:3 *4:5 6.4000001
*END

*D_NET *5 0.00637549

*CONN
*I *373:Y O *C 22.77 87.64 *L 0 *D BUFX3
*I *415:A I *C 46.53 87.64 *L 0.00446 *D BUFX3

*CAP
1 *373:Y 3.7298e-05
2 *415:A 6.32975e-05
3 *5:2 0.000672441
4 *5:3 0.000672441
5 *5:4 0.00103705
6 *5:5 0.00103705
7 *5:6 0.000268002
8 *5:7 0.000259314
9 *5:8 0.000686224
10 *5:9 0.000159715
11 *5:10 0.000686224
12 *5:11 0.000161693
13 *5:12 5.09228e-05
14 *5:13 6.63199e-05
15 *5:6 *47:6 3.165e-05
16 *5:7 *47:7 3.165e-05
17 *5:4 *47:11 3.679e-05
18 *5:5 *47:9 3.679e-05
19 *5:2 *47:12 6.624e-05
20 *5:3 *47:10 6.62400017e-05
21 *5:4 *95:3 0.00012405
22 *5:5 *95 0.000124050001

*RES
1 *5:12 *415:A 6.4000001
2 *5:13 *5:12 6.4000001
3 *5:13 *5:6 0.155957
4 *5:7 *5:6 1.28701
5 *5:2 *5:7 6.4000001
6 *5:3 *5:2 2.96396
7 *373:Y *5:11 0.189941
8 *5:4 *5:3 6.4000001
9 *5:9 *5:11 0.671484
10 *5:5 *5:4 5.8834
11 *5:10 *5:9 6.4000001
12 *5:8 *5:5 6.4000001
13 *5:8 *5:10 3.27598
*END

*D_NET *6 0.00435953

*CONN
*I *374:Y O *C 53.13 47.32 *L 0 *D BUFX3
*I *412:A I *C 26.73 47.32 *L 0.00339 *D CLKBUFX1

*CAP
1 *374:Y 4.12106e-05
2 *412:A 6.32997e-05
3 *6:2 5.51248e-05
4 *6:3 5.51248e-05
5 *6:4 0.000408341
6 *6:5 0.000417047
7 *6:6 0.000249349
8 *6:7 0.000249349
9 *6:8 0.00091737
10 *6:9 0.000908663
11 *6:10 7.6542e-05
12 *6:11 5.09253e-05
13 *6:4 *161:5 0.00015743
14 *6:5 *161:6 0.000157430003
15 *6:8 *74:2 3.182e-05
16 *6:9 *74:3 3.182e-05
17 *6:6 *74:2 8.611e-05
18 *6:7 *74:3 8.61100021e-05
19 *6:4 *224:7 0.00015824
20 *6:5 *224:4 0.00015824

*RES
1 *374:Y *6:10 0.223828
2 *6:11 *6:10 6.4000001
3 *6:4 *6:11 6.4000001
4 *6:5 *6:4 2.39014
5 *6:6 *6:5 0.155957
6 *6:7 *6:6 1.4709
7 *6:7 *6:8 0.155957
8 *6:2 *412:A 6.4000001
9 *6:9 *6:8 3.67715
10 *6:3 *6:2 0.155957
11 *6:3 *6:9 6.4000001
*END

*D_NET *7 0.000896484

*CONN
*I *375:Y O *C 54.45 33.32 *L 0 *D BUFX3
*I *407:A I *C 50.49 33.32 *L 0.00339 *D CLKBUFX1

*CAP
1 *375:Y 3.72982e-05
2 *407:A 6.3301e-05
3 *7:2 0.000114438
4 *7:3 0.000114438
5 *7:4 0.000282519
6 *7:5 0.00028449

*RES
1 *7:2 *407:A 6.4000001
2 *7:3 *7:2 0.467969
3 *7:5 *375:Y 0.189941
4 *7:4 *7:3 6.4000001
5 *7:4 *7:5 1.34297
*END

*D_NET *8 0.000981566

*CONN
*I *376:Y O *C 46.53 93.8 *L 0 *D BUFX3
*I *411:A I *C 42.57 93.8 *L 0.00339 *D CLKBUFX1

*CAP
1 *376:Y 3.73006e-05
2 *411:A 3.98567e-05
3 *8:2 0.00041362
4 *8:3 0.000151752
5 *8:4 0.000339031

*RES
1 *8:3 *411:A 0.223819
2 *8:4 *376:Y 0.189919
3 *8:2 *8:3 0.569733
4 *8:2 *8:4 1.56678259
*END

*D_NET *9 0.00467954

*CONN
*I *377:Y O *C 22.11 63.56 *L 0 *D BUFX3
*I *413:A I *C 45.21 63.56 *L 0.00339 *D CLKBUFX1

*CAP
1 *377:Y 6.32998e-05
2 *413:A 6.32998e-05
3 *9:2 0.00147366
4 *9:3 0.00147366
5 *9:4 6.17707e-05
6 *9:5 6.17707e-05
7 *9:6 5.09322e-05
8 *9:2 *79:4 0.00058855
9 *9:3 *79:5 0.00058855
10 *9:2 *97:2 0.00012702
11 *9:3 *97 0.000127019999

*RES
1 *9:4 *413:A 6.40004
2 *9:5 *9:4 0.156024
3 *9:2 *9:5 6.40004
4 *9:3 *9:2 6.43499994
5 *9:6 *9:3 6.40004
6 *377:Y *9:6 6.40004
*END

*D_NET *10 0.00211601

*CONN
*I *378:Y O *C 61.71 107.8 *L 0 *D BUFX3
*I *408:A I *C 50.49 103.88 *L 0.00339 *D CLKBUFX1

*CAP
1 *378:Y 4.2253e-05
2 *408:A 6.33051e-05
3 *10:2 8.2974e-05
4 *10:3 8.2974e-05
5 *10:4 7.75762e-05
6 *10:5 0.00046484
7 *10:6 0.00046484
8 *10:7 0.00020547
9 *10:8 0.00020547
10 *10:5 *70:2 0.00011011
11 *10:6 *70:3 0.00011011
12 *10:8 *70:4 5.17e-06
13 *10:7 *70:5 5.17000253e-06
14 *10:5 *172:19 9.788e-05
15 *10:6 *172:20 9.78799983e-05

*RES
1 *378:Y *10:4 0.223828
2 *10:8 *10:4 6.4000001
3 *10:7 *10:8 0.936035
4 *10:5 *10:7 6.4000001
5 *10:6 *10:5 3.30947
6 *10:2 *10:6 6.4000001
7 *10:3 *10:2 0.312012
8 *408:A *10:3 6.4000001
*END

*D_NET *11 0.000921788

*CONN
*I *379:Y O *C 33.99 103.88 *L 0 *D BUFX3
*I *418:A I *C 32.67 97.72 *L 0.00339 *D CLKBUFX1

*CAP
1 *379:Y 7.45871e-05
2 *418:A 6.33013e-05
3 *11:2 6.57185e-05
4 *11:3 0.00026759
5 *11:4 0.00026759
6 *11:5 0.000117281
7 *11:6 6.57185e-05

*RES
1 *11:5 *379:Y 0.379785
2 *11:6 *11:5 6.4000001
3 *11:4 *11:6 0.183887
4 *11:3 *11:4 1.09199
5 *11:2 *11:3 0.183887
6 *418:A *11:2 6.4000001
*END

*D_NET *12 0.000935127

*CONN
*I *380:Y O *C 45.87 47.32 *L 0 *D BUFX3
*I *414:A I *C 45.21 53.48 *L 0.00339 *D CLKBUFX1

*CAP
1 *380:Y 7.45902e-05
2 *414:A 6.32975e-05
3 *12:2 6.57212e-05
4 *12:3 0.00011728
5 *12:4 0.000299719
6 *12:5 0.00031452

*RES
1 *380:Y *12:3 0.379785
2 *12:4 *12:3 6.4000001
3 *12:4 *12:5 1.09199
4 *12:2 *12:5 0.183887
5 *414:A *12:2 6.4000001
*END

*D_NET *13 0.00168057

*CONN
*I *381:Y O *C 54.45 103.88 *L 0 *D BUFX3
*I *410:A I *C 46.53 97.72 *L 0.00339 *D CLKBUFX1

*CAP
1 *381:Y 3.72985e-05
2 *410:A 6.33019e-05
3 *13:2 5.77896e-05
4 *13:3 0.00025532
5 *13:4 0.000263248
6 *13:5 7.26298e-05
7 *13:6 6.5718e-05
8 *13:7 0.00043263
9 *13:8 0.00043263

*RES
1 *13:8 *381:Y 0.189941
2 *13:7 *13:8 2.23828
3 *13:5 *13:7 0.189941
4 *13:6 *13:5 6.4000001
5 *13:4 *13:6 0.183887
6 *13:3 *13:4 1.09199
7 *13:2 *13:3 0.147656
8 *410:A *13:2 6.4000001
*END

*D_NET *14 0.00119496

*CONN
*I *382:Y O *C 52.47 117.88 *L 0 *D BUFX3
*I *417:A I *C 46.53 113.96 *L 0.00339 *D CLKBUFX1

*CAP
1 *382:Y 6.33031e-05
2 *417:A 6.33031e-05
3 *14:2 5.09217e-05
4 *14:3 0.00030097
5 *14:4 0.000207751
6 *14:5 0.00030097
7 *14:6 0.000207751

*RES
1 *14:6 *382:Y 6.4000001
2 *14:4 *14:6 0.936035
3 *14:5 *14:4 6.4000001
4 *14:3 *14:5 1.65469
5 *14:2 *14:3 6.4000001
6 *417:A *14:2 6.4000001
*END

*D_NET *15 0.00123453

*CONN
*I *383:Y O *C 31.35 23.8 *L 0 *D CLKBUFX1
*I *656:D I *C 35.97 26.6 *L 0.00184 *D DFFRHQX1

*CAP
1 *383:Y 3.73014e-05
2 *656:D 6.32976e-05
3 *15:2 0.00034508
4 *15:3 0.00034508
5 *15:4 7.99895e-05
6 *15:5 0.00015643
7 *15:6 0.00015643
8 *15:7 5.09182e-05

*RES
1 *15:7 *656:D 6.4000001
2 *15:2 *15:7 6.4000001
3 *15:3 *15:2 1.28701
4 *15:6 *15:3 6.4000001
5 *15:5 *15:6 0.624023
6 *15:4 *15:5 6.4000001
7 *383:Y *15:4 0.189941
*END

*D_NET *16 0.00238642

*CONN
*I *384:Y O *C 55.77 87.64 *L 0 *D BUFX3
*I *582:D I *C 49.83 78.12 *L 0.00217 *D DFFTRX1

*CAP
1 *384:Y 4.1212e-05
2 *582:D 6.32992e-05
3 *16:2 0.000468567
4 *16:3 0.000468567
5 *16:4 0.000155917
6 *16:5 0.000155917
7 *16:6 0.000478191523
8 *16:7 0.000478191523
9 *16:8 7.65427e-05

*RES
1 *384:Y *16:8 0.223828
2 *16:2 *16:8 6.4000001
3 *16:3 *16:2 2.02803
4 *16:7 *16:3 6.4000001
5 *16:6 *16:7 1.83857
6 *16:5 *16:6 6.4000001
7 *16:4 *16:5 0.467969
8 *582:D *16:4 6.4000001
*END

*D_NET *17 0.00080695

*CONN
*I *385:Y O *C 63.03 87.64 *L 0 *D BUFX3
*I *583:D I *C 62.37 93.24 *L 0.00217 *D DFFTRX1

*CAP
1 *385:Y 3.73001e-05
2 *583:D 6.32983e-05
3 *17:2 7.65393e-05
4 *17:3 0.00027565
5 *17:4 0.00027565
6 *17:5 7.85078e-05

*RES
1 *17:4 *583:D 6.4000001
2 *17:3 *17:4 1.09199
3 *385:Y *17:5 0.189941
4 *17:2 *17:3 6.4000001
5 *17:2 *17:5 0.223828
*END

*D_NET *18 0.000889413

*CONN
*I *386:Y O *C 82.17 103.88 *L 0 *D BUFX3
*I *577:D I *C 80.85 98.28 *L 0.00217 *D DFFTRX1

*CAP
1 *386:Y 3.73013e-05
2 *577:D 6.33033e-05
3 *18:2 0.00027569
4 *18:3 0.00011773
5 *18:4 0.00027569
6 *18:5 0.000119703

*RES
1 *18:5 *386:Y 0.189941
2 *18:3 *18:5 0.447656
3 *18:4 *18:3 6.4000001
4 *18:2 *18:4 1.09199
5 *577:D *18:2 6.4000001
*END

*D_NET *19 0.00269763

*CONN
*I *387:Y O *C 59.73 63.56 *L 0 *D BUFX3
*I *579:D I *C 49.83 73.08 *L 0.00217 *D DFFTRX1

*CAP
1 *387:Y 6.33015e-05
2 *579:D 6.33015e-05
3 *19:2 0.000612681133
4 *19:3 0.000612681133
5 *19:4 0.000596451
6 *19:5 0.000596451
7 *19:6 5.09235e-05
8 *19:7 5.09235e-05
9 *19:8 5.09235e-05

*RES
1 *19:7 *387:Y 6.4000001
2 *19:8 *19:7 6.4000001
3 *19:5 *19:8 6.4000001
4 *19:5 *19:4 2.80801
5 *19:2 *19:4 6.4000001
6 *19:3 *19:2 2.75781
7 *19:6 *19:3 6.4000001
8 *579:D *19:6 6.4000001
*END

*D_NET *20 0.00161808

*CONN
*I *388:Y O *C 97.35 93.8 *L 0 *D BUFX3
*I *578:D I *C 93.39 98.28 *L 0.00217 *D DFFTRX1

*CAP
1 *388:Y 6.32964e-05
2 *578:D 6.32964e-05
3 *20:2 0.000299107
4 *20:3 0.000314039
5 *20:4 5.51205e-05
6 *20:5 5.51205e-05
7 *20:6 0.000351119922
8 *20:7 0.000351119922
9 *20:8 6.58521e-05

*RES
1 *20:8 *388:Y 6.4000001
2 *20:3 *20:8 0.183887
3 *20:3 *20:2 0.936035
4 *20:7 *20:2 6.4000001
5 *20:4 *578:D 6.4000001
6 *20:6 *20:7 0.919238
7 *20:5 *20:4 0.155957
8 *20:5 *20:6 6.4000001
*END

*D_NET *21 0.00078036

*CONN
*I *389:A I *C 106.59 83.72 *L 0.00446 *D BUFX3
*I *627:Y O *C 109.23 84.28 *L 0 *D AOI21XL

*CAP
1 *389:A 6.32995e-05
2 *627:Y 6.32995e-05
3 *21:2 6.26701e-05
4 *21:3 3.61595e-05
5 *21:4 0.00013349
6 *21:5 4.79106e-05
7 *21:6 5.09191e-05
8 *21:7 0.00013349
9 *21:7 *31:3 9.456e-05
10 *21:4 *31:4 9.45600032e-05

*RES
1 *21:6 *627:Y 6.4000001
2 *21:7 *21:6 6.4000001
3 *21:4 *21:7 0.551562
4 *21:3 *21:4 6.4000001
5 *21:3 *21:5 0.0584961
6 *21:2 *21:5 0.169922
7 *389:A *21:2 6.4000001
*END

*D_NET *22 0.000870102

*CONN
*I *390:Y O *C 63.03 43.4 *L 0 *D BUFX3
*I *575:D I *C 61.71 47.88 *L 0.00217 *D DFFTRX1

*CAP
1 *390:Y 6.32993e-05
2 *575:D 6.32993e-05
3 *22:2 0.00020426
4 *22:3 0.000189461
5 *22:4 0.00014203
6 *22:5 0.00014203
7 *22:6 6.57179e-05

*RES
1 *22:6 *390:Y 6.4000001
2 *22:4 *22:6 0.183887
3 *22:3 *575:D 6.4000001
4 *22:4 *22:5 0.467969
5 *22:2 *22:3 0.624023
6 *22:2 *22:5 0.183887
*END

*D_NET *23 0.00162993

*CONN
*I *391:Y O *C 119.13 67.48 *L 0 *D BUFX3
*I *584:D I *C 112.53 73.08 *L 0.00217 *D DFFTRX1

*CAP
1 *391:Y 3.73011e-05
2 *584:D 6.33005e-05
3 *23:2 9.32888e-05
4 *23:3 9.13213e-05
5 *23:4 0.000294379785
6 *23:5 0.000294379785
7 *23:6 0.000229628
8 *23:7 0.000229628
9 *23:8 5.09207e-05
10 *23:9 0.000122891
11 *23:10 0.000122891

*RES
1 *391:Y *23:10 0.189941
2 *23:9 *23:10 0.447656
3 *23:9 *23:2 0.189941
4 *23:3 *23:2 0.223828
5 *23:8 *23:3 6.4000001
6 *23:4 *23:8 6.4000001
7 *23:7 *584:D 6.4000001
8 *23:5 *23:4 1.28701
9 *23:6 *23:7 0.936035
10 *23:6 *23:5 6.4000001
*END

*D_NET *24 0.00249975

*CONN
*I *392:Y O *C 118.47 63.56 *L 0 *D BUFX3
*I *585:D I *C 111.87 57.96 *L 0.00217 *D DFFTRX1

*CAP
1 *392:Y 0.000122323
2 *585:D 6.33008e-05
3 *24:2 0.00061087
4 *24:3 0.00061087
5 *24:4 8.59235e-05
6 *24:5 0.000100716
7 *24:6 0.000315013
8 *24:7 0.00030021
9 *24:8 7.99952e-05
10 *24:9 5.09221e-05
11 *24:10 0.000159618

*RES
1 *392:Y *24:10 0.671484
2 *24:8 *24:10 0.189941
3 *24:9 *24:8 6.4000001
4 *24:2 *24:9 6.4000001
5 *24:3 *24:2 2.20625
6 *24:7 *24:3 6.4000001
7 *24:6 *24:7 0.936035
8 *24:5 *24:6 0.183887
9 *24:4 *24:5 0.312012
10 *585:D *24:4 6.4000001
*END

*D_NET *25 0.00113933

*CONN
*I *393:Y O *C 116.49 53.48 *L 0 *D BUFX3
*I *571:D I *C 112.53 47.88 *L 0.00217 *D DFFTRX1

*CAP
1 *393:Y 6.32987e-05
2 *571:D 6.32987e-05
3 *25:2 0.000226756
4 *25:3 0.00044065
5 *25:4 0.000279606
6 *25:5 6.57193e-05

*RES
1 *25:5 *393:Y 6.4000001
2 *25:4 *25:5 0.183887
3 *25:3 *25:4 1.24805
4 *25:2 *25:3 0.919238
5 *571:D *25:2 6.4000001
*END

*D_NET *26 0.00489746

*CONN
*I *394:Y O *C 77.55 97.72 *L 0 *D BUFX3
*I *599:B0 I *C 68.97 88.76 *L 0.00406 *D AOI2BB1X1
*I *629:A1 I *C 64.35 87.64 *L 0.00314 *D AOI21XL

*CAP
1 *394:Y 6.33012e-05
2 *599:B0 0.000139837
3 *629:A1 0.000139837
4 *26:3 0.000137488
5 *26:4 0.000137488
6 *26:5 0.000125459
7 *26:6 0.000195135
8 *26:7 0.000513230547
9 *26:8 0.000498304
10 *26:9 0.000161382
11 *26:10 0.000356188
12 *26:11 0.000254544
13 *26:12 0.000185306
14 *26:13 0.000177843
15 *26:14 0.000162909
16 *26:15 0.000245279
17 *26:12 *220:4 9.545e-05
18 *26:10 *220:5 9.545e-05
19 *26:10 *220:6 7.505e-05
20 *26:9 *220:7 7.505e-05
21 *26:5 *220:2 8.82e-06
22 *26:6 *220:3 8.82000785e-06
23 *26:10 *238:2 9.52e-05
24 *26:9 *238:3 9.52000027e-05
25 *26:12 *343:6 8.769e-05
26 *26:10 *343:7 8.769e-05
27 *26:15 *343:6 6.338e-05
28 *26:11 *343:7 6.338e-05
29 *26:10 *343:10 3.777e-05
30 *26:9 *343:11 3.7769994e-05
31 *26:7 *311:9 0.00014019
32 *26:8 *311:10 0.00014019
33 *26:7 *311:11 2.089e-05
34 *26:8 *311:12 2.089e-05
35 *26:14 *311:4 7.752e-05
36 *26:13 *311:5 7.75200104e-05

*RES
1 *26:14 *394:Y 6.4000001
2 *26:13 *26:14 0.936035
3 *26:13 *26:7 0.183887
4 *26:8 *26:7 2.02803
5 *26:15 *26:8 6.4000001
6 *26:5 *599:B0 3.2
7 *26:11 *26:15 1.10312
8 *26:6 *26:5 0.467969
9 *26:11 *26:12 0.155957
10 *26:10 *26:6 3.2
11 *26:10 *26:12 1.4709
12 *26:3 *629:A1 3.2
13 *26:9 *26:10 1.28701
14 *26:4 *26:3 0.155957
15 *26:4 *26:9 3.2
*END

*D_NET *27 0.00412371

*CONN
*I *395:Y O *C 81.51 83.72 *L 0 *D BUFX3
*I *602:B0 I *C 65.67 78.68 *L 0.00406 *D AOI2BB1X1
*I *635:A1 I *C 61.05 77.56 *L 0.00314 *D AOI21XL

*CAP
1 *395:Y 3.72959e-05
2 *602:B0 0.000139833
3 *635:A1 0.000139833
4 *27:3 0.000182114
5 *27:4 0.000211467
6 *27:5 0.000112436
7 *27:6 0.000344871
8 *27:7 0.000344871
9 *27:8 0.00078164
10 *27:9 0.000737653
11 *27:10 0.000120595
12 *27:11 0.000331763
13 *27:12 0.000331763
14 *27:13 7.6536e-05
15 *27:14 5.09166e-05
16 *27:15 0.000101595
17 *27:16 7.85039e-05

*RES
1 *27:16 *395:Y 0.189941
2 *27:13 *27:16 0.223828
3 *27:14 *27:13 6.4000001
4 *27:15 *27:14 6.4000001
5 *27:12 *27:15 0.312012
6 *27:11 *27:12 0.919238
7 *27:8 *27:11 0.312012
8 *27:9 *27:8 3.30947
9 *27:3 *27:9 3.2
10 *27:4 *602:B0 3.2
11 *27:4 *27:3 0.312012
12 *27:5 *27:4 0.312012
13 *27:6 *27:5 3.2
14 *27:7 *27:6 1.28701
15 *27:10 *27:7 3.2
16 *635:A1 *27:10 3.2
*END

*D_NET *28 0.00353973

*CONN
*I *396:Y O *C 85.47 83.72 *L 0 *D BUFX3
*I *619:B0 I *C 89.43 92.68 *L 0.00406 *D AOI2BB1X1
*I *623:A1 I *C 84.81 93.8 *L 0.00314 *D AOI21XL

*CAP
1 *396:Y 3.73013e-05
2 *619:B0 0.000139841
3 *623:A1 0.000139841
4 *28:3 0.00039697
5 *28:4 0.00039697
6 *28:5 0.000217878
7 *28:6 0.000243579
8 *28:7 0.00016719
9 *28:8 0.000141488
10 *28:9 0.000348269
11 *28:10 0.000348269
12 *28:11 7.6541e-05
13 *28:12 5.09243e-05
14 *28:13 5.09243e-05
15 *28:14 0.000292323
16 *28:15 0.000292323
17 *28:16 0.000120602
18 *28:17 7.85096e-05

*RES
1 *28:16 *623:A1 3.2
2 *28:6 *28:16 3.2
3 *28:6 *28:5 0.919238
4 *28:8 *28:5 0.312012
5 *28:8 *28:7 0.367676
6 *28:3 *619:B0 3.2
7 *28:3 *28:7 3.2
8 *28:4 *28:3 1.71602
9 *28:9 *28:4 6.4000001
10 *28:10 *28:9 1.28701
11 *28:15 *28:10 6.4000001
12 *28:14 *28:15 1.24805
13 *28:13 *28:14 6.4000001
14 *28:12 *28:13 6.4000001
15 *28:17 *396:Y 0.189941
16 *28:11 *28:12 6.4000001
17 *28:11 *28:17 0.223828
*END

*D_NET *29 0.00322196

*CONN
*I *397:Y O *C 65.67 63.56 *L 0 *D BUFX3
*I *600:B0 I *C 65.67 72.52 *L 0.00406 *D AOI2BB1X1
*I *639:A1 I *C 61.05 73.64 *L 0.00314 *D AOI21XL

*CAP
1 *397:Y 3.98383e-05
2 *600:B0 0.000139837
3 *639:A1 6.33012e-05
4 *29:3 7.02473e-05
5 *29:4 0.00040284
6 *29:5 0.000345987
7 *29:6 8.49569e-05
8 *29:7 8.49569e-05
9 *29:8 0.00038403
10 *29:9 0.000314349
11 *29:10 5.09213e-05
12 *29:11 0.000188982
13 *29:12 5.09213e-05
14 *29:13 0.000188982
15 *29:14 7.99902e-05
16 *29:15 5.09213e-05
17 *29:16 7.7138e-05
18 *29:3 *162:15 4.124e-05
19 *29:4 *162:14 4.124e-05
20 *29:4 *162:15 0.00026064
21 *29:5 *162:14 0.000260640005

*RES
1 *397:Y *29:16 0.223828
2 *29:14 *29:16 0.189941
3 *29:15 *29:14 6.4000001
4 *29:6 *29:15 6.4000001
5 *29:7 *29:6 0.183887
6 *29:11 *29:7 6.4000001
7 *29:11 *29:13 0.77998
8 *29:12 *29:13 6.4000001
9 *29:5 *29:12 6.4000001
10 *29:4 *600:B0 3.2
11 *29:5 *29:4 2.02803
12 *29:4 *29:3 0.312012
13 *29:8 *29:3 3.2
14 *29:9 *29:8 1.28701
15 *29:10 *29:9 6.4000001
16 *639:A1 *29:10 6.4000001
*END

*D_NET *30 0.00159511

*CONN
*I *398:Y O *C 61.05 53.48 *L 0 *D BUFX3
*I *597:B0 I *C 66.99 52.36 *L 0.00406 *D AOI2BB1X1
*I *628:A1 I *C 62.37 53.48 *L 0.00314 *D AOI21XL

*CAP
1 *398:Y 0.000117012
2 *597:B0 0.000139838
3 *628:A1 7.97097e-05
4 *30:3 0.00026098
5 *30:4 0.00026098
6 *30:5 7.95902e-05
7 *30:6 7.7619e-05
8 *30:7 5.09217e-05
9 *30:8 0.00012692
10 *30:9 0.00012692
11 *30:3 *173:3 0.00013731
12 *30:4 *173:4 0.000137310005

*RES
1 *30:9 *597:B0 3.2
2 *30:8 *30:9 0.155957
3 *30:3 *30:8 3.2
4 *30:4 *30:3 1.4709
5 *30:7 *30:4 6.4000001
6 *398:Y *628:A1 0.447656
7 *30:6 *30:7 6.4000001
8 *30:5 *30:6 0.223828
9 *30:5 *398:Y 0.189941
*END

*D_NET *31 0.00185668

*CONN
*I *399:Y O *C 115.83 83.72 *L 0 *D BUFX3
*I *627:A1 I *C 111.21 83.72 *L 0.00314 *D AOI21XL
*I *604:B0 I *C 104.61 82.6 *L 0.00406 *D AOI2BB1X1

*CAP
1 *399:Y 6.33011e-05
2 *627:A1 6.33011e-05
3 *604:B0 6.33011e-05
4 *31:3 0.00053792
5 *31:4 0.000215209
6 *31:5 7.24204e-05
7 *31:6 7.24204e-05
8 *31:7 0.000107691
9 *31:8 5.09233e-05
10 *31:9 6.4836e-05
11 *31:10 5.09233e-05
12 *31:11 0.00030531
13 *31:3 *21:7 9.456e-05
14 *31:4 *21:4 9.45600032e-05

*RES
1 *31:8 *627:A1 6.4000001
2 *31:9 *31:8 6.4000001
3 *31:10 *399:Y 6.4000001
4 *31:7 *31:9 0.183887
5 *31:11 *31:10 6.4000001
6 *31:3 *31:7 0.312012
7 *31:3 *31:11 1.4709
8 *31:4 *31:3 1.4709
9 *31:6 *31:4 6.4000001
10 *31:5 *31:6 0.183887
11 *604:B0 *31:5 6.4000001
*END

*D_NET *32 0.00187076

*CONN
*I *400:Y O *C 103.29 93.8 *L 0 *D BUFX3
*I *625:A1 I *C 100.65 93.8 *L 0.00314 *D AOI21XL
*I *620:B0 I *C 94.05 92.68 *L 0.00406 *D AOI2BB1X1

*CAP
1 *400:Y 6.32985e-05
2 *625:A1 6.32985e-05
3 *620:B0 0.000139842
4 *32:3 0.000153114
5 *32:4 8.34315e-05
6 *32:5 0.000324428
7 *32:6 5.09178e-05
8 *32:7 0.00044605
9 *32:8 5.09178e-05
10 *32:9 0.000135016
11 *32:9 *159:7 4.979e-05
12 *32:7 *159:8 4.979e-05
13 *32:7 *159:8 0.00012157
14 *32:5 *159:9 0.00012157
15 *32:3 *159:10 8.86e-06
16 *32:4 *159:11 8.85999372e-06

*RES
1 *32:8 *400:Y 6.4000001
2 *32:6 *625:A1 6.4000001
3 *32:9 *32:8 6.4000001
4 *32:7 *32:6 6.4000001
5 *32:7 *32:9 0.735449
6 *32:5 *32:7 1.83857
7 *32:3 *32:5 3.2
8 *32:4 *32:3 0.312012
9 *620:B0 *32:4 3.2
*END

*D_NET *33 0.00209776

*CONN
*I *401:Y O *C 113.85 53.48 *L 0 *D BUFX3
*I *603:B0 I *C 104.61 52.36 *L 0.00406 *D AOI2BB1X1
*I *630:A1 I *C 109.89 53.48 *L 0.00314 *D AOI21XL

*CAP
1 *401:Y 6.33015e-05
2 *603:B0 6.33015e-05
3 *630:A1 3.98611e-05
4 *33:3 5.17992e-05
5 *33:4 5.17992e-05
6 *33:5 0.00024236
7 *33:6 0.00039118
8 *33:7 0.000170923
9 *33:8 5.09217e-05
10 *33:9 0.000104207
11 *33:10 0.00011291
12 *33:11 0.00015458
13 *33:12 5.09217e-05
14 *33:13 0.000151751
15 *33:5 *237:2 9.469e-05
16 *33:6 *237:3 9.46899964e-05
17 *33:5 *137:4 5.862e-05
18 *33:6 *137:5 5.862e-05
19 *33:6 *137:4 3.753e-05
20 *33:7 *137:5 3.753e-05
21 *33:3 *137:6 8.13e-06
22 *33:4 *137:7 8.12999778e-06

*RES
1 *33:13 *630:A1 0.223828
2 *33:3 *401:Y 6.4000001
3 *33:11 *33:13 0.569727
4 *33:4 *33:3 0.155957
5 *33:12 *33:11 6.4000001
6 *33:5 *33:4 6.4000001
7 *33:6 *33:12 6.4000001
8 *33:6 *33:5 1.28701
9 *33:7 *33:6 0.919238
10 *33:7 *33:10 0.155957
11 *33:9 *33:10 0.367676
12 *33:8 *33:9 6.4000001
13 *603:B0 *33:8 6.4000001
*END

*D_NET *34 0.000847961

*CONN
*I *402:A I *C 114.51 63.56 *L 0.00446 *D BUFX3
*I *456:Q O *C 109.23 64.68 *L 0 *D DFFHQX1

*CAP
1 *402:A 3.98602e-05
2 *456:Q 0.000119587
3 *34:2 0.000152641
4 *34:3 0.000156892
5 *34:4 0.00022723
6 *34:5 0.00015175

*RES
1 *34:5 *402:A 0.223826
2 *34:4 *34:5 0.569743
3 *34:2 *34:4 0.895304322
4 *34:2 *34:3 0.189919
5 *456:Q *34:3 0.671478
*END

*D_NET *35 0.00146825

*CONN
*I *403:Y O *C 113.19 63.56 *L 0 *D BUFX3
*I *621:B0 I *C 112.53 68.6 *L 0.00406 *D AOI2BB1X1
*I *633:A1 I *C 115.17 67.48 *L 0.00314 *D AOI21XL

*CAP
1 *403:Y 6.3299e-05
2 *621:B0 0.00013984
3 *633:A1 3.98591e-05
4 *35:3 0.00017764
5 *35:4 0.00017764
6 *35:5 9.96999e-05
7 *35:6 0.00015196
8 *35:7 0.00014526
9 *35:8 0.00017419
10 *35:9 0.00018441
11 *35:10 0.00011445

*RES
1 *35:10 *633:A1 0.223828
2 *35:4 *403:Y 6.4000001
3 *35:7 *621:B0 3.2
4 *35:9 *35:10 0.379785
5 *35:4 *35:3 0.624023
6 *35:6 *35:7 0.624023
7 *35:8 *35:9 0.447656
8 *35:8 *35:3 6.4000001
9 *35:5 *35:6 6.4000001
10 *35:5 *35:8 0.223828
*END

*D_NET *36 0.00015946

*CONN
*I *404:Y O *C 24.75 63.56 *L 0 *D BUFX3
*I *432:A I *C 26.07 63.56 *L 0.00446 *D BUFX3

*CAP
1 *404:Y 7.973e-05
2 *432:A 7.973e-05

*RES
1 *404:Y *432:A 0.447652
*END

*D_NET *37 0.00415147

*CONN
*I *405:Y O *C 35.31 117.32 *L 0 *D BUFX8
*I *434:A I *C 32.67 93.8 *L 0.00339 *D CLKBUFX1

*CAP
1 *405:Y 8.06565e-05
2 *434:A 6.32969e-05
3 *37:2 0.000357345
4 *37:3 0.000357345
5 *37:4 0.000117839
6 *37:5 0.000117839
7 *37:6 0.000462298
8 *37:7 0.000477098
9 *37:8 0.000136876
10 *37:9 0.000115989
11 *37:10 0.000122076
12 *37:11 0.00070487
13 *37:12 0.00070487
14 *37:7 *77:2 8.433e-05
15 *37:6 *77:3 8.433e-05
16 *37:7 *77:4 6.24e-05
17 *37:6 *77:5 6.24e-05
18 *37:7 *77:6 1.98e-05
19 *37:6 *77:7 1.9799995e-05

*RES
1 *405:Y *37:9 0.447656
2 *37:10 *37:9 6.4000001
3 *37:8 *37:10 0.467969
4 *37:8 *37:12 0.183887
5 *37:11 *37:12 3.12002
6 *37:7 *37:11 0.183887
7 *37:6 *37:7 2.65195
8 *37:2 *37:6 6.4000001
9 *37:3 *37:2 1.65469
10 *37:5 *37:3 6.4000001
11 *37:4 *37:5 0.467969
12 *434:A *37:4 6.4000001
*END

*D_NET *38 0.0032599

*CONN
*I *406:Y O *C 49.83 64.12 *L 0 *D CLKBUFX1
*I *658:D I *C 35.97 73.64 *L 0.00191 *D DFFX1

*CAP
1 *406:Y 6.32953e-05
2 *658:D 6.32953e-05
3 *38:2 0.000547381719
4 *38:3 0.000532581
5 *38:4 9.02572e-05
6 *38:5 9.89605e-05
7 *38:6 0.000378603
8 *38:7 0.000378603
9 *38:8 8.82109e-05
10 *38:9 7.95075e-05
11 *38:10 6.57175e-05
12 *38:11 5.09169e-05
13 *38:8 *184:4 2.527e-05
14 *38:9 *184:5 2.527e-05
15 *38:2 *184:6 5.868e-05
16 *38:3 *184:7 5.868e-05
17 *38:2 *184:8 2.401e-05
18 *38:3 *184:9 2.40099986e-05
19 *38:6 *79:4 0.00014483
20 *38:7 *79:5 0.00014483
21 *38:4 *79:4 3.122e-05
22 *38:5 *79:5 3.122e-05
23 *38:8 *79:4 0.00012727
24 *38:9 *79:5 0.000127269994

*RES
1 *38:11 *406:Y 6.4000001
2 *38:4 *38:11 6.4000001
3 *38:5 *38:4 0.551562
4 *38:5 *38:6 0.155957
5 *38:7 *38:6 2.20625
6 *38:8 *38:7 0.155957
7 *38:9 *38:8 0.735449
8 *38:3 *38:9 6.4000001
9 *38:3 *38:2 2.65195
10 *38:10 *38:2 0.183887
11 *658:D *38:10 6.4000001
*END

*D_NET *39 0.0013839

*CONN
*I *407:Y O *C 52.47 33.88 *L 0 *D CLKBUFX1
*I *649:D I *C 47.85 37.24 *L 0.00191 *D DFFX1

*CAP
1 *407:Y 6.32983e-05
2 *649:D 6.32983e-05
3 *39:2 0.00037517
4 *39:3 0.00037517
5 *39:4 0.000231371
6 *39:5 0.000224667
7 *39:6 5.09215e-05

*RES
1 *39:6 *407:Y 6.4000001
2 *39:2 *39:6 6.4000001
3 *39:5 *649:D 6.4000001
4 *39:3 *39:2 1.10312
5 *39:4 *39:5 0.936035
6 *39:4 *39:3 6.4000001
*END

*D_NET *40 0.00076734

*CONN
*I *408:Y O *C 52.47 104.44 *L 0 *D CLKBUFX1
*I *641:D I *C 50.49 107.8 *L 0.00191 *D DFFX1

*CAP
1 *408:Y 6.33021e-05
2 *641:D 6.33021e-05
3 *40:2 6.5719e-05
4 *40:3 0.00025465
5 *40:4 0.00025465
6 *40:5 6.5719e-05

*RES
1 *40:5 *408:Y 6.4000001
2 *40:3 *40:5 0.183887
3 *40:3 *40:4 0.936035
4 *40:2 *40:4 0.183887
5 *641:D *40:2 6.4000001
*END

*D_NET *41 0.00202721

*CONN
*I *409:Y O *C 26.07 87.08 *L 0 *D CLKBUFX1
*I *653:D I *C 35.97 83.72 *L 0.00191 *D DFFX1

*CAP
1 *409:Y 6.32992e-05
2 *653:D 6.32992e-05
3 *41:2 0.000207708
4 *41:3 0.000214407
5 *41:4 5.09181e-05
6 *41:5 0.000144452
7 *41:6 0.00047312
8 *41:7 0.000153151
9 *41:8 0.00047312
10 *41:9 9.62123e-05
11 *41:10 8.75057e-05

*RES
1 *41:3 *653:D 6.4000001
2 *41:3 *41:2 0.858008
3 *41:10 *41:2 6.4000001
4 *41:9 *41:10 0.367676
5 *41:8 *41:9 0.155957
6 *41:6 *41:8 2.02246
7 *41:6 *41:7 0.155957
8 *41:5 *41:7 0.367676
9 *41:4 *41:5 6.4000001
10 *409:Y *41:4 6.4000001
*END

*D_NET *42 0.000856391

*CONN
*I *410:Y O *C 48.51 97.16 *L 0 *D CLKBUFX1
*I *652:D I *C 50.49 97.72 *L 0.00191 *D DFFX1

*CAP
1 *410:Y 6.32989e-05
2 *652:D 6.82603e-05
3 *42:2 0.00025602
4 *42:3 0.00025602
5 *42:4 5.09188e-05
6 *42:5 0.000110952
7 *42:6 5.09188e-05

*RES
1 *652:D *42:5 0.347656
2 *42:6 *42:5 6.4000001
3 *42:2 *42:6 6.4000001
4 *42:3 *42:2 0.735449
5 *42:4 *42:3 6.4000001
6 *410:Y *42:4 6.4000001
*END

*D_NET *43 0.00187614

*CONN
*I *411:Y O *C 44.55 94.36 *L 0 *D CLKBUFX1
*I *657:D I *C 36.63 87.64 *L 0.00191 *D DFFX1

*CAP
1 *411:Y 6.33027e-05
2 *657:D 6.33027e-05
3 *43:2 0.00048709
4 *43:3 0.00048709
5 *43:4 5.09202e-05
6 *43:5 0.000321962
7 *43:6 0.00033676
8 *43:7 6.57183e-05

*RES
1 *43:7 *411:Y 6.4000001
2 *43:6 *43:7 0.183887
3 *43:5 *43:6 1.404
4 *43:2 *43:5 6.4000001
5 *43:3 *43:2 1.83857
6 *43:4 *43:3 6.4000001
7 *657:D *43:4 6.4000001
*END

*D_NET *44 0.00134024

*CONN
*I *412:Y O *C 28.71 46.76 *L 0 *D CLKBUFX1
*I *642:D I *C 34.65 43.4 *L 0.00191 *D DFFX1

*CAP
1 *412:Y 6.32958e-05
2 *642:D 6.32958e-05
3 *44:2 0.00020814
4 *44:3 0.00036987
5 *44:4 0.000214839
6 *44:5 5.09189e-05
7 *44:6 0.00036987

*RES
1 *44:5 *642:D 6.4000001
2 *44:6 *44:5 6.4000001
3 *44:3 *44:6 1.83857
4 *44:4 *412:Y 6.4000001
5 *44:2 *44:3 6.4000001
6 *44:2 *44:4 0.936035
*END

*D_NET *45 0.00303778

*CONN
*I *413:Y O *C 47.19 64.12 *L 0 *D CLKBUFX1
*I *651:D I *C 35.31 57.4 *L 0.00191 *D DFFX1

*CAP
1 *413:Y 6.33031e-05
2 *651:D 6.33031e-05
3 *45:2 0.00101432
4 *45:3 0.00101432
5 *45:4 6.57176e-05
6 *45:5 0.000347997
7 *45:6 0.0003332
8 *45:7 6.78071e-05
9 *45:8 6.78071e-05

*RES
1 *45:8 *413:Y 6.4000001
2 *45:7 *45:8 0.155957
3 *45:2 *45:7 6.4000001
4 *45:3 *45:2 3.12559
5 *45:6 *45:3 6.4000001
6 *45:5 *45:6 1.404
7 *45:4 *45:5 0.183887
8 *651:D *45:4 6.4000001
*END

*D_NET *46 0.00167669

*CONN
*I *414:Y O *C 47.19 54.04 *L 0 *D CLKBUFX1
*I *648:D I *C 35.31 53.48 *L 0.00191 *D DFFX1

*CAP
1 *414:Y 6.32987e-05
2 *648:D 6.32987e-05
3 *46:2 5.09169e-05
4 *46:3 0.00068662
5 *46:4 0.00069532
6 *46:5 5.09169e-05
7 *46:6 6.63225e-05

*RES
1 *46:5 *414:Y 6.4000001
2 *46:6 *46:5 6.4000001
3 *46:4 *46:6 0.155957
4 *46:3 *46:4 3.30947
5 *46:2 *46:3 6.4000001
6 *648:D *46:2 6.4000001
*END

*D_NET *47 0.00330292

*CONN
*I *415:Y O *C 47.85 87.64 *L 0 *D BUFX3
*I *646:D I *C 35.97 77.56 *L 0.00191 *D DFFX1

*CAP
1 *415:Y 6.33011e-05
2 *646:D 6.33011e-05
3 *47:2 0.000129451
4 *47:3 0.000183902
5 *47:4 9.75088e-05
6 *47:5 0.00010621
7 *47:6 0.000279678
8 *47:7 0.000279678
9 *47:8 0.00010537
10 *47:9 0.000179819
11 *47:10 0.00030609
12 *47:11 0.000179819
13 *47:12 0.00030609
14 *47:13 0.000142468
15 *47:14 0.00015117
16 *47:15 5.09193e-05
17 *47:6 *5:6 3.165e-05
18 *47:7 *5:7 3.165e-05
19 *47:11 *5:4 3.679e-05
20 *47:9 *5:5 3.679e-05
21 *47:12 *5:2 6.624e-05
22 *47:10 *5:3 6.62400017e-05
23 *47:14 *4:4 6.68e-06
24 *47:13 *4:5 6.68e-06
25 *47:12 *4:6 0.0001017
26 *47:10 *4:7 0.000101699997
27 *47:12 *184:10 5.89e-05
28 *47:10 *184:6 5.89e-05
29 *47:2 *184:10 3.711e-05
30 *47:3 *184:6 3.71099984e-05

*RES
1 *47:15 *415:Y 6.4000001
2 *47:4 *47:15 6.4000001
3 *47:5 *47:4 0.367676
4 *47:6 *47:5 0.155957
5 *47:7 *47:6 1.28701
6 *47:7 *47:14 0.155957
7 *47:13 *47:14 0.367676
8 *47:12 *47:13 6.4000001
9 *47:10 *47:12 2.02803
10 *47:11 *47:10 6.4000001
11 *47:9 *47:11 0.919238
12 *47:2 *47:9 6.4000001
13 *47:3 *47:2 0.662988
14 *47:8 *47:3 0.364941
15 *646:D *47:8 6.4000001
*END

*D_NET *48 0.00231039

*CONN
*I *416:Y O *C 31.35 46.76 *L 0 *D CLKBUFX1
*I *643:D I *C 34.65 37.24 *L 0.00191 *D DFFX1

*CAP
1 *416:Y 3.72998e-05
2 *643:D 6.33004e-05
3 *48:2 0.000389118555
4 *48:3 0.000389118555
5 *48:4 7.99909e-05
6 *48:5 5.09206e-05
7 *48:6 6.5717e-05
8 *48:7 0.00010484
9 *48:8 0.00010484
10 *48:9 0.0001449
11 *48:10 0.000130098
12 *48:11 0.000375118
13 *48:12 0.000375118

*RES
1 *48:6 *643:D 6.4000001
2 *48:6 *48:7 0.183887
3 *48:7 *48:8 0.312012
4 *48:8 *48:11 0.183887
5 *48:11 *48:12 1.71602
6 *48:9 *48:12 0.183887
7 *48:9 *48:10 0.467969
8 *48:2 *48:10 6.4000001
9 *48:3 *48:2 1.10312
10 *48:5 *48:3 6.4000001
11 *48:4 *48:5 6.4000001
12 *48:4 *416:Y 0.189941
*END

*D_NET *49 0.000687599

*CONN
*I *417:Y O *C 48.51 114.52 *L 0 *D CLKBUFX1
*I *647:D I *C 50.49 113.96 *L 0.00191 *D DFFX1

*CAP
1 *417:Y 6.33013e-05
2 *647:D 6.33013e-05
3 *49:2 0.00019779
4 *49:3 0.00019779
5 *49:4 5.725e-05
6 *49:5 5.725e-05
7 *49:6 5.09181e-05

*RES
1 *49:5 *647:D 6.4000001
2 *49:5 *49:4 0.155957
3 *49:2 *49:4 6.4000001
4 *49:3 *49:2 0.551562
5 *49:6 *49:3 6.4000001
6 *417:Y *49:6 6.4000001
*END

*D_NET *50 0.000521139

*CONN
*I *418:Y O *C 34.65 97.16 *L 0 *D CLKBUFX1
*I *645:D I *C 36.63 97.72 *L 0.00191 *D DFFX1

*CAP
1 *418:Y 6.32989e-05
2 *645:D 6.32989e-05
3 *50:2 0.00014635
4 *50:3 0.00014635
5 *50:4 5.09205e-05
6 *50:5 5.09205e-05

*RES
1 *50:5 *645:D 6.4000001
2 *50:2 *50:5 6.4000001
3 *50:3 *50:2 0.551562
4 *50:4 *50:3 6.4000001
5 *418:Y *50:4 6.4000001
*END

*D_NET *51 0.000537141

*CONN
*I *419:Y O *C 105.27 33.32 *L 0 *D BUFX3
*I *631:A I *C 107.25 32.76 *L 0.00403 *D NAND2X1

*CAP
1 *419:Y 4.22895e-05
2 *631:A 7.45896e-05
3 *51:2 7.76194e-05
4 *51:3 0.000112681
5 *51:4 0.00011728
6 *51:5 0.000112681

*RES
1 *631:A *51:4 0.379785
2 *51:5 *51:4 6.4000001
3 *51:3 *51:5 0.367676
4 *51:2 *51:3 6.4000001
5 *419:Y *51:2 0.223828
*END

*D_NET *52 0.00154952

*CONN
*I *420:Y O *C 68.97 103.88 *L 0 *D BUFX3
*I *574:D I *C 65.67 98.28 *L 0.00217 *D DFFTRX1

*CAP
1 *420:Y 6.33012e-05
2 *574:D 0.000139841
3 *52:2 0.000250600586
4 *52:3 0.000250600586
5 *52:4 0.000187311
6 *52:5 0.000187311
7 *52:6 0.000235278
8 *52:7 0.000235278

*RES
1 *52:2 *420:Y 6.4000001
2 *52:3 *52:2 0.77998
3 *52:7 *52:3 6.4000001
4 *52:6 *52:7 0.919238
5 *52:4 *52:6 3.2
6 *52:5 *52:4 0.467969
7 *574:D *52:5 3.2
*END

*D_NET *53 0.00110268

*CONN
*I *421:Y O *C 49.83 53.48 *L 0 *D BUFX3
*I *586:D I *C 48.51 57.96 *L 0.00217 *D DFFTRX1

*CAP
1 *421:Y 6.33026e-05
2 *586:D 6.33026e-05
3 *53:2 5.09178e-05
4 *53:3 0.000143292
5 *53:4 0.00031929
6 *53:5 0.00031929
7 *53:6 0.000143292

*RES
1 *53:4 *421:Y 6.4000001
2 *53:4 *53:5 1.09199
3 *53:6 *53:5 6.4000001
4 *53:3 *53:6 0.367676
5 *53:2 *53:3 6.4000001
6 *586:D *53:2 6.4000001
*END

*D_NET *54 0.000933259

*CONN
*I *422:Y O *C 45.87 43.4 *L 0 *D BUFX3
*I *581:D I *C 49.17 42.84 *L 0.00217 *D DFFTRX1

*CAP
1 *422:Y 6.33028e-05
2 *581:D 6.33028e-05
3 *54:2 5.09188e-05
4 *54:3 6.63199e-05
5 *54:4 0.0003236
6 *54:5 5.09188e-05
7 *54:6 0.0003149

*RES
1 *54:5 *581:D 6.4000001
2 *54:6 *54:5 6.4000001
3 *54:4 *54:6 0.919238
4 *54:3 *54:4 0.155957
5 *54:2 *54:3 6.4000001
6 *422:Y *54:2 6.4000001
*END

*D_NET *55 0.000840052

*CONN
*I *423:Y O *C 113.19 83.72 *L 0 *D BUFX3
*I *572:D I *C 111.87 78.12 *L 0.00217 *D DFFTRX1

*CAP
1 *423:Y 7.45908e-05
2 *572:D 6.32989e-05
3 *55:2 6.57206e-05
4 *55:3 0.00022672
5 *55:4 0.00022672
6 *55:5 0.000117281
7 *55:6 6.57206e-05

*RES
1 *55:5 *423:Y 0.379785
2 *55:6 *55:5 6.4000001
3 *55:4 *55:6 0.183887
4 *55:3 *55:4 0.936035
5 *55:2 *55:3 0.183887
6 *572:D *55:2 6.4000001
*END

*D_NET *56 0.00073712

*CONN
*I *424:Y O *C 50.49 87.64 *L 0 *D BUFX3
*I *573:D I *C 50.49 83.16 *L 0.00217 *D DFFTRX1

*CAP
1 *424:Y 6.33018e-05
2 *573:D 6.33018e-05
3 *56:2 0.00030526
4 *56:3 0.00030526

*RES
1 *56:3 *424:Y 6.4000001
2 *56:2 *56:3 1.09199
3 *573:D *56:2 6.4000001
*END

*D_NET *57 0.00212852

*CONN
*I *425:Y O *C 117.15 97.72 *L 0 *D BUFX3
*I *580:D I *C 106.59 98.28 *L 0.00217 *D DFFTRX1

*CAP
1 *425:Y 3.98392e-05
2 *580:D 0.00013984
3 *57:2 0.00064307
4 *57:3 0.00064307
5 *57:4 0.000303141
6 *57:5 0.000233462
7 *57:6 7.51745e-05
8 *57:7 5.09177e-05

*RES
1 *425:Y *57:6 0.223828
2 *57:7 *57:6 6.4000001
3 *57:2 *57:7 6.4000001
4 *57:3 *57:2 2.20625
5 *57:5 *57:3 6.4000001
6 *57:4 *57:5 0.919238
7 *580:D *57:4 3.2
*END

*D_NET *58 0.00184595

*CONN
*I *426:Y O *C 101.31 53.48 *L 0 *D BUFX3
*I *521:A0N I *C 99.99 43.4 *L 0.00186 *D OAI2BB2X1

*CAP
1 *426:Y 6.32995e-05
2 *521:A0N 5.56693e-05
3 *58:2 0.000152521
4 *58:3 0.000167318
5 *58:4 0.00028623
6 *58:5 0.00028623
7 *58:6 0.000141012
8 *58:7 0.00012621
9 *58:8 9.09987e-05
10 *58:9 5.09217e-05
11 *58:10 0.00010508
12 *58:11 0.000147939
13 *58:12 0.000107692
14 *58:13 6.48325e-05

*RES
1 *58:2 *426:Y 6.4000001
2 *58:3 *58:2 0.467969
3 *58:3 *58:4 0.183887
4 *58:5 *58:4 1.404
5 *58:6 *58:5 0.183887
6 *58:7 *58:6 0.467969
7 *58:13 *58:7 6.4000001
8 *58:12 *58:13 0.183887
9 *58:11 *58:12 0.312012
10 *58:10 *58:11 0.367676
11 *58:9 *58:10 6.4000001
12 *58:8 *521:A0N 0.223828
13 *58:8 *58:9 6.4000001
*END

*D_NET *59 0.00055659

*CONN
*I *427:Y O *C 22.11 23.24 *L 0 *D BUFX3
*I *450:A I *C 24.09 21.56 *L 0.00187 *D DLY2X1

*CAP
1 *427:Y 6.32993e-05
2 *450:A 3.73015e-05
3 *59:2 0.000137080176
4 *59:3 0.000137080176
5 *59:4 5.09206e-05
6 *59:5 7.99891e-05
7 *59:6 5.09206e-05

*RES
1 *450:A *59:5 0.189941
2 *59:6 *59:5 6.4000001
3 *59:2 *59:6 6.4000001
4 *59:3 *59:2 0.551562
5 *59:4 *59:3 6.4000001
6 *427:Y *59:4 6.4000001
*END

*D_NET *60 0.00185886

*CONN
*I *428:Y O *C 107.91 53.48 *L 0 *D BUFX3
*I *489:A0N I *C 105.93 43.4 *L 0.00186 *D OAI2BB2X1

*CAP
1 *428:Y 3.7299e-05
2 *489:A0N 4.17004e-05
3 *60:2 0.00034462
4 *60:3 0.00034462
5 *60:4 7.70275e-05
6 *60:5 0.000153303
7 *60:6 0.000168101
8 *60:7 0.000102311
9 *60:8 0.000102311
10 *60:9 9.02422e-05
11 *60:10 6.57215e-05
12 *60:11 9.22089e-05
13 *60:12 0.000119701
14 *60:13 0.000119701

*RES
1 *60:13 *428:Y 0.189941
2 *60:12 *60:13 0.447656
3 *60:11 *60:12 0.189941
4 *60:9 *60:11 0.223828
5 *60:10 *60:9 6.4000001
6 *60:4 *489:A0N 0.223828
7 *60:8 *60:10 0.183887
8 *60:5 *60:4 6.4000001
9 *60:7 *60:8 0.312012
10 *60:5 *60:6 0.467969
11 *60:3 *60:7 0.183887
12 *60:2 *60:6 0.183887
13 *60:2 *60:3 1.404
*END

*D_NET *61 0.00015946

*CONN
*I *429:Y O *C 108.57 23.24 *L 0 *D BUFX3
*I *538:A0N I *C 109.89 23.24 *L 0.0019 *D OAI2BB2XL

*CAP
1 *429:Y 7.973e-05
2 *538:A0N 7.973e-05

*RES
1 *429:Y *538:A0N 0.447652
*END

*D_NET *62 0.00076468

*CONN
*I *430:Y O *C 117.15 37.24 *L 0 *D BUFX3
*I *513:A0N I *C 115.17 37.24 *L 0.00186 *D OAI2BB2X1

*CAP
1 *430:Y 6.32995e-05
2 *513:A0N 6.32995e-05
3 *62:2 0.00021138
4 *62:3 0.00021138
5 *62:4 8.22006e-05
6 *62:5 8.22006e-05
7 *62:6 5.09202e-05

*RES
1 *62:6 *430:Y 6.4000001
2 *62:2 *62:6 6.4000001
3 *62:4 *513:A0N 6.4000001
4 *62:3 *62:2 0.551562
5 *62:5 *62:4 0.155957
6 *62:5 *62:3 6.4000001
*END

*D_NET *63 0.000825861

*CONN
*I *431:Y O *C 34.65 107.24 *L 0 *D CLKBUFX1
*I *654:D I *C 36.63 107.8 *L 0.00191 *D DFFX1

*CAP
1 *431:Y 0.000139839
2 *654:D 0.000139839
3 *63:2 0.00017656
4 *63:3 0.000106879
5 *63:4 0.0001206
6 *63:5 7.10712e-05
7 *63:6 7.10712e-05

*RES
1 *63:6 *654:D 3.20000005
2 *63:5 *63:6 0.156006
3 *63:2 *63:5 3.20000005
4 *63:3 *63:2 0.551562
5 *63:4 *63:3 3.20000005
6 *431:Y *63:4 3.20000005
*END

*D_NET *64 0.00015946

*CONN
*I *432:Y O *C 27.39 63.56 *L 0 *D BUFX3
*I *439:A I *C 28.71 63.56 *L 0.00339 *D CLKBUFX1

*CAP
1 *432:Y 7.973e-05
2 *439:A 7.973e-05

*RES
1 *432:Y *439:A 0.447652
*END

*D_NET *65 0.00255308

*CONN
*I *371:A I *C 48.51 27.16 *L 0.00446 *D BUFX3
*I *433:Y O *C 33.33 23.24 *L 0 *D BUFX3

*CAP
1 *371:A 6.32987e-05
2 *433:Y 4.12068e-05
3 *65:2 0.0008828
4 *65:3 0.0008828
5 *65:4 0.000242916
6 *65:5 0.000312587
7 *65:6 7.65403e-05
8 *65:7 5.09191e-05

*RES
1 *65:7 *371:A 6.4000001
2 *65:2 *65:7 6.4000001
3 *65:3 *65:2 4.04482
4 *65:4 *65:3 6.4000001
5 *65:5 *65:4 0.936035
6 *65:6 *65:5 3.2
7 *433:Y *65:6 0.223828
*END

*D_NET *66 0.00436218

*CONN
*I *434:Y O *C 34.65 94.36 *L 0 *D CLKBUFX1
*I *644:D I *C 35.31 63.56 *L 0.00191 *D DFFX1

*CAP
1 *434:Y 6.33011e-05
2 *644:D 0.000139837
3 *66:2 0.000399931
4 *66:3 0.0003798
5 *66:4 0.000186991
6 *66:5 0.000192317
7 *66:6 0.00044184
8 *66:7 0.00044184
9 *66:8 0.000285081
10 *66:9 0.000285081
11 *66:10 0.000226802
12 *66:11 0.000241594
13 *66:5 *81:2 0.00015928
14 *66:4 *81:3 0.000159280004
15 *66:7 *187:6 0.00016559
16 *66:6 *187:7 0.00016559
17 *66:5 *187:6 0.00020588
18 *66:4 *187:7 0.00020588
19 *66:5 *187:8 8.13e-06
20 *66:4 *187:9 8.13000025e-06

*RES
1 *66:5 *434:Y 6.4000001
2 *66:10 *644:D 3.2
3 *66:4 *66:5 1.71602
4 *66:10 *66:11 0.77998
5 *66:4 *66:7 0.0918945
6 *66:8 *66:11 0.183887
7 *66:6 *66:7 2.496
8 *66:8 *66:9 1.24805
9 *66:3 *66:6 0.0918945
10 *66:2 *66:9 0.183887
11 *66:2 *66:3 1.87197
*END

*D_NET *67 0.00163246

*CONN
*I *373:A I *C 21.45 87.64 *L 0.00446 *D BUFX3
*I *435:Y O *C 29.37 87.08 *L 0 *D BUFX8

*CAP
1 *373:A 6.32991e-05
2 *435:Y 0.000139837
3 *67:2 0.00049017
4 *67:3 0.000248604
5 *67:4 0.000345449
6 *67:5 0.00017357
7 *67:6 5.09205e-05
8 *67:7 0.0001206

*RES
1 *67:7 *435:Y 3.2
2 *67:5 *67:7 3.2
3 *67:4 *67:5 0.367676
4 *67:2 *67:4 1.10312
5 *67:3 *67:2 1.10312
6 *67:6 *67:3 6.4000001
7 *373:A *67:6 6.4000001
*END

*D_NET *68 0.00354191

*CONN
*I *377:A I *C 20.79 63.56 *L 0.00446 *D BUFX3
*I *436:Y O *C 33.99 46.76 *L 0 *D BUFX4

*CAP
1 *377:A 6.32971e-05
2 *436:Y 0.00013985
3 *68:2 0.000375266
4 *68:3 0.000375266
5 *68:4 0.000115486
6 *68:5 0.00019049
7 *68:6 0.000219381
8 *68:7 0.00076875
9 *68:8 0.000219381
10 *68:9 0.000150325
11 *68:10 0.00015565
12 *68:11 0.00076875

*RES
1 *68:5 *436:Y 3.2
2 *68:5 *68:4 0.467969
3 *68:3 *68:4 0.0918945
4 *68:3 *68:2 1.71602
5 *68:2 *68:9 0.0918945
6 *68:9 *68:10 1.09199
7 *68:11 *68:10 6.4000001
8 *68:8 *377:A 6.4000001
9 *68:7 *68:11 3.67715
10 *68:6 *68:8 0.936035
11 *68:6 *68:7 6.4000001
*END

*D_NET *69 0.00353497

*CONN
*I *370:A I *C 24.09 47.32 *L 0.00446 *D BUFX3
*I *437:Y O *C 39.93 33.88 *L 0 *D BUFX8

*CAP
1 *370:A 6.33043e-05
2 *437:Y 6.33043e-05
3 *69:2 0.000367107
4 *69:3 0.000367107
5 *69:4 0.00030517
6 *69:5 0.000127193
7 *69:6 0.00076614
8 *69:7 0.000264312
9 *69:8 8.63347e-05
10 *69:9 0.00076614
11 *69:9 *83:105 5.271e-05
12 *69:6 *83:106 5.271e-05
13 *69:9 *83:106 1.506e-05
14 *69:6 *83:107 1.506e-05
15 *69:9 *83:107 0.00011166
16 *69:6 *83:108 0.00011166

*RES
1 *69:3 *437:Y 6.4000001
2 *69:8 *370:A 6.4000001
3 *69:3 *69:2 1.71602
4 *69:7 *69:8 0.467969
5 *69:9 *69:2 6.4000001
6 *69:4 *69:7 1.09199
7 *69:6 *69:9 4.4126
8 *69:5 *69:4 0.467969
9 *69:5 *69:6 6.4000001
*END

*D_NET *70 0.00172416

*CONN
*I *378:A I *C 60.39 107.8 *L 0.00446 *D BUFX3
*I *438:Y O *C 47.85 107.8 *L 0 *D CLKBUFX3

*CAP
1 *378:A 6.32932e-05
2 *438:Y 4.12146e-05
3 *70:2 0.00058086
4 *70:3 0.00058086
5 *70:4 4.99539e-05
6 *70:5 4.99539e-05
7 *70:6 7.65439e-05
8 *70:7 5.092e-05
9 *70:2 *10:5 0.00011011
10 *70:3 *10:6 0.00011011
11 *70:4 *10:8 5.17e-06
12 *70:5 *10:7 5.17000253e-06

*RES
1 *70:4 *378:A 6.4000001
2 *70:5 *70:4 0.155957
3 *70:2 *70:5 6.4000001
4 *70:3 *70:2 3.30947
5 *70:7 *70:3 6.4000001
6 *70:6 *70:7 6.4000001
7 *438:Y *70:6 0.223828
*END

*D_NET *71 0.0021626

*CONN
*I *439:Y O *C 30.69 64.12 *L 0 *D CLKBUFX1
*I *655:D I *C 35.97 67.48 *L 0.00191 *D DFFX1

*CAP
1 *439:Y 0.000139839
2 *655:D 0.000139839
3 *71:2 0.000349374
4 *71:3 0.000349374
5 *71:4 0.00053179
6 *71:5 0.00053179
7 *71:6 0.000120599

*RES
1 *71:2 *655:D 3.20000005
2 *71:3 *71:2 0.935986
3 *71:4 *71:3 3.20000005
4 *71:5 *71:4 1.47085
5 *71:6 *71:5 3.20000005
6 *439:Y *71:6 3.20000005
*END

*D_NET *72 0.00114453

*CONN
*I *375:A I *C 53.13 33.32 *L 0.00446 *D BUFX3
*I *440:Y O *C 46.53 33.32 *L 0 *D CLKBUFX3

*CAP
1 *375:A 6.33005e-05
2 *440:Y 3.98637e-05
3 *72:2 7.51904e-05
4 *72:3 5.09227e-05
5 *72:4 0.00043217
6 *72:5 5.09227e-05
7 *72:6 0.00043217

*RES
1 *72:5 *375:A 6.4000001
2 *72:6 *72:5 6.4000001
3 *72:4 *72:6 1.65469
4 *72:3 *72:4 6.4000001
5 *72:2 *72:3 6.4000001
6 *440:Y *72:2 0.223828
*END

*D_NET *73 0.000817451

*CONN
*I *381:A I *C 53.13 103.88 *L 0.00446 *D BUFX3
*I *441:Y O *C 48.51 104.44 *L 0 *D CLKBUFX4

*CAP
1 *381:A 6.32995e-05
2 *441:Y 7.973e-05
3 *73:2 0.000115059
4 *73:3 5.09217e-05
5 *73:4 0.00022876
6 *73:5 5.09217e-05
7 *73:6 0.00022876

*RES
1 *73:5 *381:A 6.4000001
2 *73:6 *73:5 6.4000001
3 *73:4 *73:6 0.919238
4 *73:3 *73:4 6.4000001
5 *73:2 *73:3 6.4000001
6 *441:Y *73:2 0.447656
*END

*D_NET *74 0.00100601

*CONN
*I *380:A I *C 44.55 47.32 *L 0.00446 *D BUFX3
*I *442:Y O *C 38.61 46.76 *L 0 *D BUFX4

*CAP
1 *380:A 6.32982e-05
2 *442:Y 3.98599e-05
3 *74:2 0.00024498
4 *74:3 0.00024498
5 *74:4 7.51893e-05
6 *74:5 5.09211e-05
7 *74:6 5.09211e-05
8 *74:2 *6:8 3.182e-05
9 *74:3 *6:9 3.182e-05
10 *74:2 *6:6 8.611e-05
11 *74:3 *6:7 8.61100021e-05

*RES
1 *74:6 *380:A 6.4000001
2 *74:2 *74:6 6.4000001
3 *74:3 *74:2 1.4709
4 *74:5 *74:3 6.4000001
5 *74:4 *74:5 6.4000001
6 *442:Y *74:4 0.223828
*END

*D_NET *75 0.00131135

*CONN
*I *374:A I *C 51.81 47.32 *L 0.00446 *D BUFX3
*I *443:Y O *C 42.57 46.76 *L 0 *D CLKBUFX8

*CAP
1 *374:A 6.33021e-05
2 *443:Y 6.33021e-05
3 *75:2 8.04956e-05
4 *75:3 8.04956e-05
5 *75:4 0.00043946
6 *75:5 0.00043946
7 *75:6 7.24152e-05
8 *75:7 7.24152e-05

*RES
1 *75:3 *374:A 6.4000001
2 *75:3 *75:2 0.312012
3 *75:4 *75:2 6.4000001
4 *75:5 *75:4 2.02246
5 *75:7 *75:5 6.4000001
6 *75:6 *75:7 0.183887
7 *443:Y *75:6 6.4000001
*END

*D_NET *76 0.00113498

*CONN
*I *369:Y O *C 34.65 113.96 *L 0 *D BUFX3
*I *431:A I *C 32.67 107.8 *L 0.00339 *D CLKBUFX1

*CAP
1 *369:Y 0.000139842
2 *431:A 6.32996e-05
3 *76:2 6.5719e-05
4 *76:3 8.64487e-05
5 *76:4 0.000126706
6 *76:5 0.000319167
7 *76:6 0.00033379

*RES
1 *76:6 *369:Y 3.2
2 *76:5 *76:6 1.09199
3 *76:4 *76:5 0.367676
4 *76:3 *76:4 0.312012
5 *76:2 *76:3 0.183887
6 *431:A *76:2 6.4000001
*END

*D_NET *77 0.00239721

*CONN
*I *379:A I *C 32.67 103.88 *L 0.00446 *D BUFX3
*I *445:Y O *C 39.27 94.36 *L 0 *D BUFX8

*CAP
1 *379:A 6.3299e-05
2 *445:Y 6.3299e-05
3 *77:2 0.000295102
4 *77:3 0.000295102
5 *77:4 8.96618e-05
6 *77:5 0.000104461
7 *77:6 0.000124661
8 *77:7 0.000109861
9 *77:8 5.62562e-05
10 *77:9 0.0004031
11 *77:10 5.62562e-05
12 *77:11 0.0004031
13 *77:2 *37:7 8.433e-05
14 *77:3 *37:6 8.433e-05
15 *77:4 *37:7 6.24e-05
16 *77:5 *37:6 6.24e-05
17 *77:6 *37:7 1.98e-05
18 *77:7 *37:6 1.9799995e-05

*RES
1 *77:7 *445:Y 6.4000001
2 *77:7 *77:6 0.467969
3 *77:6 *77:3 0.183887
4 *77:3 *77:2 1.55996
5 *77:5 *77:2 0.183887
6 *77:5 *77:4 0.467969
7 *77:11 *77:4 6.4000001
8 *77:10 *379:A 6.4000001
9 *77:9 *77:11 1.83857
10 *77:8 *77:10 0.155957
11 *77:8 *77:9 6.4000001
*END

*D_NET *78 7.972e-05

*CONN
*I *382:A I *C 51.15 117.88 *L 0.00446 *D BUFX3
*I *446:Y O *C 49.17 117.32 *L 0 *D CLKBUFX8

*CAP
1 *382:A 3.986e-05
2 *446:Y 3.986e-05

*RES
1 *446:Y *382:A 0.223826
*END

*D_NET *79 0.00352652

*CONN
*I *406:A I *C 47.85 63.56 *L 0.00339 *D CLKBUFX1
*I *447:Y O *C 32.67 63.56 *L 0 *D BUFX3

*CAP
1 *406:A 6.33016e-05
2 *447:Y 0.000139834
3 *79:2 0.000130188
4 *79:3 6.05089e-05
5 *79:4 0.00064901
6 *79:5 0.00064901
7 *79:6 5.09127e-05
8 *79:4 *38:6 0.00014483
9 *79:5 *38:7 0.00014483
10 *79:4 *38:4 3.122e-05
11 *79:5 *38:5 3.122e-05
12 *79:4 *38:8 0.00012727
13 *79:5 *38:9 0.000127269994
14 *79:4 *9:2 0.00058855
15 *79:5 *9:3 0.00058855

*RES
1 *79:6 *406:A 6.4000001
2 *79:4 *79:6 6.4000001
3 *79:5 *79:4 4.22871
4 *79:2 *447:Y 3.2
5 *79:3 *79:5 6.4000001
6 *79:3 *79:2 0.155957
*END

*D_NET *80 0.00405307

*CONN
*I *372:A I *C 60.39 97.72 *L 0.00446 *D BUFX3
*I *448:Y O *C 47.19 83.72 *L 0 *D BUFX3

*CAP
1 *372:A 6.33093e-05
2 *448:Y 6.33093e-05
3 *80:2 5.51207e-05
4 *80:3 5.51207e-05
5 *80:4 9.5547e-05
6 *80:5 9.5547e-05
7 *80:6 0.000615113
8 *80:7 0.000615113
9 *80:8 0.00086835
10 *80:9 5.09204e-05
11 *80:10 0.00086835
12 *80:6 *168:7 0.0002172
13 *80:7 *168:8 0.0002172
14 *80:6 *168:13 6.317e-05
15 *80:7 *168:12 6.317e-05
16 *80:6 *168:11 2.329e-05
17 *80:7 *168:10 2.32900054e-05

*RES
1 *80:2 *372:A 6.4000001
2 *80:3 *80:2 0.155957
3 *80:9 *80:3 6.4000001
4 *80:10 *80:9 6.4000001
5 *80:8 *80:10 4.36797
6 *80:6 *80:8 6.4000001
7 *80:7 *80:6 3.67715
8 *80:4 *448:Y 6.4000001
9 *80:5 *80:7 6.4000001
10 *80:5 *80:4 0.312012
*END

*D_NET *81 0.00244003

*CONN
*I *376:A I *C 45.21 93.8 *L 0.00446 *D BUFX3
*I *449:Y O *C 33.99 87.64 *L 0 *D BUFX3

*CAP
1 *376:A 6.33001e-05
2 *449:Y 4.16986e-05
3 *81:2 0.000303975
4 *81:3 0.000303975
5 *81:4 0.00064028
6 *81:5 0.00064028
7 *81:6 7.7027e-05
8 *81:7 5.09215e-05
9 *81:2 *66:5 0.00015928
10 *81:3 *66:4 0.000159280004

*RES
1 *81:7 *376:A 6.4000001
2 *81:4 *81:7 6.4000001
3 *81:5 *81:4 2.9417
4 *81:2 *81:5 6.4000001
5 *81:3 *81:2 1.55996
6 *81:6 *81:3 6.4000001
7 *449:Y *81:6 0.223828
*END

*D_NET *82 0.00347356

*CONN
*I *450:Y O *C 26.73 23.8 *L 0 *D DLY2X1
*I *656:RN I *C 46.53 28.28 *L 0.004 *D DFFRHQX1
*I *674:RN I *C 46.53 22.12 *L 0.004 *D DFFRHQX1

*CAP
1 *450:Y 3.9842e-05
2 *656:RN 0.000139843
3 *674:RN 0.000139843
4 *82:3 7.5171e-05
5 *82:4 5.09176e-05
6 *82:5 9.34208e-05
7 *82:6 0.000347083
8 *82:7 0.000102121
9 *82:8 0.00038162
10 *82:9 0.000347083
11 *82:10 0.00038162
12 *82:11 0.000114378
13 *82:12 0.00033691
14 *82:13 0.000105678
15 *82:14 0.00033691
16 *82:13 *3:2 3.79e-05
17 *82:11 *3:3 3.79e-05
18 *82:9 *3:4 6.691e-05
19 *82:6 *3:5 6.691e-05
20 *82:9 *3:6 2.527e-05
21 *82:6 *3:7 2.527e-05
22 *82:10 *3:3 8.282e-05
23 *82:8 *3:8 8.282e-05
24 *82:14 *3:9 2.766e-05
25 *82:12 *3:10 2.76600061e-05

*RES
1 *82:14 *656:RN 3.2
2 *82:12 *674:RN 3.2
3 *82:12 *82:14 1.71602
4 *82:13 *82:12 3.2
5 *82:11 *82:13 0.551562
6 *82:10 *82:11 0.155957
7 *82:8 *82:10 2.39014
8 *82:8 *82:9 0.155957
9 *82:6 *82:9 2.02246
10 *82:6 *82:7 0.155957
11 *82:5 *82:7 0.367676
12 *82:4 *82:5 6.4000001
13 *82:3 *82:4 6.4000001
14 *450:Y *82:3 0.223828
*END

*D_NET *83 0.0977102

*CONN
*I *680:CK I *C 86.13 27.72 *L 0.0026 *D DFFX1
*I *451:Y O *C 26.07 33.88 *L 0 *D CLKBUFX20
*I *679:CK I *C 98.67 27.72 *L 0.0026 *D DFFX1
*I *678:CK I *C 68.97 42.84 *L 0.0026 *D DFFX1
*I *677:CK I *C 58.41 32.76 *L 0.0026 *D DFFX1
*I *675:CK I *C 22.77 108.36 *L 0.00291 *D DFFHQX1
*I *674:CK I *C 35.31 22.68 *L 0.003 *D DFFRHQX1
*I *673:CK I *C 22.77 83.16 *L 0.00291 *D DFFHQX1
*I *672:CK I *C 22.77 103.32 *L 0.00291 *D DFFHQX1
*I *671:CK I *C 22.77 78.12 *L 0.00291 *D DFFHQX1
*I *670:CK I *C 22.77 93.24 *L 0.00291 *D DFFHQX1
*I *669:CK I *C 22.11 37.8 *L 0.00291 *D DFFHQX1
*I *668:CK I *C 22.77 27.72 *L 0.00291 *D DFFHQX1
*I *667:CK I *C 22.11 52.92 *L 0.00291 *D DFFHQX1
*I *666:CK I *C 22.77 98.28 *L 0.00291 *D DFFHQX1
*I *665:CK I *C 22.77 73.08 *L 0.00291 *D DFFHQX1
*I *664:CK I *C 35.97 103.32 *L 0.00291 *D DFFHQX1
*I *663:CK I *C 22.77 113.4 *L 0.00291 *D DFFHQX1
*I *662:CK I *C 22.77 68.04 *L 0.00291 *D DFFHQX1
*I *661:CK I *C 22.77 57.96 *L 0.00291 *D DFFHQX1
*I *660:CK I *C 36.63 113.4 *L 0.00291 *D DFFHQX1
*I *659:CK I *C 22.11 42.84 *L 0.00291 *D DFFHQX1
*I *658:CK I *C 35.31 73.08 *L 0.0026 *D DFFX1
*I *657:CK I *C 35.97 88.2 *L 0.0026 *D DFFX1
*I *656:CK I *C 35.31 27.72 *L 0.003 *D DFFRHQX1
*I *655:CK I *C 35.31 68.04 *L 0.0026 *D DFFX1
*I *654:CK I *C 35.97 108.36 *L 0.0026 *D DFFX1
*I *653:CK I *C 35.31 83.16 *L 0.0026 *D DFFX1
*I *652:CK I *C 49.83 98.28 *L 0.0026 *D DFFX1
*I *651:CK I *C 34.65 57.96 *L 0.0026 *D DFFX1
*I *649:CK I *C 47.19 37.8 *L 0.0026 *D DFFX1
*I *648:CK I *C 34.65 52.92 *L 0.0026 *D DFFX1
*I *647:CK I *C 49.83 113.4 *L 0.0026 *D DFFX1
*I *646:CK I *C 35.31 78.12 *L 0.0026 *D DFFX1
*I *645:CK I *C 35.97 98.28 *L 0.0026 *D DFFX1
*I *644:CK I *C 34.65 63 *L 0.0026 *D DFFX1
*I *643:CK I *C 33.99 37.8 *L 0.0026 *D DFFX1
*I *642:CK I *C 33.99 42.84 *L 0.0026 *D DFFX1
*I *641:CK I *C 49.83 108.36 *L 0.0026 *D DFFX1
*I *587:CK I *C 105.93 88.76 *L 0.00305 *D DFFTRX1
*I *586:CK I *C 47.19 58.52 *L 0.00305 *D DFFTRX1
*I *585:CK I *C 110.55 58.52 *L 0.00305 *D DFFTRX1
*I *584:CK I *C 111.21 72.52 *L 0.00305 *D DFFTRX1
*I *583:CK I *C 61.05 92.68 *L 0.00305 *D DFFTRX1
*I *582:CK I *C 48.51 78.68 *L 0.00305 *D DFFTRX1
*I *581:CK I *C 47.85 42.28 *L 0.00305 *D DFFTRX1
*I *580:CK I *C 105.27 98.84 *L 0.00305 *D DFFTRX1
*I *579:CK I *C 48.51 72.52 *L 0.00305 *D DFFTRX1
*I *578:CK I *C 92.07 98.84 *L 0.00305 *D DFFTRX1
*I *577:CK I *C 79.53 98.84 *L 0.00305 *D DFFTRX1
*I *575:CK I *C 60.39 48.44 *L 0.00305 *D DFFTRX1
*I *574:CK I *C 64.35 98.84 *L 0.00305 *D DFFTRX1
*I *573:CK I *C 49.17 82.6 *L 0.00305 *D DFFTRX1
*I *572:CK I *C 110.55 78.68 *L 0.00305 *D DFFTRX1
*I *571:CK I *C 111.21 48.44 *L 0.00305 *D DFFTRX1
*I *533:CK I *C 111.21 27.72 *L 0.00291 *D DFFHQX1
*I *523:CK I *C 63.03 27.72 *L 0.00291 *D DFFHQX1
*I *519:CK I *C 99.33 37.8 *L 0.00291 *D DFFHQX1
*I *506:CK I *C 111.21 32.76 *L 0.00291 *D DFFHQX1
*I *485:CK I *C 111.87 42.84 *L 0.00291 *D DFFHQX1
*I *468:CK I *C 59.73 37.8 *L 0.00291 *D DFFHQX1
*I *467:CK I *C 47.85 68.04 *L 0.00291 *D DFFHQX1
*I *466:CK I *C 100.65 68.04 *L 0.00291 *D DFFHQX1
*I *465:CK I *C 73.59 93.24 *L 0.00291 *D DFFHQX1
*I *464:CK I *C 49.83 93.24 *L 0.00291 *D DFFHQX1
*I *463:CK I *C 94.05 88.2 *L 0.00291 *D DFFHQX1
*I *462:CK I *C 99.33 47.88 *L 0.00291 *D DFFHQX1
*I *461:CK I *C 105.27 93.24 *L 0.00291 *D DFFHQX1
*I *460:CK I *C 59.07 57.96 *L 0.00291 *D DFFHQX1
*I *459:CK I *C 72.27 88.2 *L 0.00291 *D DFFHQX1
*I *458:CK I *C 59.07 68.04 *L 0.00291 *D DFFHQX1
*I *457:CK I *C 61.71 83.16 *L 0.00291 *D DFFHQX1
*I *456:CK I *C 99.99 63 *L 0.00291 *D DFFHQX1
*I *455:CK I *C 92.07 103.32 *L 0.00291 *D DFFHQX1
*I *454:CK I *C 100.65 73.08 *L 0.00291 *D DFFHQX1
*I *453:CK I *C 83.49 88.2 *L 0.00291 *D DFFHQX1

*CAP
1 *680:CK 6.33046e-05
2 *451:Y 0.00013984
3 *679:CK 6.33046e-05
4 *678:CK 6.33046e-05
5 *677:CK 6.33046e-05
6 *675:CK 6.33046e-05
7 *674:CK 0.00013984
8 *673:CK 6.33046e-05
9 *672:CK 6.33046e-05
10 *671:CK 6.33046e-05
11 *670:CK 6.33046e-05
12 *669:CK 6.33046e-05
13 *668:CK 6.33046e-05
14 *667:CK 6.33046e-05
15 *666:CK 6.33046e-05
16 *665:CK 6.33046e-05
17 *664:CK 6.33046e-05
18 *663:CK 6.33046e-05
19 *662:CK 6.33046e-05
20 *661:CK 6.33046e-05
21 *660:CK 6.33046e-05
22 *659:CK 6.33046e-05
23 *658:CK 6.33046e-05
24 *657:CK 6.33046e-05
25 *656:CK 0.00013984
26 *655:CK 6.33046e-05
27 *654:CK 6.33046e-05
28 *653:CK 0.00013984
29 *652:CK 6.33046e-05
30 *651:CK 6.33046e-05
31 *649:CK 6.33046e-05
32 *648:CK 6.33046e-05
33 *647:CK 6.33046e-05
34 *646:CK 3.9856e-05
35 *645:CK 6.33046e-05
36 *644:CK 6.33046e-05
37 *643:CK 6.33046e-05
38 *642:CK 6.33046e-05
39 *641:CK 6.33046e-05
40 *587:CK 6.33046e-05
41 *586:CK 0.00013984
42 *585:CK 6.33046e-05
43 *584:CK 6.33046e-05
44 *583:CK 0.00013984
45 *582:CK 6.33046e-05
46 *581:CK 0.00013984
47 *580:CK 0.00013984
48 *579:CK 0.00013984
49 *578:CK 0.00013984
50 *577:CK 0.00013984
51 *575:CK 0.00013984
52 *574:CK 0.00013984
53 *573:CK 0.00013984
54 *572:CK 6.33046e-05
55 *571:CK 0.00013984
56 *533:CK 6.33046e-05
57 *523:CK 6.33046e-05
58 *519:CK 6.33046e-05
59 *506:CK 6.33046e-05
60 *485:CK 6.33046e-05
61 *468:CK 6.33046e-05
62 *467:CK 6.33046e-05
63 *466:CK 6.33046e-05
64 *465:CK 6.33046e-05
65 *464:CK 6.33046e-05
66 *463:CK 6.33046e-05
67 *462:CK 6.33046e-05
68 *461:CK 6.33046e-05
69 *460:CK 6.33046e-05
70 *459:CK 6.33046e-05
71 *458:CK 6.33046e-05
72 *457:CK 6.33046e-05
73 *456:CK 6.33046e-05
74 *455:CK 6.33046e-05
75 *454:CK 6.33046e-05
76 *453:CK 6.33046e-05
77 *83:76 0.000590832
78 *83:77 0.00083714
79 *83:78 0.000611693
80 *83:79 0.000188113
81 *83:80 0.000202915
82 *83:81 0.000138202
83 *83:82 0.000405732
84 *83:83 0.000326315
85 *83:84 0.00101851
86 *83:85 0.000658067
87 *83:86 0.000391945
88 *83:87 0.000749961
89 *83:88 0.00166606
90 *83:89 0.00114705
91 *83:90 0.000137711
92 *83:91 6.79878e-05
93 *83:92 0.00027349
94 *83:93 0.000343181
95 *83:94 0.000426823
96 *83:95 0.000357099
97 *83:96 0.000965583
98 *83:97 0.000913381
99 *83:98 0.00214623219
100 *83:99 0.00167045
101 *83:100 0.00031708
102 *83:101 0.000813528
103 *83:102 0.000600886
104 *83:103 0.000643133
105 *83:104 0.000367907
106 *83:105 0.00113771
107 *83:106 0.000593386
108 *83:107 0.000572623
109 *83:108 0.000584217
110 *83:109 0.000551173
111 *83:110 0.000481482
112 *83:111 0.000218864
113 *83:112 0.000218864
114 *83:113 0.000654431
115 *83:114 0.000654431
116 *83:115 0.000131161
117 *83:116 0.000663929
118 *83:117 0.000313445
119 *83:118 0.000383135
120 *83:119 0.000147307
121 *83:120 0.000147307
122 *83:121 0.000709254
123 *83:122 0.000306698
124 *83:123 0.00072946
125 *83:124 0.00072946
126 *83:125 0.000553923
127 *83:126 0.000205601
128 *83:127 0.000275259
129 *83:128 0.0003627
130 *83:129 7.10662e-05
131 *83:130 0.000746686
132 *83:131 0.000746686
133 *83:132 0.000272868
134 *83:133 0.000354185
135 *83:134 0.000280302
136 *83:135 0.000221026
137 *83:136 0.000290716
138 *83:137 0.000607927
139 *83:138 0.00032435
140 *83:139 6.10776e-05
141 *83:140 6.10776e-05
142 *83:141 0.000579599
143 *83:142 0.000624007
144 *83:143 6.15034e-05
145 *83:144 6.15034e-05
146 *83:145 0.000165024
147 *83:146 0.000834193
148 *83:147 0.000843395
149 *83:148 0.0001421
150 *83:149 7.26054e-05
151 *83:150 0.000898676
152 *83:151 0.000914134
153 *83:152 0.000505291
154 *83:153 0.000938107
155 *83:154 6.68743e-05
156 *83:155 6.68743e-05
157 *83:156 0.000852696
158 *83:157 0.000349141
159 *83:158 0.000152579
160 *83:159 8.29215e-05
161 *83:160 0.000585821
162 *83:161 0.000118193
163 *83:162 4.85346e-05
164 *83:163 0.000539907
165 *83:164 0.000610613
166 *83:165 0.000486853
167 *83:166 0.000630262
168 *83:167 0.000670348
169 *83:168 0.000949635
170 *83:169 0.000949635
171 *83:170 0.000493337
172 *83:171 0.000696252
173 *83:172 0.000765943
174 *83:173 0.000273359
175 *83:174 0.000343017
176 *83:175 0.00056889
177 *83:176 0.000288981
178 *83:177 0.000218439
179 *83:178 0.000227707
180 *83:179 0.000377994
181 *83:180 0.000583922
182 *83:181 0.000228558
183 *83:182 0.000310333
184 *83:183 0.000537647
185 *83:184 0.000539645
186 *83:185 0.000691733
187 *83:186 0.000532145
188 *83:187 0.000378911
189 *83:188 0.000615361
190 *83:189 0.000566958
191 *83:190 0.000566958
192 *83:191 5.34798e-05
193 *83:192 0.000579337
194 *83:193 0.000807109
195 *83:194 0.000954612
196 *83:195 0.00121605
197 *83:196 0.00112311
198 *83:197 0.000103881
199 *83:198 5.51172e-05
200 *83:199 0.000417391
201 *83:200 0.000285509
202 *83:201 0.000340397
203 *83:202 0.000120583
204 *83:203 0.000120583
205 *83:204 0.000265074
206 *83:205 0.000120583
207 *83:206 0.000195383
208 *83:207 0.000413527
209 *83:208 0.00138471
210 *83:209 0.00132586
211 *83:210 0.000865076
212 *83:211 0.000630983
213 *83:212 0.000120583
214 *83:213 0.000555299
215 *83:214 5.94402e-05
216 *83:215 0.000237924
217 *83:216 0.00138687
218 *83:217 0.00169802
219 *83:218 0.000120583
220 *83:219 0.000120583
221 *83:220 0.0008207
222 *83:221 0.000120583
223 *83:222 0.000120583
224 *83:223 0.000560146
225 *83:224 0.000592306
226 *83:225 0.000120583
227 *83:226 0.000120583
228 *83:227 0.000573377
229 *83:228 0.000371444
230 *83:229 0.000151695
231 *83:230 0.000120583
232 *83:231 0.000120583
233 *83:232 0.0001421
234 *83:233 5.94402e-05
235 *83:234 0.000120583
236 *83:235 0.000120583
237 *83:236 0.000120583
238 *83:237 0.000120583
239 *83:238 0.0001421
240 *83:239 0.000263338
241 *83:240 0.000354676
242 *83:241 0.000120583
243 *83:242 0.000120583
244 *83:243 0.000556609
245 *83:244 0.000591127
246 *83:245 7.24089e-05
247 *83:246 0.000120583
248 *83:247 0.000120583
249 *83:248 0.000120583
250 *83:249 0.000120583
251 *83:250 0.00040177
252 *83:251 0.000580516
253 *83:252 0.000603866
254 *83:253 0.000120583
255 *83:254 0.000355429
256 *83:255 0.000120583
257 *83:256 0.000120583
258 *83:257 0.000120583
259 *83:258 5.3971e-05
260 *83:259 0.000123662
261 *83:260 0.000120583
262 *83:261 0.000120583
263 *83:262 0.00063393
264 *83:263 0.000120583
265 *83:264 0.000120583
266 *83:265 0.000120583
267 *83:266 0.000120583
268 *83:267 5.94402e-05
269 *83:268 0.000120583
270 *83:269 5.94402e-05
271 *83:270 0.000120583
272 *83:271 0.000120583
273 *83:272 0.000463732
274 *83:273 0.000120583
275 *83:274 0.000120583
276 *83:275 0.000394041
277 *83:276 0.000120583
278 *83:277 5.94402e-05
279 *83:278 6.56953e-05
280 *83:189 *309:27 8.75e-06
281 *83:190 *309:26 8.75e-06
282 *83:189 *309:25 7.991e-05
283 *83:190 *309:24 7.991e-05
284 *83:166 *309:17 9.858e-05
285 *83:167 *309:18 9.858e-05
286 *83:166 *309:15 5.016e-05
287 *83:167 *309:16 5.016e-05
288 *83:166 *309:19 1.263e-05
289 *83:167 *309:20 1.263e-05
290 *83:167 *309:19 1.263e-05
291 *83:191 *309:20 1.26299949e-05
292 *83:187 *351:4 1.947e-05
293 *83:188 *351:5 1.947e-05
294 *83:88 *351:2 0.00011917
295 *83:89 *351:3 0.00011917
296 *83:182 *161:21 3.63e-05
297 *83:183 *161:20 3.63e-05
298 *83:183 *161:15 4.557e-05
299 *83:184 *161:14 4.557e-05
300 *83:184 *161:15 3.572e-05
301 *83:185 *161:14 3.572e-05
302 *83:185 *161:15 8.252e-05
303 *83:186 *161:14 8.252e-05
304 *83:171 *161:7 3.012e-05
305 *83:172 *161:8 3.01200072e-05
306 *83:171 *182:2 9.981e-05
307 *83:172 *182:3 9.981e-05
308 *83:173 *182:7 2.423e-05
309 *83:174 *182:6 2.42299999e-05
310 *83:163 *148:19 5.938e-05
311 *83:164 *148:20 5.938e-05
312 *83:163 *148:23 0.00012559
313 *83:164 *148:22 0.00012559
314 *83:164 *148:23 2.377e-05
315 *83:152 *148:22 2.377e-05
316 *83:152 *148:23 0.00017159
317 *83:153 *148:22 0.00017159
318 *83:153 *148:23 0.00020749
319 *83:156 *148:22 0.00020749
320 *83:156 *148:23 4.979e-05
321 *83:157 *148:22 4.979e-05
322 *83:156 *148:22 3.245e-05
323 *83:157 *148:21 3.24500094e-05
324 *83:156 *220:6 0.00018786
325 *83:157 *220:7 0.00018786
326 *83:156 *220:4 3.753e-05
327 *83:157 *220:5 3.753e-05
328 *83:161 *220:2 8.13e-06
329 *83:162 *220:3 8.12999555e-06
330 *83:105 *69:9 5.271e-05
331 *83:106 *69:6 5.271e-05
332 *83:106 *69:9 1.506e-05
333 *83:107 *69:6 1.506e-05
334 *83:107 *69:9 0.00011166
335 *83:108 *69:6 0.00011166
336 *83:107 *100:3 1.188e-05
337 *83:108 *100 1.188e-05
338 *83:111 *100:4 0.00014376
339 *83:112 *100:2 0.00014376
340 *83:105 *193:9 8.95e-05
341 *83:106 *193:3 8.95e-05
342 *83:106 *193:9 1.506e-05
343 *83:107 *193:3 1.506e-05
344 *83:107 *193:9 6.68e-06
345 *83:108 *193:3 6.68e-06
346 *83:109 *193:9 3.75e-05
347 *83:110 *193:3 3.75000036e-05
348 *83:102 *216:7 0.00010371
349 *83:103 *216:6 0.00010371
350 *83:103 *216:7 7.53e-06
351 *83:101 *216:6 7.53e-06
352 *83:101 *216:7 1.335e-05
353 *83:98 *216:6 1.335e-05
354 *83:97 *216:2 5.17e-06
355 *83:104 *216:3 5.16999866e-06
356 *83:98 *247:6 0.00015858
357 *83:99 *247:4 0.000158579994
358 *83:125 *229:4 0.00016063
359 *83:88 *229:5 0.000160629993

*RES
1 *83:92 *455:CK 6.40004
2 *83:95 *461:CK 6.40004
3 *83:93 *578:CK 3.20002
4 *83:93 *83:92 1.248
5 *83:94 *580:CK 3.20002
6 *83:95 *83:94 1.56005
7 *83:191 *83:93 3.20002
8 *83:166 *83:94 3.20002
9 *83:273 *572:CK 6.40004
10 *83:191 *83:167 0.183812
11 *83:167 *83:166 3.49332
12 *83:91 *463:CK 6.40004
13 *83:270 *587:CK 6.40004
14 *83:274 *83:273 3.20002
15 *83:189 *83:167 3.20002
16 *83:91 *83:90 0.156024
17 *83:163 *83:270 3.20002
18 *83:256 *465:CK 6.40004
19 *83:275 *83:274 3.20002
20 *83:276 *584:CK 6.40004
21 *83:258 *453:CK 6.40004
22 *83:190 *83:189 2.80805
23 *83:164 *83:90 3.20002
24 *83:164 *83:163 3.30941
25 *83:177 *83:256 3.20002
26 *83:257 *577:CK 3.20002
27 *83:134 *466:CK 6.40004
28 *83:198 *454:CK 6.40004
29 *83:272 *83:275 1.71597
30 *83:277 *83:276 3.20002
31 *83:162 *459:CK 6.40004
32 *83:258 *83:259 0.156024
33 *83:152 *83:190 3.20002
34 *83:152 *83:164 0.367723
35 *83:247 *583:CK 3.20002
36 *83:178 *83:177 0.919258
37 *83:253 *574:CK 3.20002
38 *83:168 *83:257 3.20002
39 *83:134 *83:133 1.248
40 *83:133 *83:198 0.156024
41 *83:141 *83:272 3.20002
42 *83:141 *83:277 0.183812
43 *83:176 *663:CK 6.40004
44 *83:162 *83:161 0.156024
45 *83:153 *83:259 3.20002
46 *83:153 *83:152 2.57396
47 *83:181 *83:247 3.20002
48 *83:179 *83:178 0.156024
49 *83:169 *83:253 3.20002
50 *83:169 *83:168 4.22876
51 *83:268 *456:CK 6.40004
52 *83:142 *83:133 3.20002
53 *83:142 *83:141 2.75787
54 *83:175 *675:CK 6.40004
55 *83:175 *83:176 1.40402
56 *83:156 *83:161 3.20002
57 *83:156 *83:153 3.12559
58 *83:181 *83:180 0.919258
59 *83:180 *83:179 1.6547
60 *83:254 *83:169 3.20002
61 *83:271 *585:CK 6.40004
62 *83:269 *83:268 3.20002
63 *83:197 *83:142 0.367723
64 *83:170 *672:CK 6.40004
65 *83:170 *83:175 1.40402
66 *83:157 *83:156 2.20624
67 *83:252 *83:180 3.20002
68 *83:252 *83:254 1.71597
69 *83:173 *647:CK 6.40004
70 *83:123 *83:271 3.20002
71 *83:267 *83:269 0.183812
72 *83:192 *83:197 3.20002
73 *83:165 *666:CK 6.40004
74 *83:165 *83:170 1.40402
75 *83:251 *83:157 3.20002
76 *83:251 *83:252 1.09197
77 *83:174 *641:CK 6.40004
78 *83:174 *83:173 1.40402
79 *83:79 *660:CK 6.40004
80 *83:265 *462:CK 6.40004
81 *83:124 *83:123 3.12559
82 *83:193 *83:267 3.20002
83 *83:193 *83:192 2.65202
84 *83:278 *485:CK 6.40004
85 *83:199 *571:CK 3.20002
86 *83:150 *670:CK 6.40004
87 *83:150 *83:165 1.40402
88 *83:238 *573:CK 3.20002
89 *83:83 *652:CK 6.40004
90 *83:250 *83:251 1.56005
91 *83:171 *83:174 3.20002
92 *83:80 *83:79 0.780024
93 *83:263 *519:CK 6.40004
94 *83:266 *83:265 3.20002
95 *83:194 *83:124 3.20002
96 *83:194 *83:193 1.248
97 *83:96 *83:278 0.183812
98 *83:96 *83:199 1.56005
99 *83:151 *673:CK 6.40004
100 *83:151 *83:150 2.80805
101 *83:238 *83:149 0.183812
102 *83:84 *464:CK 6.40004
103 *83:84 *83:83 1.40402
104 *83:248 *457:CK 6.40004
105 *83:145 *83:250 3.20002
106 *83:172 *83:171 3.86104
107 *83:81 *83:80 0.183812
108 *83:264 *83:263 3.20002
109 *83:195 *83:266 3.20002
110 *83:195 *83:194 2.96397
111 *83:97 *506:CK 6.40004
112 *83:97 *83:96 2.80805
113 *83:160 *671:CK 6.40004
114 *83:160 *83:151 1.40402
115 *83:149 *83:87 0.156024
116 *83:87 *83:84 2.80805
117 *83:146 *83:248 3.20002
118 *83:146 *83:145 0.735445
119 *83:82 *654:CK 6.40004
120 *83:82 *83:172 3.20002
121 *83:82 *83:81 0.623999
122 *83:196 *83:264 3.20002
123 *83:196 *83:195 2.80805
124 *83:104 *533:CK 6.40004
125 *83:104 *83:97 1.40402
126 *83:137 *665:CK 6.40004
127 *83:137 *83:160 1.40402
128 *83:237 *582:CK 6.40004
129 *83:147 *83:87 3.20002
130 *83:147 *83:146 3.30941
131 *83:76 *664:CK 6.40004
132 *83:76 *83:82 1.40402
133 *83:262 *83:196 2.80805
134 *83:102 *83:104 3.20002
135 *83:138 *662:CK 6.40004
136 *83:138 *83:137 1.40402
137 *83:236 *579:CK 3.20002
138 *83:143 *83:237 3.20002
139 *83:148 *83:147 0.551535
140 *83:77 *645:CK 6.40004
141 *83:77 *83:76 1.40402
142 *83:261 *679:CK 6.40004
143 *83:103 *83:262 3.20002
144 *83:103 *83:102 3.30941
145 *83:205 *661:CK 6.40004
146 *83:136 *83:138 3.20002
147 *83:139 *83:236 3.20002
148 *83:144 *83:143 0.183812
149 *83:182 *83:148 3.20002
150 *83:78 *657:CK 6.40004
151 *83:78 *83:77 2.80805
152 *83:260 *680:CK 6.40004
153 *83:101 *83:261 3.20002
154 *83:101 *83:103 0.183812
155 *83:203 *668:CK 6.40004
156 *83:202 *667:CK 6.40004
157 *83:212 *648:CK 6.40004
158 *83:127 *83:205 3.20002
159 *83:136 *83:135 0.919258
160 *83:234 *467:CK 6.40004
161 *83:140 *83:139 0.183812
162 *83:183 *83:144 3.20002
163 *83:183 *83:182 1.248
164 *646:CK *83:229 0.223874
165 *83:154 *83:78 3.20002
166 *83:249 *523:CK 6.40004
167 *83:98 *83:260 3.20002
168 *83:98 *83:101 3.49332
169 *83:246 *575:CK 3.20002
170 *83:204 *83:203 3.20002
171 *83:122 *83:202 3.20002
172 *83:213 *83:212 3.20002
173 *83:127 *83:126 0.919258
174 *83:211 *83:135 3.20002
175 *83:235 *83:234 3.20002
176 *83:184 *83:140 3.20002
177 *83:184 *83:183 1.71597
178 *83:230 *83:229 3.20002
179 *83:225 *653:CK 3.20002
180 *83:155 *83:154 0.183812
181 *83:99 *83:249 3.20002
182 *83:99 *83:98 6.43499994
183 *83:255 *678:CK 6.40004
184 *83:119 *83:246 3.20002
185 *83:204 *83:206 0.919258
186 *83:122 *83:121 1.10317
187 *83:121 *83:213 2.39015
188 *83:210 *83:126 3.20002
189 *83:210 *83:211 2.80805
190 *83:185 *83:235 3.20002
191 *83:185 *83:184 1.248
192 *83:158 *83:230 3.20002
193 *83:226 *83:225 3.20002
194 *83:228 *83:155 3.20002
195 *83:241 *677:CK 6.40004
196 *83:239 *83:99 1.28698
197 *83:113 *83:255 3.20002
198 *83:120 *83:119 0.551535
199 *83:125 *458:CK 6.40004
200 *83:207 *83:206 3.20002
201 *83:209 *83:121 3.20002
202 *83:209 *83:210 1.40402
203 *83:86 *674:CK 3.20002
204 *83:129 *651:CK 6.40004
205 *83:132 *644:CK 6.40004
206 *83:186 *83:185 2.65202
207 *83:221 *658:CK 6.40004
208 *83:159 *83:158 0.183812
209 *83:227 *83:226 3.20002
210 *83:227 *83:228 1.40402
211 *83:242 *83:241 3.20002
212 *83:240 *83:239 3.20002
213 *83:114 *83:113 2.94168
214 *83:187 *83:120 3.20002
215 *83:88 *460:CK 6.40004
216 *83:88 *83:125 2.80805
217 *83:245 *468:CK 6.40004
218 *83:207 *83:208 1.71597
219 *83:208 *83:209 5.30404
220 *83:85 *656:CK 3.20002
221 *83:86 *83:85 1.40402
222 *83:129 *83:128 0.156024
223 *83:128 *83:132 1.248
224 *83:231 *586:CK 3.20002
225 *83:233 *83:186 3.20002
226 *83:218 *655:CK 6.40004
227 *83:222 *83:221 3.20002
228 *83:224 *83:159 3.20002
229 *83:224 *83:227 1.40402
230 *83:232 *581:CK 3.20002
231 *83:243 *83:242 3.20002
232 *83:240 *83:243 1.40402
233 *83:188 *83:114 3.20002
234 *83:188 *83:187 1.56005
235 *83:89 *83:88 5.61599
236 *83:89 *83:245 0.183812
237 *83:110 *83:208 3.20002
238 *83:85 *83:100 1.71597
239 *83:100 *451:Y 3.20002
240 *83:214 *83:128 3.20002
241 *83:130 *83:231 3.20002
242 *83:130 *83:233 0.183812
243 *83:219 *83:218 3.20002
244 *83:223 *83:222 3.20002
245 *83:223 *83:224 1.40402
246 *83:200 *83:232 0.183812
247 *83:243 *83:244 1.40402
248 *83:244 *83:188 1.40402
249 *83:115 *83:89 3.20002
250 *83:110 *83:109 2.57396
251 *83:109 *83:100 3.20002
252 *83:214 *83:131 0.183812
253 *83:131 *83:130 3.30941
254 *83:220 *83:219 3.20002
255 *83:220 *83:223 1.40402
256 *83:201 *649:CK 6.40004
257 *83:201 *83:200 1.248
258 *83:116 *83:244 3.20002
259 *83:116 *83:115 0.183812
260 *83:215 *83:109 3.20002
261 *83:217 *83:131 3.20002
262 *83:217 *83:220 2.65202
263 *83:117 *642:CK 6.40004
264 *83:105 *83:201 3.20002
265 *83:105 *83:116 3.12559
266 *83:215 *83:216 1.09197
267 *83:216 *83:217 5.77202
268 *83:118 *643:CK 6.40004
269 *83:118 *83:117 1.40402
270 *83:106 *83:105 3.30941
271 *83:106 *83:216 3.20002
272 *83:107 *83:118 3.20002
273 *83:107 *83:106 0.367723
274 *83:111 *659:CK 6.40004
275 *83:108 *83:107 3.30941
276 *83:112 *83:111 1.40402
277 *83:112 *83:108 3.20002
278 *669:CK *83:112 6.40004
*END

*D_NET *84 0.0492446

*CONN
*I *575:RN I *C 61.05 47.32 *L 0.00177 *D DFFTRX1
*I *581:RN I *C 48.51 43.4 *L 0.00177 *D DFFTRX1
*I *504:A1 I *C 93.39 67.48 *L 0.00443 *D AOI21X1
*I *586:RN I *C 47.85 57.4 *L 0.00177 *D DFFTRX1
*I *579:RN I *C 49.17 73.64 *L 0.00177 *D DFFTRX1
*I *486:B0 I *C 74.25 58.52 *L 0.00302 *D OAI21XL
*I *487:B0 I *C 90.75 58.52 *L 0.00302 *D OAI21XL
*I *488:B0 I *C 77.55 58.52 *L 0.00302 *D OAI21XL
*I *582:RN I *C 49.17 77.56 *L 0.00177 *D DFFTRX1
*I *573:RN I *C 49.83 83.72 *L 0.00177 *D DFFTRX1
*I *490:B0 I *C 94.05 58.52 *L 0.00302 *D OAI21XL
*I *508:A1 I *C 78.21 67.48 *L 0.00443 *D AOI21X1
*I *631:B I *C 107.91 33.32 *L 0.00375 *D NAND2X1
*I *505:A1 I *C 84.81 77.56 *L 0.00443 *D AOI21X1
*I *584:RN I *C 111.87 73.64 *L 0.00177 *D DFFTRX1
*I *585:RN I *C 111.21 57.4 *L 0.00177 *D DFFTRX1
*I *507:A1 I *C 81.51 77.56 *L 0.00443 *D AOI21X1
*I *577:RN I *C 80.19 97.72 *L 0.00177 *D DFFTRX1
*I *572:RN I *C 111.21 77.56 *L 0.00177 *D DFFTRX1
*I *571:RN I *C 111.87 47.32 *L 0.00177 *D DFFTRX1
*I *574:RN I *C 65.01 97.72 *L 0.00177 *D DFFTRX1
*I *578:RN I *C 92.73 97.72 *L 0.00177 *D DFFTRX1
*I *583:RN I *C 61.71 93.8 *L 0.00177 *D DFFTRX1
*I *587:RN I *C 106.59 87.64 *L 0.00177 *D DFFTRX1
*I *580:RN I *C 105.93 97.72 *L 0.00177 *D DFFTRX1
*I *640:A I *C 117.15 87.64 *L 0.00346 *D INVX1
*I *452:Y O *C 49.83 33.88 *L 0 *D CLKBUFX2

*CAP
1 *575:RN 0.000139844
2 *581:RN 0.000139844
3 *504:A1 0.000139844
4 *586:RN 3.98695e-05
5 *579:RN 0.000139844
6 *486:B0 0.000139844
7 *487:B0 6.3302e-05
8 *488:B0 0.000119587
9 *582:RN 0.000139844
10 *573:RN 3.98695e-05
11 *490:B0 0.00012199
12 *508:A1 0.000139844
13 *631:B 7.97176e-05
14 *505:A1 6.3302e-05
15 *584:RN 3.98695e-05
16 *585:RN 3.98695e-05
17 *507:A1 6.3302e-05
18 *577:RN 0.000139844
19 *572:RN 6.3302e-05
20 *571:RN 6.3302e-05
21 *574:RN 0.000139844
22 *578:RN 0.000139844
23 *583:RN 0.000139844
24 *587:RN 0.000139844
25 *580:RN 6.3302e-05
26 *640:A 0.000139844
27 *452:Y 0.000139844
28 *84:27 0.000403781
29 *84:28 0.000484314
30 *84:29 0.000655079
31 *84:30 0.000281254
32 *84:31 0.000295953
33 *84:32 0.000295953
34 *84:33 0.000193897
35 *84:34 0.000193897
36 *84:35 0.000219197
37 *84:36 0.000219197
38 *84:37 0.000128063
39 *84:38 7.33016e-05
40 *84:39 0.000223059
41 *84:40 0.000223059
42 *84:41 0.000196343
43 *84:42 0.000196343
44 *84:43 0.000488241
45 *84:44 0.000473435
46 *84:45 0.00104624
47 *84:46 0.00112675
48 *84:47 0.000315909
49 *84:48 0.000315909
50 *84:49 0.000227265
51 *84:50 0.000282134
52 *84:51 0.000633814
53 *84:52 0.00110152
54 *84:53 0.00140627
55 *84:54 0.000718102
56 *84:55 0.000147719
57 *84:56 0.000123557
58 *84:57 0.000400348
59 *84:58 0.000771233
60 *84:59 0.000153813
61 *84:60 0.000153813
62 *84:61 0.000157332
63 *84:62 6.48255e-05
64 *84:63 6.48255e-05
65 *84:64 0.000186752
66 *84:65 0.000201107
67 *84:66 0.000104223
68 *84:67 0.000104223
69 *84:68 0.000514742
70 *84:69 0.000382666
71 *84:70 0.000382666
72 *84:71 0.000103965
73 *84:72 0.000224733
74 *84:73 0.000219046
75 *84:74 0.000219046
76 *84:75 0.000413115
77 *84:76 0.000413115
78 *84:77 0.000258422
79 *84:78 0.000531351
80 *84:79 0.000295567
81 *84:80 0.000225012
82 *84:81 0.000276426
83 *84:82 0.000406635
84 *84:83 0.000159736
85 *84:84 0.000340736
86 *84:85 0.000516587
87 *84:86 0.000240698
88 *84:87 0.000240698
89 *84:88 0.000181602
90 *84:89 0.000428479
91 *84:90 0.000619566
92 *84:91 0.000274945
93 *84:92 0.000656109
94 *84:93 0.000607485
95 *84:94 0.000384876
96 *84:95 0.00038788
97 *84:96 0.000428951
98 *84:97 0.000133535
99 *84:98 0.000142247
100 *84:99 0.000110982
101 *84:100 0.000171967
102 *84:101 0.000292412
103 *84:102 0.000292412
104 *84:103 0.000423651
105 *84:104 0.000345865
106 *84:105 0.00011345
107 *84:106 0.000597635
108 *84:107 0.00025647
109 *84:108 0.00025647
110 *84:109 0.000685528
111 *84:110 0.000218703
112 *84:111 0.000151388
113 *84:112 0.000546629
114 *84:113 0.000501459
115 *84:114 0.000675121
116 *84:115 0.00052075
117 *84:116 0.000373289
118 *84:117 0.000373289
119 *84:118 0.000121089
120 *84:119 0.000266212
121 *84:120 0.000655937
122 *84:121 0.00131076
123 *84:122 0.000775439
124 *84:123 7.18853e-05
125 *84:124 7.40741e-05
126 *84:125 0.00019673
127 *84:126 0.000141861
128 *84:127 0.000350843
129 *84:128 0.000350843
130 *84:129 0.000142826
131 *84:130 0.000197717
132 *84:131 0.000628728
133 *84:132 0.000332067
134 *84:133 0.000332067
135 *84:134 7.51899e-05
136 *84:135 0.000142097
137 *84:136 0.000331939
138 *84:137 0.00013935
139 *84:138 0.000124544
140 *84:139 7.51899e-05
141 *84:140 6.57268e-05
142 *84:141 7.24218e-05
143 *84:142 7.21643e-05
144 *84:143 0.000231471
145 *84:144 5.72508e-05
146 *84:145 5.09206e-05
147 *84:146 0.000182632
148 *84:147 0.000182632
149 *84:148 0.000120596
150 *84:149 0.00017186
151 *84:150 0.000298421
152 *84:151 0.000154757
153 *84:152 5.09206e-05
154 *84:153 0.000115059
155 *84:154 7.24218e-05
156 *84:155 7.51899e-05
157 *84:156 0.000142097
158 *84:157 7.51899e-05
159 *84:158 0.000256706
160 *84:159 0.000386164
161 *84:160 8.90305e-05
162 *84:161 0.000120596
163 *84:162 0.000120596
164 *84:107 *147:5 0.00012099
165 *84:108 *147:6 0.00012099
166 *84:103 *147:5 0.00011977
167 *84:104 *147:6 0.00011977
168 *84:105 *147:5 3.79e-05
169 *84:106 *147:6 3.79e-05
170 *84:106 *147:5 0.00019499
171 *84:109 *147:6 0.000194990001
172 *84:106 *128:9 6.364e-05
173 *84:109 *128:4 6.364e-05
174 *84:109 *128:9 0.00025211
175 *84:110 *128:4 0.00025211
176 *84:111 *128:8 8.86e-06
177 *84:112 *128:7 8.86e-06
178 *84:112 *128:8 8.927e-05
179 *84:113 *128:7 8.92699818e-05
180 *84:114 *4:14 9.66e-05
181 *84:115 *4:12 9.66e-05
182 *84:114 *4:11 8.153e-05
183 *84:115 *4:9 8.15299977e-05
184 *84:106 *176:18 5.796e-05
185 *84:109 *176:17 5.796e-05
186 *84:116 *176:15 8.197e-05
187 *84:117 *176:13 8.197e-05
188 *84:109 *176:15 1.263e-05
189 *84:110 *176:13 1.263e-05
190 *84:118 *176:15 3.79e-05
191 *84:119 *176:13 3.79e-05
192 *84:119 *176:15 5.78e-05
193 *84:114 *176:13 5.78e-05
194 *84:114 *176:15 3.67e-05
195 *84:115 *176:13 3.67e-05
196 *84:106 *176:16 2.926e-05
197 *84:109 *176:14 2.926e-05
198 *84:109 *176:16 5.544e-05
199 *84:110 *176:14 5.544e-05
200 *84:114 *176:12 0.00011809
201 *84:115 *176:11 0.000118090004
202 *84:59 *217:6 2.377e-05
203 *84:60 *217:3 2.377e-05
204 *84:51 *217:4 0.00016152
205 *84:52 *217:2 0.000161519997
206 *84:53 *224:7 7.605e-05
207 *84:54 *224:4 7.605e-05
208 *84:27 *224:2 9.96e-06
209 *84:28 *224:3 9.96000582e-06
210 *84:53 *230:6 3.131e-05
211 *84:54 *230:4 3.131e-05
212 *84:55 *230:7 4.071e-05
213 *84:56 *230:5 4.071e-05
214 *84:56 *230:7 2.034e-05
215 *84:57 *230:5 2.034e-05
216 *84:27 *230:7 9.92e-06
217 *84:28 *230:5 9.92000021e-06

*RES
1 *631:B *84:153 0.447656
2 *84:161 *571:RN 6.4000001
3 *84:50 *84:153 3.2
4 *84:59 *84:161 3.2
5 *84:50 *84:49 1.24805
6 *84:60 *84:59 0.367676
7 *84:49 *84:131 0.183887
8 *84:154 *84:60 3.2
9 *84:155 *585:RN 0.223828
10 *84:131 *84:52 2.65195
11 *84:52 *84:154 0.183887
12 *84:156 *84:155 3.2
13 *84:52 *84:51 2.80801
14 *84:51 *84:156 0.183887
15 *84:157 *584:RN 0.223828
16 *84:46 *84:51 0.551562
17 *84:158 *84:157 3.2
18 *84:160 *572:RN 6.4000001
19 *84:46 *84:45 5.304
20 *84:158 *84:159 0.77998
21 *84:159 *84:160 0.312012
22 *84:45 *84:85 0.183887
23 *84:85 *84:159 0.735449
24 *84:85 *84:84 1.55996
25 *84:162 *640:A 3.2
26 *84:152 *84:84 6.4000001
27 *84:97 *84:162 3.2
28 *84:133 *84:152 6.4000001
29 *84:98 *84:97 0.551562
30 *84:133 *84:132 1.404
31 *84:95 *84:98 0.155957
32 *84:96 *84:132 6.4000001
33 *84:96 *84:95 1.83857
34 *84:123 *84:96 0.183887
35 *84:123 *84:99 0.155957
36 *84:100 *84:99 0.367676
37 *84:44 *587:RN 3.2
38 *84:44 *84:100 3.2
39 *84:44 *84:43 1.87197
40 *84:149 *84:43 0.183887
41 *84:151 *580:RN 6.4000001
42 *84:145 *505:A1 6.4000001
43 *84:149 *84:150 0.467969
44 *84:150 *84:151 0.467969
45 *84:86 *84:145 6.4000001
46 *84:103 *84:150 3.2
47 *84:87 *84:86 0.919238
48 *84:104 *84:103 1.83857
49 *84:61 *490:B0 0.671484
50 *84:93 *507:A1 6.4000001
51 *84:93 *84:87 6.4000001
52 *84:104 *84:107 0.0780273
53 *84:147 *84:61 3.2
54 *84:93 *84:92 2.80801
55 *84:41 *578:RN 3.2
56 *84:108 *84:107 1.28701
57 *84:146 *487:B0 6.4000001
58 *84:146 *84:147 0.367676
59 *84:113 *84:92 0.367676
60 *84:111 *577:RN 3.2
61 *84:42 *84:41 0.467969
62 *84:105 *84:108 0.0780273
63 *84:66 *84:146 3.2
64 *84:113 *84:112 2.18398
65 *84:112 *84:111 0.467969
66 *84:106 *84:42 3.2
67 *84:106 *84:105 0.551562
68 *84:67 *84:66 0.367676
69 *84:109 *84:112 3.2
70 *84:109 *84:106 3.49326
71 *84:130 *84:67 3.2
72 *84:110 *84:109 1.65469
73 *84:130 *84:129 0.467969
74 *84:110 *84:116 0.155957
75 *84:128 *84:129 0.183887
76 *84:33 *574:RN 3.2
77 *84:117 *84:116 2.02246
78 *84:128 *84:127 1.55996
79 *84:36 *583:RN 3.2
80 *84:34 *84:33 0.467969
81 *84:118 *84:117 0.155957
82 *84:127 *84:126 0.183887
83 *84:148 *504:A1 3.2
84 *84:36 *84:35 0.624023
85 *84:119 *84:34 3.2
86 *84:119 *84:118 0.551562
87 *84:126 *84:125 0.467969
88 *84:80 *84:148 3.2
89 *84:114 *84:35 3.2
90 *84:114 *84:119 0.919238
91 *84:81 *84:125 3.2
92 *84:81 *84:80 1.10312
93 *84:115 *84:114 3.67715
94 *84:124 *84:81 0.183887
95 *84:138 *84:115 6.4000001
96 *84:73 *84:124 0.155957
97 *84:137 *84:138 0.467969
98 *84:143 *488:B0 0.671484
99 *84:74 *84:73 0.551562
100 *84:101 *84:137 0.183887
101 *84:37 *486:B0 3.2
102 *84:144 *84:143 3.2
103 *84:75 *84:74 0.155957
104 *84:139 *573:RN 0.223828
105 *84:102 *84:101 1.404
106 *84:38 *84:37 0.155957
107 *84:142 *84:144 0.155957
108 *84:39 *508:A1 3.2
109 *84:76 *84:75 1.4709
110 *84:140 *84:139 6.4000001
111 *84:102 *84:94 0.183887
112 *84:38 *84:64 0.183887
113 *84:64 *84:142 0.183887
114 *84:40 *84:39 0.467969
115 *84:77 *84:76 0.155957
116 *84:90 *84:140 0.183887
117 *84:90 *84:94 1.55996
118 *84:65 *84:64 0.467969
119 *84:78 *84:40 3.2
120 *84:78 *84:77 0.919238
121 *84:91 *84:90 1.09199
122 *84:62 *84:65 3.2
123 *84:79 *84:78 1.10312
124 *84:91 *84:88 0.183887
125 *84:63 *84:62 0.183887
126 *84:120 *84:79 3.2
127 *84:89 *582:RN 3.2
128 *84:89 *84:88 0.624023
129 *84:121 *84:63 3.2
130 *84:121 *84:120 2.65195
131 *84:141 *452:Y 3.2
132 *84:82 *579:RN 3.2
133 *84:82 *84:89 1.09199
134 *84:31 *575:RN 3.2
135 *84:122 *84:121 3.27598
136 *84:48 *84:141 0.183887
137 *84:83 *84:82 0.624023
138 *84:32 *84:31 0.77998
139 *84:58 *84:122 3.2
140 *84:48 *84:47 1.24805
141 *84:83 *84:69 0.183887
142 *84:53 *84:32 3.2
143 *84:53 *84:58 3.67715
144 *84:136 *84:47 0.183887
145 *84:70 *84:69 1.55996
146 *84:54 *84:53 3.49326
147 *84:57 *581:RN 3.2
148 *84:136 *84:57 1.404
149 *84:71 *84:70 0.183887
150 *84:56 *84:54 3.2
151 *84:57 *84:56 0.312012
152 *84:134 *586:RN 0.223828
153 *84:72 *84:71 0.312012
154 *84:56 *84:55 0.312012
155 *84:135 *84:134 3.2
156 *84:68 *84:72 0.735449
157 *84:28 *84:55 0.459668
158 *84:29 *84:135 0.183887
159 *84:29 *84:68 2.02803
160 *84:28 *84:27 1.87197
161 *84:30 *84:29 1.404
162 *84:30 *84:27 0.0918945
*END

*D_NET *85 0.00661862

*CONN
*I *451:A I *C 24.09 33.32 *L 0.0305 *D CLKBUFX20
*P *85 I *C 0 0.28 *L 0

*CAP
1 *451:A 0.000139851
2 *85 4.37471e-05
3 *85:2 0.00103633
4 *85:3 0.00103633
5 *85:4 6.92102e-05
6 *85:5 0.0018378
7 *85:6 0.0018378
8 *85:7 0.000120613
9 *85:2 *101:3 0.00024847
10 *85:3 *101 0.000248470006

*RES
1 *85:7 *451:A 3.19997
2 *85:2 *85:7 3.19997
3 *85:3 *85:2 6.43505
4 *85:6 *85:3 3.19997
5 *85:5 *85:6 9.20400047
6 *85:4 *85:5 3.19997
7 *85 *85:4 0.236785
*END

*D_NET *86 0.00478483

*CONN
*I *427:A I *C 20.79 23.24 *L 0.00446 *D BUFX3
*P *86 I *C 0 7.56 *L 0

*CAP
1 *427:A 6.32967e-05
2 *86 0.00123576
3 *86:2 0.000140796
4 *86:3 0.000178497
5 *86:4 0.000140796
6 *86:5 0.000827823
7 *86:6 0.00126122
8 *86:7 0.000758137
9 *86:8 0.000178497

*RES
1 *86:4 *427:A 6.39997
2 *86:2 *86:4 0.623953
3 *86:3 *86:2 6.39997
4 *86:3 *86:8 0.919284
5 *86:7 *86:8 6.39997
6 *86:5 *86:7 3.74402
7 *86:6 *86:5 3.19999
8 *86 *86:6 6.67178583
*END

*D_NET *87 0.00658791

*CONN
*P *87 I *C 0 140.84 *L 0
*I *675:D I *C 23.43 107.8 *L 0.00207 *D DFFHQX1

*CAP
1 *87 0.00126716
2 *675:D 0.000139844
3 *87:2 0.000334403
4 *87:3 0.000334403
5 *87:4 0.000182369
6 *87:5 0.000329787
7 *87:6 0.000289511
8 *87:7 0.00118145
9 *87:8 0.00123635
10 *87:9 0.00129262

*RES
1 *87:4 *675:D 3.19998
2 *87:4 *87:5 0.3677
3 *87:5 *87:6 1.24798
4 *87:6 *87:3 0.183902
5 *87:3 *87:2 1.56003
6 *87:7 *87:2 0.183902
7 *87:7 *87:8 6.24002
8 *87:9 *87:8 3.19998
9 *87 *87:9 6.8556428
*END

*D_NET *88 0.00629573

*CONN
*P *88 I *C 0 133 *L 0
*I *672:D I *C 23.43 103.88 *L 0.00207 *D DFFHQX1

*CAP
1 *88 7.77408e-05
2 *672:D 0.000139832
3 *88:2 0.0011172
4 *88:3 0.00104751
5 *88:4 0.00159012
6 *88:5 0.00159012
7 *88:6 0.000103193
8 *88:7 6.7817e-05
9 *88:8 6.7817e-05
10 *88:2 *92:7 0.00024719
11 *88:3 *92 0.000247189992

*RES
1 *88:7 *672:D 3.19995
2 *88:7 *88:8 0.155998
3 *88:2 *88:8 3.19995
4 *88:3 *88:2 6.06728
5 *88:4 *88:3 3.19995
6 *88:4 *88:5 7.95599985
7 *88:6 *88:5 3.19995
8 *88 *88:6 0.420647
*END

*D_NET *89 0.00545775

*CONN
*P *89 I *C 0 125.16 *L 0
*I *660:D I *C 37.29 113.96 *L 0.00207 *D DFFHQX1

*CAP
1 *89 0.00200105
2 *660:D 0.000139831
3 *89:2 0.000680046
4 *89:3 0.000610346
5 *89:4 0.0020265

*RES
1 *89:3 *660:D 3.19993
2 *89:3 *89:2 3.12003
3 *89:4 *89:2 3.19993
4 *89 *89:4 10.3489285
*END

*D_NET *90 0.00306479

*CONN
*P *90 I *C 0 117.32 *L 0
*I *663:D I *C 23.43 113.96 *L 0.00207 *D DFFHQX1

*CAP
1 *90 0.00120163
2 *663:D 0.000139833
3 *90:2 0.00021327
4 *90:3 0.000282944
5 *90:4 0.0012271

*RES
1 *90:2 *663:D 3.20001
2 *90:2 *90:3 0.936025
3 *90:4 *90:3 3.20001
4 *90 *90:4 6.48792839
*END

*D_NET *91 0.00530145

*CONN
*P *91 I *C 0 109.48 *L 0
*I *664:D I *C 36.63 103.88 *L 0.00207 *D DFFHQX1

*CAP
1 *91 0.00197294
2 *664:D 0.000139829
3 *91:2 0.000412796
4 *91:3 0.000453062
5 *91:4 0.000182336
6 *91:5 7.2423e-05
7 *91:6 0.00206808

*RES
1 *91:4 *664:D 3.19993
2 *91:4 *91:3 0.367777
3 *91:3 *91:2 1.56001
4 *91:5 *91:2 0.18381
5 *91:6 *91:5 3.19993
6 *91 *91:6 10.3489285
*END

*D_NET *92 0.00436913

*CONN
*P *92 I *C 0 101.64 *L 0
*I *670:D I *C 23.43 93.8 *L 0.00207 *D DFFHQX1

*CAP
1 *92 0.00100012
2 *670:D 0.000139834
3 *92:2 0.000385376
4 *92:3 0.000385376
5 *92:4 0.00012613
6 *92:5 0.000140753
7 *92:6 7.24157e-05
8 *92:7 0.00109526
9 *92:8 0.000140837
10 *92:9 0.000100576
11 *92:10 0.000144029
12 *92:11 0.000144029
13 *92:7 *88:2 0.00024719
14 *92 *88:3 0.000247189992

*RES
1 *92:5 *670:D 3.19999
2 *92:4 *92:5 0.155963
3 *92:4 *92:8 0.367714
4 *92:8 *92:9 0.312027
5 *92:9 *92:3 0.183857
6 *92:3 *92:2 1.716
7 *92:10 *92:2 0.183857
8 *92:10 *92:11 0.46799
9 *92:6 *92:11 0.183857
10 *92:7 *92:6 3.19999
11 *92 *92:7 6.67178583
*END

*D_NET *93 0.00341805

*CONN
*P *93 I *C 0 93.8 *L 0
*I *666:D I *C 23.43 97.72 *L 0.00207 *D DFFHQX1

*CAP
1 *93 0.00123563
2 *666:D 0.000139848
3 *93:2 0.000142102
4 *93:3 0.000277463
5 *93:4 0.00133076
6 *93:5 0.000292266

*RES
1 *93:2 *666:D 3.19999
2 *93:2 *93:5 0.183857
3 *93:3 *93:5 1.09204
4 *93:4 *93:3 3.19999
5 *93 *93:4 6.67178583
*END

*D_NET *94 0.003026

*CONN
*P *94 I *C 0 85.96 *L 0
*I *673:D I *C 23.43 83.72 *L 0.00207 *D DFFHQX1

*CAP
1 *94 0.000655461
2 *673:D 0.000139841
3 *94:2 0.000630324
4 *94:3 0.00072378
5 *94:4 0.000109724
6 *94:5 0.000109724
7 *94:6 0.00065715

*RES
1 *94:4 *673:D 3.20001
2 *94:4 *94:5 0.312004
3 *94:6 *94:5 3.20001
4 *94:2 *94:6 2.94174
5 *94:2 *94:3 0.312004
6 *94 *94:3 3.54621434
*END

*D_NET *95 0.00296463

*CONN
*P *95 I *C 0 78.12 *L 0
*I *671:D I *C 23.43 77.56 *L 0.00207 *D DFFHQX1

*CAP
1 *95 0.00118048
2 *671:D 0.000139835
3 *95:2 0.000120603
4 *95:3 0.00127562
5 *95:3 *5:4 0.00012405
6 *95 *5:5 0.000124050001

*RES
1 *95:2 *671:D 3.20001
2 *95:3 *95:2 3.20001
3 *95 *95:3 6.48792839
*END

*D_NET *96 0.00317072

*CONN
*P *96 I *C 0 70.28 *L 0
*I *662:D I *C 23.43 67.48 *L 0.00207 *D DFFHQX1

*CAP
1 *96 0.000791396
2 *662:D 0.000139842
3 *96:2 0.000447328
4 *96:3 0.00082556
5 *96:4 0.000263975
6 *96:5 0.0001943
7 *96:6 0.000508311

*RES
1 *96:4 *662:D 3.2
2 *96:4 *96:5 0.467978
3 *96:6 *96:5 3.2
4 *96:2 *96:6 2.20628
5 *96:2 *96:3 0.156014
6 *96 *96:3 4.28164291
*END

*D_NET *97 0.00469914

*CONN
*P *97 I *C 0 62.44 *L 0
*I *665:D I *C 23.43 73.64 *L 0.00207 *D DFFHQX1

*CAP
1 *97 0.00124868
2 *665:D 0.000139846
3 *97:2 0.00127413
4 *97:3 0.000182366
5 *97:4 0.000185049
6 *97:5 0.000130145
7 *97:6 9.73265e-05
8 *97:7 0.000137571
9 *97:8 0.000387634
10 *97:9 0.000387634
11 *97:2 *9:2 0.00012702
12 *97 *9:3 0.000127019999
13 *97:9 *189:2 0.00011647
14 *97:8 *189:3 0.00011647
15 *97:5 *189:2 2.089e-05
16 *97:4 *189:3 2.08899986e-05

*RES
1 *97:3 *665:D 3.19998
2 *97:3 *97:7 0.3677
3 *97:6 *97:7 0.312048
4 *97:6 *97:9 0.183902
5 *97:8 *97:9 2.18402
6 *97:5 *97:8 0.183902
7 *97:4 *97:5 0.46802
8 *97:2 *97:4 3.19998
9 *97 *97:2 6.8556428
*END

*D_NET *98 0.00300207

*CONN
*P *98 I *C 0 54.6 *L 0
*I *661:D I *C 23.43 57.4 *L 0.00207 *D DFFHQX1

*CAP
1 *98 0.00120257
2 *661:D 0.000139847
3 *98:2 0.000250649
4 *98:3 0.00122804
5 *98:4 0.00018096

*RES
1 *98:4 *661:D 3.20001
2 *98:2 *98:4 0.780005
3 *98:3 *98:2 3.20001
4 *98 *98:3 6.48792839
*END

*D_NET *99 0.00334446

*CONN
*P *99 I *C 0 46.76 *L 0
*I *667:D I *C 22.77 53.48 *L 0.00207 *D DFFHQX1

*CAP
1 *99 0.00116523
2 *667:D 0.000139844
3 *99:2 0.000424346
4 *99:3 0.000424346
5 *99:4 0.00119068

*RES
1 *99:2 *667:D 3.20004
2 *99:3 *99:2 1.71598
3 *99:4 *99:3 3.20004
4 *99 *99:4 6.30407143
*END

*D_NET *100 0.00320922

*CONN
*P *100 I *C 0 38.92 *L 0
*I *659:D I *C 22.77 43.4 *L 0.00207 *D DFFHQX1

*CAP
1 *100 0.00116177
2 *659:D 0.000139837
3 *100:2 0.000134869
4 *100:3 0.00125692
5 *100:4 0.000204548
6 *100:3 *83:107 1.188e-05
7 *100 *83:108 1.188e-05
8 *100:4 *83:111 0.00014376
9 *100:2 *83:112 0.00014376

*RES
1 *100:4 *659:D 3.20004
2 *100:2 *100:4 1.09198
3 *100:3 *100:2 3.20004
4 *100 *100:3 6.30407143
*END

*D_NET *101 0.00338837

*CONN
*P *101 I *C 0 31.08 *L 0
*I *669:D I *C 22.77 37.24 *L 0.00207 *D DFFHQX1

*CAP
1 *101 0.000963619
2 *669:D 0.000139846
3 *101:2 0.000434284
4 *101:3 0.00098908
5 *101:4 0.000364602
6 *101:3 *85:2 0.00024847
7 *101 *85:3 0.000248470006

*RES
1 *101:4 *669:D 3.20004
2 *101:2 *101:4 1.71598
3 *101:3 *101:2 3.20004
4 *101 *101:3 6.30407143
*END

*D_NET *102 0.00313596

*CONN
*P *102 I *C 0 23.24 *L 0
*I *668:D I *C 23.43 27.16 *L 0.00207 *D DFFHQX1

*CAP
1 *102 0.00121503
2 *668:D 0.000139826
3 *102:2 0.00124049
4 *102:3 0.000305149
5 *102:4 0.000235454

*RES
1 *102:4 *668:D 3.20001
2 *102:3 *102:4 1.09205
3 *102:2 *102:3 3.20001
4 *102 *102:2 6.48792839
*END

*D_NET *103 0.0037007

*CONN
*P *103 O *C 146.52 28.84 *L 0
*I *609:Y O *C 124.41 36.68 *L 0 *D NOR2BXL

*CAP
1 *103 0.000145721
2 *609:Y 8.23919e-05
3 *103:2 0.000119691
4 *103:3 0.000468891
5 *103:4 0.00060236
6 *103:5 0.000468891
7 *103:6 0.000520593
8 *103:7 0.000171181
9 *103:8 0.000600393
10 *103:9 0.000520593

*RES
1 *103:7 *103 0.788374
2 *103:6 *103:7 3.20001
3 *103:6 *103:9 2.18397
4 *103:8 *103:9 3.20001
5 *103:4 *103:8 3.35739136
6 *103:4 *103:5 0.189909
7 *103:3 *103:5 2.4621
8 *103:2 *103:3 0.189909
9 *609:Y *103:2 0.447645
*END

*D_NET *104 0.00341447

*CONN
*P *104 O *C 146.52 35.56 *L 0
*I *593:Y O *C 124.41 43.96 *L 0 *D NOR2BXL

*CAP
1 *104 7.77373e-05
2 *593:Y 0.00115166
3 *104:2 0.000374342
4 *104:3 0.00044402
5 *104:4 0.000103206
6 *104:5 0.00126352

*RES
1 *104:4 *104 0.420596
2 *104:3 *104:4 3.20001
3 *104:3 *104:2 1.87204
4 *104:5 *104:2 3.20001
5 *593:Y *104:5 6.71478271
*END

*D_NET *105 0.00374269

*CONN
*P *105 O *C 146.52 42.84 *L 0
*I *612:Y O *C 124.41 54.04 *L 0 *D NOR2BXL

*CAP
1 *105 0.000145728
2 *612:Y 0.00108481
3 *105:2 0.000610415
4 *105:3 0.000171179
5 *105:4 0.00112014
6 *105:5 0.000610415

*RES
1 *105:3 *105 0.788364
2 *105:2 *105:3 3.20003
3 *105:2 *105:5 2.65198
4 *105:4 *105:5 3.20003
5 *612:Y *105:4 6.26713037
*END

*D_NET *106 0.00411022

*CONN
*P *106 O *C 146.52 49.56 *L 0
*I *615:Y O *C 124.41 64.12 *L 0 *D NOR2BXL

*CAP
1 *106 0.00106325
2 *615:Y 3.98541e-05
3 *106:2 0.000326126
4 *106:3 0.000271254
5 *106:4 0.00038565
6 *106:5 0.00038565
7 *106:6 0.00020982
8 *106:7 0.000264708
9 *106:8 0.00108872
10 *106:9 7.51895e-05

*RES
1 *106:8 *106 5.75250006
2 *106:7 *106:8 3.19997
3 *106:7 *106:6 0.779979
4 *106:6 *106:5 0.183891
5 *106:5 *106:4 1.71602
6 *106:3 *106:4 0.183891
7 *106:3 *106:2 1.09202
8 *106:9 *106:2 3.19997
9 *615:Y *106:9 0.223829
*END

*D_NET *107 0.00269898

*CONN
*P *107 O *C 146.52 56.84 *L 0
*I *594:Y O *C 124.41 56.84 *L 0 *D NOR2BXL

*CAP
1 *107 0.000519536
2 *594:Y 8.23883e-05
3 *107:2 0.000119686
4 *107:3 0.00046889
5 *107:4 0.000187979
6 *107:5 0.00046889
7 *107:6 0.000186008
8 *107:7 0.000120601
9 *107:8 0.000545

*RES
1 *107:8 *107 2.81079
2 *107:7 *107:8 3.20000005
3 *107:6 *107:7 3.20000005
4 *107:4 *107:6 0.895312
5 *107:4 *107:5 0.189893
6 *107:3 *107:5 2.46211
7 *107:2 *107:3 0.189893
8 *594:Y *107:2 0.447656
*END

*D_NET *108 0.00320689

*CONN
*P *108 O *C 146.52 63.56 *L 0
*I *613:Y O *C 124.41 66.92 *L 0 *D NOR2BXL

*CAP
1 *108 7.77439e-05
2 *613:Y 8.23871e-05
3 *108:2 0.000119687
4 *108:3 0.000468894
5 *108:4 0.0006777
6 *108:5 0.000468894
7 *108:6 0.000266323
8 *108:7 0.000103204
9 *108:8 0.000675735
10 *108:9 0.000266323

*RES
1 *108:7 *108 0.420647
2 *108:6 *108:7 3.2
3 *108:6 *108:9 0.935991
4 *108:8 *108:9 3.2
5 *108:4 *108:8 3.80504346
6 *108:4 *108:5 0.189915
7 *108:3 *108:5 2.46211
8 *108:2 *108:3 0.189915
9 *613:Y *108:2 0.447645
*END

*D_NET *109 0.00402221

*CONN
*P *109 O *C 146.52 70.84 *L 0
*I *589:Y O *C 124.41 84.28 *L 0 *D NOR2BXL

*CAP
1 *109 0.000145725
2 *589:Y 0.00107631
3 *109:2 0.000442349
4 *109:3 0.000442349
5 *109:4 0.000180719
6 *109:5 0.000171186
7 *109:6 0.000125845
8 *109:7 0.000135615
9 *109:8 0.00111164
10 *109:9 0.000190489

*RES
1 *109:5 *109 0.788364
2 *109:4 *109:5 3.20003
3 *109:4 *109:6 0.468007
4 *109:2 *109:6 0.183894
5 *109:2 *109:3 2.34004
6 *109:3 *109:7 0.183894
7 *109:7 *109:9 0.468007
8 *109:8 *109:9 3.20003
9 *589:Y *109:8 6.26713037
*END

*D_NET *110 0.00237941

*CONN
*P *110 O *C 146.52 78.12 *L 0
*I *592:Y O *C 124.41 77 *L 0 *D NOR2BXL

*CAP
1 *110 0.00102928
2 *592:Y 6.97366e-05
3 *110:2 0.000105064
4 *110:3 0.000120595
5 *110:4 0.00105474

*RES
1 *110:4 *110 5.56864309
2 *110:3 *110:4 3.2
3 *110:2 *110:3 3.2
4 *592:Y *110:2 0.447626
*END

*D_NET *111 0.00394353

*CONN
*P *111 O *C 146.52 84.84 *L 0
*I *590:Y O *C 124.41 74.2 *L 0 *D NOR2BXL

*CAP
1 *111 7.77439e-05
2 *590:Y 7.12084e-05
3 *111:2 0.000662654
4 *111:3 0.000662654
5 *111:4 0.000452059
6 *111:5 0.000108509
7 *111:6 0.000452059
8 *111:7 0.0006777
9 *111:8 0.000675735
10 *111:9 0.000103204

*RES
1 *111:9 *111 0.420647
2 *111:2 *111:9 3.2
3 *111:3 *111:2 2.96398
4 *111:8 *111:3 3.2
5 *111:7 *111:8 3.80504346
6 *111:6 *111:7 0.189915
7 *111:4 *111:6 2.46211
8 *111:4 *111:5 0.189915
9 *590:Y *111:5 0.447645
*END

*D_NET *112 0.00337114

*CONN
*P *112 O *C 146.52 92.12 *L 0
*I *610:Y O *C 121.77 87.08 *L 0 *D NOR2BXL

*CAP
1 *112 7.77436e-05
2 *610:Y 0.0013111
3 *112:2 0.00134644
4 *112:3 0.000266329
5 *112:4 0.000266329
6 *112:5 0.000103199

*RES
1 *112:5 *112 0.420589
2 *112:4 *112:5 3.20005
3 *112:3 *112:4 0.936049
4 *112:2 *112:3 3.20005
5 *610:Y *112:2 7.61008692
*END

*D_NET *113 0.00365622

*CONN
*P *113 O *C 146.52 98.84 *L 0
*I *607:Y O *C 118.47 94.36 *L 0 *D NOR2BXL

*CAP
1 *113 0.00133513
2 *607:Y 6.3308e-05
3 *113:2 0.00027679
4 *113:3 0.000207104
5 *113:4 9.54673e-05
6 *113:5 0.000206633
7 *113:6 0.00147176

*RES
1 *113:6 *113 7.2233572
2 *113:5 *113:6 0.623954
3 *113:4 *113:5 0.367693
4 *113:2 *113:4 3.20001
5 *113:3 *113:2 0.623954
6 *607:Y *113:3 6.40002
*END

*D_NET *114 0.00318473

*CONN
*P *114 O *C 146.52 106.12 *L 0
*I *611:Y O *C 123.09 104.44 *L 0 *D NOR2BXL

*CAP
1 *114 7.77439e-05
2 *611:Y 8.23974e-05
3 *114:2 0.000533639
4 *114:3 0.000119698
5 *114:4 0.000533639
6 *114:5 0.0006777
7 *114:6 0.000675735
8 *114:7 0.000190482
9 *114:8 0.000190482
10 *114:9 0.000103204

*RES
1 *114:9 *114 0.420647
2 *114:8 *114:9 3.2
3 *114:7 *114:8 0.468025
4 *114:6 *114:7 3.2
5 *114:5 *114:6 3.80504346
6 *114:4 *114:5 0.189915
7 *114:2 *114:4 2.90975
8 *114:2 *114:3 0.189915
9 *611:Y *114:3 0.447645
*END

*D_NET *115 0.00481938

*CONN
*P *115 O *C 146.52 112.84 *L 0
*I *608:Y O *C 121.77 94.36 *L 0 *D NOR2BXL

*CAP
1 *115 0.00102928
2 *608:Y 0.000246527
3 *115:2 0.00110348469
4 *115:3 0.00110348469
5 *115:4 0.000281853
6 *115:5 0.00105474

*RES
1 *115:5 *115 5.56864309
2 *115:2 *115:5 3.2
3 *115:3 *115:2 5.14804
4 *115:4 *115:3 3.2
5 *608:Y *115:4 1.34296
*END

*D_NET *116 0.00498049

*CONN
*P *116 O *C 146.52 120.12 *L 0
*I *595:Y O *C 124.41 97.16 *L 0 *D NOR2BXL

*CAP
1 *116 0.000145722
2 *595:Y 0.0010787
3 *116:2 0.00123543
4 *116:3 0.00123543
5 *116:4 0.00111403
6 *116:5 0.000171171

*RES
1 *116:5 *116 0.788364
2 *116:2 *116:5 3.20003
3 *116:3 *116:2 5.92803
4 *116:4 *116:3 3.20003
5 *595:Y *116:4 6.26713037
*END

*D_NET *117 0.0060531

*CONN
*P *117 O *C 146.52 126.84 *L 0
*I *591:Y O *C 119.79 97.16 *L 0 *D NOR2BXL

*CAP
1 *117 0.00126716
2 *591:Y 7.97249e-05
3 *117:2 0.00128438
4 *117:3 0.00121469
5 *117:4 0.000117023
6 *117:5 0.000156531
7 *117:6 0.00129262
8 *117:2 *123:2 0.00011372
9 *117:3 *123:3 0.000113719998
10 *117:2 *118:2 0.00020677
11 *117:3 *118:3 0.000206770003

*RES
1 *117:6 *117 6.85564
2 *117:2 *117:6 3.19997
3 *117:3 *117:2 7.64400005
4 *117:5 *117:3 3.19997
5 *117:4 *117:5 0.189887
6 *591:Y *117:4 0.447657
*END

*D_NET *118 0.00627637

*CONN
*P *118 O *C 146.52 134.12 *L 0
*I *606:Y O *C 118.47 104.44 *L 0 *D NOR2BXL

*CAP
1 *118 0.00140311
2 *606:Y 0.000139834
3 *118:2 0.00144566
4 *118:3 0.00144566
5 *118:4 0.00142856
6 *118:2 *117:2 0.00020677
7 *118:3 *117:3 0.000206770003

*RES
1 *118:4 *118 7.59103
2 *118:2 *118:4 3.20004
3 *118:3 *118:2 8.26799965
4 *606:Y *118:3 3.20004
*END

*D_NET *119 0.00759555

*CONN
*I *429:A I *C 107.25 23.24 *L 0.00446 *D BUFX3
*P *119 O *C 146.52 0.28 *L 0
*I *533:Q O *C 120.45 26.04 *L 0 *D DFFHQX1

*CAP
1 *429:A 6.33084e-05
2 *119 0.00133511
3 *533:Q 0.000139844
4 *119:3 5.09143e-05
5 *119:4 0.000241629
6 *119:5 0.000534962
7 *119:6 0.000593116
8 *119:7 0.0014376
9 *119:8 0.00112231
10 *119:9 0.000204315
11 *119:10 0.00132202
12 *119:11 0.000299782
13 *119:12 0.000250645

*RES
1 *119:7 *119 7.2233572
2 *119:7 *119:9 0.467993
3 *119:8 *119:9 3.20001
4 *119:12 *533:Q 3.20001
5 *119:8 *119:10 5.92806
6 *119:10 *119:12 0.780025
7 *119:11 *119:10 3.20001
8 *119:6 *119:11 1.47088
9 *119:5 *119:6 1.10319
10 *119:4 *119:5 1.10319
11 *119:3 *119:4 6.40002
12 *429:A *119:3 6.40002
*END

*D_NET *120 0.0113536

*CONN
*I *426:A I *C 99.99 53.48 *L 0.00446 *D BUFX3
*P *120 O *C 146.52 7.56 *L 0
*I *519:Q O *C 108.57 36.12 *L 0 *D DFFHQX1

*CAP
1 *426:A 6.32956e-05
2 *120 0.00153901
3 *519:Q 0.000139849
4 *120:3 0.000294214
5 *120:4 0.000349259
6 *120:5 0.000242051
7 *120:6 0.000242051
8 *120:7 0.000506785
9 *120:8 0.000521413
10 *120:9 0.001833
11 *120:10 0.001833
12 *120:11 0.00104557
13 *120:12 0.000564235
14 *120:13 0.00049473
15 *120:14 0.000120606
16 *120:15 0.00156449

*RES
1 *120:15 *120 8.3265
2 *120:10 *120:15 3.20002
3 *120:10 *120:9 8.73600006
4 *120:13 *120:9 3.20002
5 *120:14 *519:Q 3.20002
6 *120:11 *120:13 2.20626
7 *120:11 *120:14 3.20002
8 *120:3 *426:A 6.40004
9 *120:12 *120:11 2.39008
10 *120:4 *120:3 0.936038
11 *120:8 *120:12 3.20002
12 *120:5 *120:4 0.367777
13 *120:8 *120:7 2.02804
14 *120:6 *120:5 1.092
15 *120:6 *120:7 0.367777
*END

*D_NET *121 0.00640094

*CONN
*I *430:A I *C 115.83 37.24 *L 0.00446 *D BUFX3
*P *121 O *C 146.52 14.84 *L 0
*I *506:Q O *C 120.45 34.44 *L 0 *D DFFHQX1

*CAP
1 *430:A 6.33065e-05
2 *121 0.000213677
3 *506:Q 0.0013457
4 *121:3 0.00102937
5 *121:4 0.00102937
6 *121:5 0.000279448
7 *121:6 0.000276409
8 *121:7 0.000279448
9 *121:8 5.09245e-05
10 *121:9 0.000276409
11 *121:10 0.00023914
12 *121:11 0.00131773

*RES
1 *121:10 *121 1.15602
2 *121:4 *121:10 3.20004
3 *121:4 *121:3 4.83596
4 *121:11 *121:3 3.20004
5 *506:Q *121:11 7.38626099
6 *121:8 *506:Q 6.39998
7 *121:9 *121:8 6.39998
8 *121:7 *430:A 6.39998
9 *121:6 *121:9 1.28698
10 *121:5 *121:7 0.780034
11 *121:5 *121:6 6.39998
*END

*D_NET *122 0.00904464

*CONN
*I *428:A I *C 106.59 53.48 *L 0.00446 *D BUFX3
*P *122 O *C 146.52 21.56 *L 0
*I *485:Q O *C 121.11 44.52 *L 0 *D DFFHQX1

*CAP
1 *428:A 6.32872e-05
2 *122 0.00102928
3 *485:Q 0.000139843
4 *122:3 0.000585041
5 *122:4 0.000639941
6 *122:5 0.00118467
7 *122:6 0.00118467
8 *122:7 0.000262151
9 *122:8 0.000262151
10 *122:9 0.000365316
11 *122:10 8.76368e-05
12 *122:11 0.00042441
13 *122:12 0.000415697
14 *122:13 0.000227064
15 *122:14 0.000212259
16 *122:15 0.000120591
17 *122:16 0.00105475
18 *122:17 0.000299787
19 *122:7 *145:5 6.024e-05
20 *122:8 *145:6 6.024e-05
21 *122:9 *145:5 2.527e-05
22 *122:10 *145:6 2.527e-05
23 *122:11 *145:5 0.00015753
24 *122:12 *145:6 0.000157530005

*RES
1 *122:16 *122 5.56865
2 *122:6 *122:16 3.2
3 *122:6 *122:5 5.61602
4 *122:17 *122:5 3.2
5 *122:15 *485:Q 3.2
6 *122:9 *122:17 1.4709
7 *122:9 *122:15 3.2
8 *122:10 *122:9 0.367676
9 *122:10 *122:7 0.155957
10 *122:14 *428:A 6.4000001
11 *122:8 *122:7 1.4709
12 *122:13 *122:14 0.77998
13 *122:11 *122:8 0.155957
14 *122:3 *122:13 0.183887
15 *122:12 *122:11 2.39014
16 *122:4 *122:3 2.496
17 *122:4 *122:12 3.2
*END

*D_NET *123 0.00534954

*CONN
*P *123 O *C 146.52 140.84 *L 0
*I *614:Y O *C 124.41 114.52 *L 0 *D INVXL

*CAP
1 *123 0.00113121
2 *614:Y 0.000139847
3 *123:2 0.00134718
4 *123:3 0.00134718
5 *123:4 0.00115668
6 *123:2 *117:2 0.00011372
7 *123:3 *117:3 0.000113719998

*RES
1 *123:4 *123 6.12026
2 *123:2 *123:4 3.20003
3 *123:3 *123:2 7.33199978
4 *614:Y *123:3 3.20003
*END

*D_NET *124 0.0132727

*CONN
*P *124 I *C 0 15.4 *L 0
*I *543:B1 I *C 96.69 32.76 *L 0.00419 *D OAI22X1
*I *534:A1 I *C 101.97 23.24 *L 0.00324 *D OAI21XL

*CAP
1 *124 0.00511228
2 *543:B1 7.45557e-05
3 *534:A1 0.000169024
4 *124:3 0.000204303
5 *124:4 0.000115793
6 *124:5 9.43118e-05
7 *124:6 7.84756e-05
8 *124:7 0.000411507
9 *124:8 9.23519e-05
10 *124:9 0.000363136
11 *124:10 0.000521577
12 *124:11 0.00513776
13 *124:12 0.000656576
14 *124:13 0.000240993

*RES
1 *124:4 *543:B1 0.379883
2 *124:4 *124:6 0.223882
3 *124:5 *124:6 0.18973
4 *124:5 *124:8 0.223882
5 *124:9 *124:8 6.39982
6 *124:7 *124:9 1.40401
7 *124:3 *534:A1 0.895106
8 *124:7 *124:13 0.367655
9 *124:12 *124:3 3.20012
10 *124:12 *124:13 0.780003
11 *124:10 *124:12 2.18401
12 *124:11 *124:10 3.20012
13 *124 *124:11 27.6315002
*END

*D_NET *125 0.00400188

*CONN
*I *638:A1 I *C 51.15 47.32 *L 0.00314 *D AOI21XL
*I *596:B0 I *C 56.43 48.44 *L 0.00406 *D AOI2BB1X1
*I *468:Q O *C 68.97 36.12 *L 0 *D DFFHQX1

*CAP
1 *638:A1 3.72967e-05
2 *596:B0 0.00013984
3 *468:Q 0.00013984
4 *125:3 0.000113426
5 *125:4 0.000113426
6 *125:5 0.00084605
7 *125:6 0.000193519
8 *125:7 7.26311e-05
9 *125:8 5.09166e-05
10 *125:9 0.000211554
11 *125:10 0.000220256
12 *125:11 0.000546657
13 *125:12 0.000561284
14 *125:13 0.000642487
15 *125:14 0.00011269

*RES
1 *125:14 *468:Q 3.2
2 *125:11 *125:14 0.367676
3 *125:3 *596:B0 3.2
4 *125:11 *125:12 2.34004
5 *125:4 *125:3 0.312012
6 *125:13 *125:12 3.2
7 *125:5 *125:4 3.2
8 *125:5 *125:13 3.12559
9 *125:6 *125:5 0.735449
10 *125:6 *125:10 0.155957
11 *125:9 *125:10 0.735449
12 *125:8 *125:9 6.4000001
13 *125:7 *125:8 6.4000001
14 *638:A1 *125:7 0.189941
*END

*D_NET *126 0.00232533

*CONN
*I *398:A I *C 59.73 53.48 *L 0.00446 *D BUFX3
*I *460:Q O *C 68.31 56.28 *L 0 *D DFFHQX1

*CAP
1 *398:A 8.34301e-05
2 *460:Q 6.32992e-05
3 *126:2 0.000118762
4 *126:3 5.09177e-05
5 *126:4 0.00033655
6 *126:5 0.000182462
7 *126:6 0.00033655
8 *126:7 0.000182462
9 *126:6 *322:10 0.00015794
10 *126:4 *322:11 0.00015794
11 *126:6 *322:12 6.262e-05
12 *126:4 *322:13 6.262e-05
13 *126:7 *322:7 4.41e-06
14 *126:5 *322:8 4.41e-06
15 *126:7 *322:8 4.41e-06
16 *126:5 *322:9 4.4100078e-06
17 *126:6 *173:3 0.00025607
18 *126:4 *173:4 0.000256070006

*RES
1 *126:7 *460:Q 6.4000001
2 *126:5 *126:7 0.77998
3 *126:6 *126:5 6.4000001
4 *126:4 *126:6 2.75781
5 *126:3 *126:4 6.4000001
6 *126:2 *398:A 0.447656
7 *126:2 *126:3 6.4000001
*END

*D_NET *127 0.00389045

*CONN
*I *624:A1 I *C 70.29 103.88 *L 0.00314 *D AOI21XL
*I *598:B0 I *C 76.23 102.76 *L 0.00406 *D AOI2BB1X1
*I *465:Q O *C 82.83 94.92 *L 0 *D DFFHQX1

*CAP
1 *624:A1 0.000139841
2 *598:B0 0.000139841
3 *465:Q 0.000139841
4 *127:3 0.000129923
5 *127:4 0.000129923
6 *127:5 0.000186028
7 *127:6 0.000116355
8 *127:7 0.000647247
9 *127:8 0.000647247
10 *127:9 0.00070572
11 *127:10 0.000334645
12 *127:11 0.000384482
13 *127:9 *243:5 9.469e-05
14 *127:10 *243:3 9.46899964e-05

*RES
1 *127:8 *465:Q 3.20000005
2 *127:6 *598:B0 3.20000005
3 *127:8 *127:7 2.652
4 *127:6 *127:5 0.468018
5 *127:11 *127:7 3.20000005
6 *127:9 *127:5 3.20000005
7 *127:9 *127:11 1.83857
8 *127:10 *127:9 1.65474
9 *127:3 *127:10 3.20000005
10 *127:4 *127:3 0.156006
11 *624:A1 *127:4 3.20000005
*END

*D_NET *128 0.00289839

*CONN
*I *394:A I *C 76.23 97.72 *L 0.00446 *D BUFX3
*I *459:Q O *C 81.51 86.52 *L 0 *D DFFHQX1

*CAP
1 *394:A 3.98634e-05
2 *459:Q 6.32969e-05
3 *128:2 9.02411e-05
4 *128:3 5.09219e-05
5 *128:4 0.000211821
6 *128:5 0.000129502
7 *128:6 0.000114453
8 *128:7 0.00038345
9 *128:8 0.00038345
10 *128:9 0.000211821
11 *128:9 *147:7 0.00010046
12 *128:4 *147:8 0.00010046
13 *128:9 *147:9 9.545e-05
14 *128:4 *147:10 9.54500047e-05
15 *128:9 *84:106 6.364e-05
16 *128:4 *84:109 6.364e-05
17 *128:9 *84:109 0.00025211
18 *128:4 *84:110 0.00025211
19 *128:8 *84:111 8.86e-06
20 *128:7 *84:112 8.86e-06
21 *128:8 *84:112 8.927e-05
22 *128:7 *84:113 8.92699818e-05

*RES
1 *128:7 *459:Q 6.4000001
2 *128:7 *128:8 2.02803
3 *128:9 *128:8 6.4000001
4 *128:6 *394:A 0.223828
5 *128:4 *128:9 1.83857
6 *128:5 *128:6 0.379785
7 *128:3 *128:4 6.4000001
8 *128:2 *128:5 0.223828
9 *128:2 *128:3 6.4000001
*END

*D_NET *129 0.00310799

*CONN
*I *632:A1 I *C 51.15 63.56 *L 0.00314 *D AOI21XL
*I *605:B0 I *C 56.43 62.44 *L 0.00406 *D AOI2BB1X1
*I *467:Q O *C 57.09 66.36 *L 0 *D DFFHQX1

*CAP
1 *632:A1 0.00013984
2 *605:B0 0.00013984
3 *467:Q 3.98624e-05
4 *129:3 0.000145999
5 *129:4 0.000189982
6 *129:5 0.000244861
7 *129:6 0.000270564
8 *129:7 0.00036008
9 *129:8 0.00036008
10 *129:9 0.000276064
11 *129:10 0.000345739
12 *129:11 0.000120598
13 *129:12 0.00015173
14 *129:13 0.000120598
15 *129:7 *342:4 6.849e-05
16 *129:8 *342:5 6.849e-05
17 *129:5 *342:4 3.259e-05
18 *129:6 *342:5 3.25899988e-05

*RES
1 *129:11 *605:B0 3.20000005
2 *467:Q *129:12 0.223828
3 *129:3 *129:11 3.20000005
4 *129:13 *129:12 3.20000005
5 *129:4 *129:3 0.551562
6 *129:7 *129:13 3.20000005
7 *129:4 *129:5 0.312012
8 *129:8 *129:7 1.83857
9 *129:6 *129:5 0.919287
10 *129:10 *129:8 3.20000005
11 *129:9 *129:6 3.20000005
12 *129:9 *129:10 1.09199
13 *632:A1 *129:9 3.20000005
*END

*D_NET *130 0.00205729

*CONN
*I *397:A I *C 64.35 63.56 *L 0.00446 *D BUFX3
*I *458:Q O *C 68.31 66.36 *L 0 *D DFFHQX1

*CAP
1 *397:A 0.000130172
2 *458:Q 6.33022e-05
3 *130:2 5.72517e-05
4 *130:3 7.21793e-05
5 *130:4 0.00032159
6 *130:5 0.000306662
7 *130:6 0.000165498
8 *130:7 0.000309199
9 *130:8 5.09215e-05
10 *130:9 0.000309199
11 *130:9 *171:10 0.00013566
12 *130:7 *171:11 0.000135660003

*RES
1 *130:8 *458:Q 6.4000001
2 *130:9 *130:8 6.4000001
3 *130:7 *130:9 1.4709
4 *130:2 *130:7 6.4000001
5 *130:3 *130:2 0.155957
6 *130:4 *130:3 0.183887
7 *130:5 *130:4 1.404
8 *130:6 *397:A 0.671484
9 *130:6 *130:5 6.4000001
*END

*D_NET *131 0.00255416

*CONN
*I *637:A1 I *C 53.79 87.64 *L 0.00314 *D AOI21XL
*I *601:B0 I *C 59.07 88.76 *L 0.00406 *D AOI2BB1X1
*I *464:Q O *C 59.07 94.92 *L 0 *D DFFHQX1

*CAP
1 *637:A1 3.73018e-05
2 *601:B0 0.000139842
3 *464:Q 0.000139842
4 *131:3 0.00032734
5 *131:4 0.000305712
6 *131:5 7.26307e-05
7 *131:6 5.09179e-05
8 *131:7 0.00012703
9 *131:8 0.000240454
10 *131:9 0.000294998
11 *131:10 0.000162424
12 *131:11 0.000181579
13 *131:12 0.000177348
14 *131:11 *343:4 2.216e-05
15 *131:9 *343:5 2.216e-05
16 *131:8 *343:4 0.00012621
17 *131:7 *343:5 0.000126210002

*RES
1 *131:4 *601:B0 3.2
2 *131:4 *131:3 0.936035
3 *131:3 *464:Q 3.2
4 *131:12 *131:3 0.183887
5 *131:10 *131:12 0.467969
6 *131:11 *131:10 6.4000001
7 *131:9 *131:11 0.551562
8 *131:8 *131:9 0.624023
9 *131:7 *131:8 0.735449
10 *131:6 *131:7 6.4000001
11 *131:5 *131:6 6.4000001
12 *637:A1 *131:5 0.189941
*END

*D_NET *132 0.00221609

*CONN
*I *395:A I *C 80.19 83.72 *L 0.00446 *D BUFX3
*I *457:Q O *C 70.95 84.84 *L 0 *D DFFHQX1

*CAP
1 *395:A 6.32971e-05
2 *457:Q 6.32971e-05
3 *132:2 0.00043711
4 *132:3 0.000393129
5 *132:4 7.74305e-05
6 *132:5 0.000121412
7 *132:6 5.09178e-05
8 *132:7 5.09178e-05
9 *132:2 *171:16 0.00028247
10 *132:3 *171:17 0.00028247
11 *132:4 *171:16 7.53e-06
12 *132:5 *171:17 7.53001733e-06
13 *132:2 *302:13 0.00015798
14 *132:3 *302:14 0.00015798
15 *132:2 *302:14 3.131e-05
16 *132:3 *302:15 3.13099991e-05

*RES
1 *132:7 *395:A 6.4000001
2 *132:4 *132:7 6.4000001
3 *132:5 *132:4 0.183887
4 *132:5 *132:2 0.312012
5 *132:3 *132:2 2.39014
6 *132:6 *132:3 6.4000001
7 *457:Q *132:6 6.4000001
*END

*D_NET *133 0.00072656

*CONN
*I *403:A I *C 111.87 63.56 *L 0.00446 *D BUFX3
*I *466:Q O *C 109.89 66.36 *L 0 *D DFFHQX1

*CAP
1 *403:A 4.16986e-05
2 *466:Q 0.000109821
3 *133:2 7.70303e-05
4 *133:3 0.000176429551
5 *133:4 0.00014515
6 *133:5 0.000176429551

*RES
1 *133:2 *403:A 0.223828
2 *133:3 *133:2 6.4000001
3 *133:3 *133:5 0.77998
4 *133:4 *133:5 6.4000001
5 *466:Q *133:4 0.447656
*END

*D_NET *134 0.00286749

*CONN
*I *402:Y O *C 115.83 63.56 *L 0 *D BUFX3
*I *634:A1 I *C 105.93 57.4 *L 0.00314 *D AOI21XL
*I *618:B0 I *C 103.29 58.52 *L 0.00406 *D AOI2BB1X1

*CAP
1 *402:Y 6.32998e-05
2 *634:A1 3.98572e-05
3 *618:B0 6.32998e-05
4 *134:3 0.000315536
5 *134:4 8.53223e-05
6 *134:5 0.00078866
7 *134:6 0.00078866
8 *134:7 0.000105985
9 *134:8 0.00028509
10 *134:9 7.51896e-05
11 *134:10 0.0001421
12 *134:11 5.72466e-05
13 *134:12 5.72466e-05

*RES
1 *134:12 *402:Y 6.4000001
2 *134:11 *134:12 0.155957
3 *134:9 *634:A1 0.223828
4 *134:5 *134:11 6.4000001
5 *134:10 *134:9 3.2
6 *134:6 *134:5 3.12559
7 *134:4 *134:10 0.183887
8 *134:8 *134:6 3.2
9 *134:4 *134:3 0.312012
10 *134:3 *134:8 0.936035
11 *134:7 *134:3 0.367676
12 *618:B0 *134:7 6.4000001
*END

*D_NET *135 0.00144598

*CONN
*I *399:A I *C 114.51 83.72 *L 0.00446 *D BUFX3
*I *461:Q O *C 114.51 94.92 *L 0 *D DFFHQX1

*CAP
1 *399:A 3.98605e-05
2 *461:Q 6.33e-05
3 *135:2 0.00029038
4 *135:3 0.00029038
5 *135:4 0.000137872
6 *135:5 0.000137872
7 *135:6 9.95804e-05
8 *135:7 0.00013984
9 *135:8 7.51882e-05
10 *135:9 6.57193e-05
11 *135:10 0.000105979

*RES
1 *135:8 *399:A 0.223828
2 *135:10 *461:Q 6.4000001
3 *135:9 *135:8 6.4000001
4 *135:7 *135:10 0.367676
5 *135:4 *135:9 0.183887
6 *135:6 *135:7 0.312012
7 *135:4 *135:5 0.467969
8 *135:3 *135:6 0.183887
9 *135:2 *135:5 0.183887
10 *135:2 *135:3 1.55996
*END

*D_NET *136 0.00175118

*CONN
*I *636:A1 I *C 108.57 103.88 *L 0.00314 *D AOI21XL
*I *617:B0 I *C 105.27 102.76 *L 0.00314 *D AOI2BB1XL
*I *455:Q O *C 101.31 105 *L 0 *D DFFHQX1

*CAP
1 *636:A1 7.97289e-05
2 *617:B0 6.32997e-05
3 *455:Q 0.00022182
4 *136:3 0.00025715
5 *136:4 0.000182361
6 *136:5 0.000142
7 *136:6 0.000207419
8 *136:7 0.000203758
9 *136:8 0.000154321
10 *136:9 0.00023932

*RES
1 *136:8 *636:A1 0.447656
2 *136:8 *136:9 0.379785
3 *136:6 *136:9 0.671484
4 *136:5 *617:B0 6.4000001
5 *136:7 *136:6 6.4000001
6 *136:5 *136:7 0.624023
7 *136:4 *136:7 0.367676
8 *136:3 *136:4 3.2
9 *455:Q *136:3 0.895312
*END

*D_NET *137 0.00159518

*CONN
*I *401:A I *C 112.53 53.48 *L 0.00446 *D BUFX3
*I *462:Q O *C 108.57 46.2 *L 0 *D DFFHQX1

*CAP
1 *401:A 6.33025e-05
2 *462:Q 0.000139843
3 *137:2 0.000126573
4 *137:3 0.000181629
5 *137:4 0.00026021
6 *137:5 0.00026021
7 *137:6 0.00012109
8 *137:7 0.00012109
9 *137:8 0.00011268
10 *137:4 *33:5 5.862e-05
11 *137:5 *33:6 5.862e-05
12 *137:4 *33:6 3.753e-05
13 *137:5 *33:7 3.753e-05
14 *137:6 *33:3 8.13e-06
15 *137:7 *33:4 8.12999778e-06

*RES
1 *137:6 *401:A 6.4000001
2 *137:7 *137:6 0.77998
3 *137:4 *137:7 6.4000001
4 *137:5 *137:4 1.4709
5 *137:2 *137:5 6.4000001
6 *137:8 *462:Q 3.2
7 *137:3 *137:2 0.467969
8 *137:3 *137:8 0.367676
*END

*D_NET *138 0.00269127

*CONN
*I *626:A1 I *C 105.27 77.56 *L 0.00314 *D AOI21XL
*I *616:B0 I *C 100.65 78.68 *L 0.00406 *D AOI2BB1X1
*I *454:Q O *C 109.89 74.76 *L 0 *D DFFHQX1

*CAP
1 *626:A1 0.00019063
2 *616:B0 0.000139839
3 *454:Q 0.000139839
4 *138:3 0.000182271
5 *138:4 8.69175e-05
6 *138:5 0.000253761
7 *138:6 0.000459551406
8 *138:7 0.000302497
9 *138:8 0.000355811
10 *138:9 0.000120598
11 *138:10 0.000459551406

*RES
1 *138:9 *454:Q 3.20000005
2 *138:10 *138:9 3.20000005
3 *138:6 *138:10 2.02241
4 *138:7 *626:A1 0.895312
5 *138:5 *138:6 3.20000005
6 *138:4 *616:B0 3.20000005
7 *138:8 *138:7 3.20000005
8 *138:5 *138:8 0.77998
9 *138:3 *138:4 0.312012
10 *138:3 *138:8 0.551562
*END

*D_NET *139 0.0011014

*CONN
*I *400:A I *C 101.97 93.8 *L 0.00446 *D BUFX3
*I *463:Q O *C 103.29 86.52 *L 0 *D DFFHQX1

*CAP
1 *400:A 3.98623e-05
2 *463:Q 0.00013984
3 *139:2 0.0001989
4 *139:3 0.000151753
5 *139:4 0.00025919
6 *139:5 0.00012234
7 *139:6 0.000189511

*RES
1 *139:4 *463:Q 3.2
2 *139:4 *139:6 0.77998
3 *139:3 *400:A 0.223828
4 *139:5 *139:6 6.4000001
5 *139:2 *139:3 0.569727
6 *139:2 *139:5 0.671484
*END

*D_NET *140 0.00225203

*CONN
*I *396:A I *C 84.15 83.72 *L 0.00446 *D BUFX3
*I *453:Q O *C 92.73 86.52 *L 0 *D DFFHQX1

*CAP
1 *396:A 6.33005e-05
2 *453:Q 0.000139841
3 *140:2 0.000163563
4 *140:3 0.000163563
5 *140:4 0.00012031
6 *140:5 7.63256e-05
7 *140:6 0.000358662
8 *140:7 0.00040264
9 *140:8 5.09206e-05
10 *140:9 8.6635e-05
11 *140:10 0.000120598
12 *140:11 8.6635e-05
13 *140:11 *171:20 1.702e-05
14 *140:9 *171:21 1.702e-05
15 *140:11 *171:18 1.263e-05
16 *140:9 *171:19 1.263e-05
17 *140:6 *171:20 0.00017234
18 *140:7 *171:21 0.00017234
19 *140:4 *171:20 7.53e-06
20 *140:5 *171:21 7.52998858e-06

*RES
1 *140:10 *453:Q 3.2
2 *140:11 *140:10 3.2
3 *140:9 *140:11 0.367676
4 *140:2 *140:9 6.4000001
5 *140:3 *140:2 0.467969
6 *140:6 *140:3 6.4000001
7 *140:7 *140:6 1.83857
8 *140:4 *140:7 0.312012
9 *140:5 *140:4 0.183887
10 *140:8 *140:5 6.4000001
11 *396:A *140:8 6.4000001
*END

*D_NET *141 0.00615757

*CONN
*I *676:S0 I *C 81.51 32.76 *L 0.00612 *D MXI2XL
*I *552:B1 I *C 76.89 22.68 *L 0.00444 *D OAI2BB2X1
*I *552:A0N I *C 74.91 23.24 *L 0.00186 *D OAI2BB2X1
*I *542:A1 I *C 91.41 33.32 *L 0.00324 *D OAI21XL
*I *530:B1 I *C 70.95 23.24 *L 0.00434 *D AOI22X1
*I *523:Q O *C 72.27 26.04 *L 0 *D DFFHQX1

*CAP
1 *676:S0 0.000139848
2 *552:B1 0.000139848
3 *552:A0N 0.000139848
4 *542:A1 0.000139848
5 *530:B1 0.000139848
6 *523:Q 0.000246601
7 *141:6 0.000311555
8 *141:7 0.000248476
9 *141:8 0.000195427
10 *141:9 0.0001415
11 *141:10 0.000167139
12 *141:11 0.0009752
13 *141:12 0.000430897
14 *141:13 0.00025428
15 *141:14 0.000239667
16 *141:15 0.000182362
17 *141:16 0.000246601
18 *141:17 0.000200709
19 *141:18 0.000346569
20 *141:19 0.000276883
21 *141:20 0.000253253
22 *141:21 0.00055771
23 *141:22 0.000183567

*RES
1 *141:22 *542:A1 3.20000005
2 *141:19 *676:S0 3.20000005
3 *141:20 *141:22 0.935986
4 *141:9 *552:B1 3.20000005
5 *141:18 *141:19 0.935986
6 *141:21 *141:20 3.20000005
7 *141:10 *141:9 0.312012
8 *141:11 *141:18 3.20000005
9 *141:11 *141:21 2.75786
10 *141:8 *141:10 0.551562
11 *141:12 *141:11 1.83857
12 *141:7 *552:A0N 3.20000005
13 *141:8 *141:7 0.468018
14 *141:17 *141:12 3.20000005
15 *141:7 *141:6 0.77998
16 *141:6 *141:17 0.935986
17 *141:16 *141:6 3.20000005
18 *523:Q *141:16 0.895312
19 *141:15 *523:Q 3.20000005
20 *141:14 *141:15 0.367725
21 *141:13 *141:14 0.77998
22 *530:B1 *141:13 3.20000005
*END

*D_NET *142 0.00765618

*CONN
*I *680:Q O *C 94.71 26.04 *L 0 *D DFFX1
*I *650:B1 I *C 84.15 37.24 *L 0.00434 *D AOI22X1
*I *545:A1 I *C 84.15 42.84 *L 0.00456 *D OAI22X1
*I *544:A1 I *C 95.37 42.84 *L 0.00456 *D OAI22X1
*I *531:B1 I *C 86.13 23.24 *L 0.00434 *D AOI22X1
*I *524:B1 I *C 90.09 37.8 *L 0.00444 *D OAI2BB2X1
*I *524:A0N I *C 88.11 37.24 *L 0.00186 *D OAI2BB2X1

*CAP
1 *680:Q 6.32954e-05
2 *650:B1 0.000139837
3 *545:A1 0.000139837
4 *544:A1 6.32954e-05
5 *531:B1 3.98586e-05
6 *524:B1 6.32954e-05
7 *524:A0N 0.000139837
8 *142:7 0.000487663
9 *142:8 0.00013284
10 *142:9 0.000127497
11 *142:10 0.000153334
12 *142:11 0.000477826
13 *142:12 0.000400874
14 *142:13 0.000327528
15 *142:14 5.72424e-05
16 *142:15 0.000272079
17 *142:16 0.000349096
18 *142:17 0.000253733
19 *142:18 0.00049152
20 *142:19 0.000612170313
21 *142:20 0.000365658
22 *142:21 7.51867e-05
23 *142:22 0.000142106
24 *142:23 0.000253733
25 *142:24 0.00022173
26 *142:25 5.09184e-05
27 *142:26 0.000240254
28 *142:27 0.000178621
29 *142:28 0.00016815
30 *142:29 0.000612170313
31 *142:30 9.84647e-05
32 *142:31 0.000259739
33 *142:32 0.000196761

*RES
1 *142:32 *544:A1 6.4000001
2 *142:31 *142:32 0.77998
3 *142:15 *142:31 3.2
4 *142:16 *142:15 1.10312
5 *142:25 *524:B1 6.4000001
6 *142:27 *142:16 0.467969
7 *142:26 *142:25 6.4000001
8 *142:26 *142:27 0.367676
9 *142:24 *142:26 0.551562
10 *142:14 *142:24 3.2
11 *142:30 *680:Q 6.4000001
12 *142:9 *524:A0N 3.2
13 *142:9 *142:14 0.155957
14 *142:21 *531:B1 0.223828
15 *142:28 *142:30 0.312012
16 *142:10 *142:9 0.312012
17 *142:22 *142:21 3.2
18 *142:29 *142:28 3.2
19 *142:23 *142:10 3.2
20 *142:18 *545:A1 3.2
21 *142:8 *142:22 0.183887
22 *142:19 *142:29 2.75781
23 *142:17 *142:23 1.10312
24 *142:11 *650:B1 3.2
25 *142:11 *142:18 1.404
26 *142:8 *142:7 0.467969
27 *142:7 *142:19 3.2
28 *142:12 *142:17 3.2
29 *142:12 *142:11 0.312012
30 *142:7 *142:20 1.55996
31 *142:13 *142:12 1.55996
32 *142:13 *142:20 0.183887
*END

*D_NET *143 0.0104153

*CONN
*I *678:Q O *C 77.55 44.52 *L 0 *D DFFX1
*I *650:A1 I *C 86.13 37.8 *L 0.00472 *D AOI22X1
*I *555:B1 I *C 90.09 47.32 *L 0.00434 *D AOI22X1
*I *554:B1 I *C 74.91 53.48 *L 0.00434 *D AOI22X1
*I *553:B1 I *C 91.41 53.48 *L 0.00434 *D AOI22X1
*I *551:B1 I *C 78.87 37.8 *L 0.00444 *D OAI2BB2X1
*I *551:A0N I *C 76.89 37.24 *L 0.00186 *D OAI2BB2X1
*I *550:B1 I *C 78.21 53.48 *L 0.00434 *D AOI22X1
*I *532:B1 I *C 70.95 37.24 *L 0.00434 *D AOI22X1
*I *518:B1 I *C 82.83 47.88 *L 0.00444 *D OAI2BB2X1
*I *518:A0N I *C 80.85 47.32 *L 0.00186 *D OAI2BB2X1

*CAP
1 *678:Q 6.32999e-05
2 *650:A1 6.32999e-05
3 *555:B1 3.98616e-05
4 *554:B1 0.000139839
5 *553:B1 3.98616e-05
6 *551:B1 0.000139839
7 *551:A0N 0.000139839
8 *550:B1 6.32999e-05
9 *532:B1 0.000139839
10 *518:B1 6.32999e-05
11 *518:A0N 8.15992e-05
12 *143:11 0.00039268
13 *143:12 0.00047103
14 *143:13 0.000173491
15 *143:14 6.89493e-05
16 *143:15 0.000207408
17 *143:16 0.000166792
18 *143:17 0.000153459
19 *143:18 0.000193724
20 *143:19 0.000184351
21 *143:20 0.000158713
22 *143:21 0.000116933
23 *143:22 5.78015e-05
24 *143:23 0.000169365
25 *143:24 6.89493e-05
26 *143:25 6.89493e-05
27 *143:26 0.00022353
28 *143:27 0.000463203
29 *143:28 0.00033145
30 *143:29 0.000357015
31 *143:30 0.00029603
32 *143:31 0.00026792
33 *143:32 0.000237402
34 *143:33 0.000380317
35 *143:34 0.000420452
36 *143:35 0.00023066
37 *143:36 0.000169681
38 *143:37 0.000122302
39 *143:38 0.000237488
40 *143:39 0.000222869
41 *143:40 0.000120598
42 *143:41 0.000265167
43 *143:42 0.000158297
44 *143:43 6.06837e-05
45 *143:44 5.39778e-05
46 *143:45 0.000195484
47 *143:46 0.000107603
48 *143:47 7.22411e-05
49 *143:48 7.22411e-05
50 *143:49 5.09159e-05
51 *143:50 7.5188e-05
52 *143:51 0.000164852
53 *143:52 0.000180815
54 *143:53 0.000154099
55 *143:54 7.5188e-05
56 *143:35 *266:9 0.00015511
57 *143:36 *266:5 0.00015511
58 *143:37 *266:9 3.557e-05
59 *143:31 *266:5 3.557e-05
60 *143:31 *266:6 2.003e-05
61 *143:32 *266:3 2.00300021e-05
62 *143:35 *258:5 0.00015481
63 *143:36 *258:3 0.000154810003
64 *143:26 *265:6 6.965e-05
65 *143:27 *265:4 6.965e-05
66 *143:27 *265:6 7.543e-05
67 *143:28 *265:4 7.54300035e-05

*RES
1 *143:54 *553:B1 0.223828
2 *143:38 *143:54 3.2
3 *143:50 *555:B1 0.223828
4 *143:39 *143:38 0.936035
5 *143:51 *143:50 3.2
6 *143:53 *143:39 0.367676
7 *143:51 *143:52 0.312012
8 *143:52 *143:53 0.467969
9 *143:35 *143:52 3.2
10 *143:36 *143:35 1.28701
11 *143:43 *550:B1 6.4000001
12 *143:49 *518:B1 6.4000001
13 *143:37 *143:36 0.155957
14 *143:43 *143:44 0.155957
15 *143:31 *143:49 6.4000001
16 *143:31 *143:37 0.551562
17 *143:45 *143:44 6.4000001
18 *143:32 *143:31 0.919238
19 *143:41 *143:45 0.919238
20 *143:21 *518:A0N 0.447656
21 *143:22 *143:32 3.2
22 *143:14 *143:41 3.2
23 *143:23 *143:21 3.2
24 *143:23 *143:22 0.155957
25 *143:25 *650:A1 6.4000001
26 *143:15 *554:B1 3.2
27 *143:15 *143:14 0.155957
28 *143:46 *143:23 0.312012
29 *143:25 *143:24 0.155957
30 *143:16 *143:15 0.77998
31 *143:17 *143:46 0.183887
32 *143:29 *143:24 3.2
33 *143:16 *143:33 0.183887
34 *143:18 *143:17 0.467969
35 *143:30 *143:29 1.28701
36 *143:20 *551:B1 3.2
37 *143:34 *143:33 1.71602
38 *143:42 *143:18 0.367676
39 *143:42 *678:Q 6.4000001
40 *143:48 *143:30 0.155957
41 *143:20 *143:19 0.312012
42 *143:34 *143:11 0.367676
43 *143:11 *143:42 0.183887
44 *143:47 *143:48 0.183887
45 *143:12 *143:19 0.551562
46 *143:12 *143:11 1.55996
47 *143:26 *143:47 0.155957
48 *143:13 *551:A0N 3.2
49 *143:13 *143:12 0.467969
50 *143:27 *143:26 1.10312
51 *143:27 *143:13 3.2
52 *143:28 *143:27 1.65469
53 *143:40 *143:28 3.2
54 *532:B1 *143:40 3.2
*END

*D_NET *144 0.0124323

*CONN
*I *677:Q O *C 66.99 34.44 *L 0 *D DFFX1
*I *676:A I *C 84.81 33.32 *L 0.0026 *D MXI2XL
*I *576:B I *C 78.21 33.32 *L 0.00375 *D NAND2X1
*I *561:C I *C 81.51 27.72 *L 0.00425 *D NOR3X1
*I *558:A1 I *C 74.91 33.32 *L 0.00324 *D OAI21XL
*I *529:B1 I *C 70.95 33.32 *L 0.00434 *D AOI22X1
*I *495:B1 I *C 79.53 63.56 *L 0.00434 *D AOI22X1
*I *494:B1 I *C 84.15 63.56 *L 0.00434 *D AOI22X1
*I *492:B I *C 80.85 57.4 *L 0.00389 *D MXI2X1

*CAP
1 *677:Q 6.33008e-05
2 *676:A 3.72909e-05
3 *576:B 0.000139835
4 *561:C 3.9826e-05
5 *558:A1 0.000139835
6 *529:B1 0.000139835
7 *495:B1 0.000139835
8 *494:B1 3.98513e-05
9 *492:B 0.000139835
10 *144:9 0.000470028
11 *144:10 0.000455679
12 *144:11 0.000208535
13 *144:12 0.000271532
14 *144:13 0.000220729
15 *144:14 0.000220729
16 *144:15 0.000116664
17 *144:16 0.000186353
18 *144:17 0.000585931
19 *144:18 0.000585931
20 *144:19 0.00034553
21 *144:20 0.000425867
22 *144:21 0.00026309
23 *144:22 0.000187545
24 *144:23 0.000126576
25 *144:24 0.000499815
26 *144:25 0.000251859
27 *144:26 0.000275055
28 *144:27 0.000275055
29 *144:28 0.000104166
30 *144:29 0.000129618
31 *144:30 0.000115244
32 *144:31 0.000482602
33 *144:32 0.000301547
34 *144:33 0.000264129
35 *144:34 0.00166136
36 *144:35 0.00160648
37 *144:36 0.000131114
38 *144:37 0.000185998
39 *144:38 8.87022e-05
40 *144:39 0.000158391
41 *144:40 7.51649e-05
42 *144:41 7.51903e-05
43 *144:42 0.000120593
44 *144:43 7.99815e-05

*RES
1 *144:29 *492:B 3.20003
2 *144:30 *144:29 0.155957
3 *144:10 *144:30 0.367741
4 *144:41 *494:B1 0.223867
5 *144:9 *495:B1 3.20003
6 *144:10 *144:9 1.87205
7 *144:42 *144:41 3.20003
8 *144:32 *144:9 3.20003
9 *144:33 *144:42 3.20003
10 *676:A *144:43 0.189968
11 *144:32 *144:31 0.551556
12 *144:31 *144:33 0.551556
13 *144:16 *144:43 3.20003
14 *144:34 *144:31 3.20003
15 *144:16 *144:15 0.312026
16 *144:40 *561:C 0.223867
17 *144:35 *144:34 7.33199978
18 *144:22 *144:15 3.20003
19 *144:18 *144:40 3.20003
20 *144:36 *144:35 0.183815
21 *144:23 *144:22 0.551556
22 *144:12 *576:B 3.20003
23 *144:18 *144:17 2.18396
24 *144:37 *144:36 0.467983
25 *144:23 *144:28 0.155957
26 *144:14 *558:A1 3.20003
27 *144:12 *144:11 0.624052
28 *144:21 *144:17 3.20003
29 *144:21 *144:37 3.20003
30 *144:21 *144:28 0.551556
31 *144:27 *529:B1 3.20003
32 *144:14 *144:13 0.624052
33 *144:19 *144:11 6.39995
34 *144:19 *144:21 0.735482
35 *144:27 *144:26 0.624052
36 *144:20 *144:13 3.20003
37 *144:20 *144:19 0.919297
38 *144:24 *144:26 3.20003
39 *144:24 *144:20 1.10311
40 *144:25 *144:24 1.10311
41 *144:39 *144:25 3.20003
42 *144:38 *144:39 0.312026
43 *677:Q *144:38 6.39995
*END

*D_NET *145 0.0102542

*CONN
*I *609:AN I *C 123.09 37.24 *L 0.0022 *D NOR2BXL
*I *596:A0N I *C 55.11 47.88 *L 0.00236 *D AOI2BB1X1
*I *581:Q O *C 56.43 44.52 *L 0 *D DFFTRX1

*CAP
1 *609:AN 7.97092e-05
2 *596:A0N 0.000139845
3 *581:Q 6.32909e-05
4 *145:3 0.00157113
5 *145:4 0.00135399
6 *145:5 0.00189261
7 *145:6 0.00210975
8 *145:7 0.000270226
9 *145:8 0.000270226
10 *145:9 0.000154461
11 *145:10 0.000501337
12 *145:11 0.000456654
13 *145:12 0.000105978
14 *145:13 0.000115057
15 *145:5 *122:7 6.024e-05
16 *145:6 *122:8 6.024e-05
17 *145:5 *122:9 2.527e-05
18 *145:6 *122:10 2.527e-05
19 *145:5 *122:11 0.00015753
20 *145:6 *122:12 0.000157530005
21 *145:5 *296:12 0.00018974
22 *145:6 *296:13 0.00018974
23 *145:5 *296:13 0.0001522
24 *145:6 *296:14 0.000152199991

*RES
1 *145:13 *609:AN 0.447579
2 *145:8 *145:13 3.20005
3 *145:8 *145:7 0.936062
4 *145:5 *145:7 3.20005
5 *145:6 *145:5 11.0314283
6 *145:3 *145:6 1.10321
7 *145:11 *596:A0N 3.20005
8 *145:12 *581:Q 6.39993
9 *145:4 *145:3 6.43494
10 *145:10 *145:11 1.71592
11 *145:10 *145:12 0.367793
12 *145:9 *145:4 3.20005
13 *145:9 *145:10 0.312077
*END

*D_NET *146 0.00723713

*CONN
*I *597:A0N I *C 65.67 52.92 *L 0.00236 *D AOI2BB1X1
*I *593:AN I *C 123.09 43.4 *L 0.0022 *D NOR2BXL
*I *575:Q O *C 68.97 46.2 *L 0 *D DFFTRX1

*CAP
1 *597:A0N 0.000139854
2 *593:AN 0.000139854
3 *575:Q 0.000139854
4 *146:3 0.000248689
5 *146:4 0.000424545
6 *146:5 6.14672e-05
7 *146:6 6.14672e-05
8 *146:7 0.000341231
9 *146:8 0.00015871
10 *146:9 0.000120599
11 *146:10 0.00186666
12 *146:11 0.000120599
13 *146:12 0.000120599
14 *146:13 0.000256151
15 *146:14 0.00032585
16 *146:15 0.00186666
17 *146:15 *149:11 0.00042216
18 *146:10 *149:12 0.000422160004

*RES
1 *146:11 *593:AN 3.2
2 *146:12 *146:11 3.2
3 *146:13 *146:12 3.2
4 *146:13 *146:14 1.248
5 *146:15 *146:14 3.2
6 *146:10 *146:15 14.8924284
7 *146:9 *146:10 3.2
8 *146:5 *146:9 3.2
9 *146:6 *146:5 0.183838
10 *146:8 *146:6 3.2
11 *146:3 *597:A0N 3.2
12 *146:8 *146:7 0.312001
13 *146:7 *575:Q 3.2
14 *146:4 *146:3 1.09189
15 *146:4 *146:7 0.919187
*END

*D_NET *147 0.0133636

*CONN
*I *612:AN I *C 123.09 53.48 *L 0.0022 *D NOR2BXL
*I *598:A0N I *C 74.91 103.32 *L 0.00236 *D AOI2BB1X1
*I *574:Q O *C 72.93 96.6 *L 0 *D DFFTRX1

*CAP
1 *612:AN 0.000358799
2 *598:A0N 0.000139838
3 *574:Q 8.2397e-05
4 *147:3 0.000771248
5 *147:4 0.000771248
6 *147:5 0.00158035
7 *147:6 0.00157228
8 *147:7 0.000229708
9 *147:8 0.000229708
10 *147:9 0.000101407
11 *147:10 0.000109535
12 *147:11 0.000213125
13 *147:12 0.000288894
14 *147:13 0.000133728
15 *147:14 0.000188468
16 *147:15 0.00010408
17 *147:16 0.00178745
18 *147:17 0.00171776
19 *147:18 0.000119709
20 *147:19 7.99968e-05
21 *147:20 0.000265629
22 *147:21 0.000120582
23 *147:22 7.24144e-05
24 *147:23 0.000265629
25 *147:24 0.00039412
26 *147:25 7.24144e-05
27 *147:5 *232:2 0.00012697
28 *147:6 *232:3 0.000126969999
29 *147:5 *84:107 0.00012099
30 *147:6 *84:108 0.00012099
31 *147:5 *84:103 0.00011977
32 *147:6 *84:104 0.00011977
33 *147:5 *84:105 3.79e-05
34 *147:6 *84:106 3.79e-05
35 *147:5 *84:106 0.00019499
36 *147:6 *84:109 0.000194990001
37 *147:7 *128:9 0.00010046
38 *147:8 *128:4 0.00010046
39 *147:9 *128:9 9.545e-05
40 *147:10 *128:4 9.54500047e-05

*RES
1 *147:24 *612:AN 2.01439
2 *147:25 *147:24 6.40003
3 *147:22 *147:25 0.183812
4 *147:23 *147:22 6.40003
5 *147:20 *147:23 0.735384
6 *147:4 *147:20 6.40003
7 *147:4 *147:3 3.43197
8 *147:21 *147:3 3.19995
9 *147:17 *147:21 3.19995
10 *147:17 *147:16 8.736
11 *147:5 *147:16 3.19995
12 *147:6 *147:5 8.82514286
13 *147:6 *147:7 0.0779687
14 *147:8 *147:7 1.28696
15 *147:9 *147:8 0.0779687
16 *147:10 *147:9 0.551571
17 *147:14 *147:10 3.19995
18 *147:14 *147:13 0.467947
19 *147:15 *147:13 0.183812
20 *147:11 *598:A0N 3.19995
21 *147:15 *147:12 0.31201
22 *147:12 *147:11 0.936029
23 *147:19 *147:12 3.19995
24 *147:18 *147:19 0.189872
25 *574:Q *147:18 0.447613
*END

*D_NET *148 0.0118512

*CONN
*I *615:AN I *C 123.09 63.56 *L 0.0022 *D NOR2BXL
*I *599:A0N I *C 67.65 88.2 *L 0.00236 *D AOI2BB1X1
*I *583:Q O *C 69.63 94.92 *L 0 *D DFFTRX1

*CAP
1 *615:AN 0.000159454
2 *599:A0N 6.33009e-05
3 *583:Q 0.000139848
4 *148:3 0.000251976
5 *148:4 0.000251976
6 *148:5 0.000157459
7 *148:6 0.000164159
8 *148:7 0.000571174
9 *148:8 0.000516295
10 *148:9 0.000280583
11 *148:10 0.000280583
12 *148:11 0.000203286
13 *148:12 0.000183169
14 *148:13 9.18059e-05
15 *148:14 9.71421e-05
16 *148:15 0.000314271
17 *148:16 0.000314271
18 *148:17 0.000200848
19 *148:18 0.000200848
20 *148:19 0.0008209
21 *148:20 0.000821462
22 *148:21 0.000164483
23 *148:22 0.00111727
24 *148:23 0.00104512
25 *148:24 0.000176247
26 *148:25 0.000167535
27 *148:26 0.000194796
28 *148:27 5.09237e-05
29 *148:23 *175:11 5.938e-05
30 *148:22 *175:12 5.938e-05
31 *148:23 *175:13 7.116e-05
32 *148:22 *175:14 7.116e-05
33 *148:23 *175:15 3.557e-05
34 *148:22 *175:16 3.557e-05
35 *148:23 *175:16 0.00018423
36 *148:22 *175:17 0.00018423
37 *148:23 *175:9 0.00010032
38 *148:22 *175:10 0.00010032
39 *148:22 *175:9 3.517e-05
40 *148:21 *175:10 3.51700039e-05
41 *148:19 *83:163 5.938e-05
42 *148:20 *83:164 5.938e-05
43 *148:23 *83:163 0.00012559
44 *148:22 *83:164 0.00012559
45 *148:23 *83:164 2.377e-05
46 *148:22 *83:152 2.377e-05
47 *148:23 *83:152 0.00017159
48 *148:22 *83:153 0.00017159
49 *148:23 *83:153 0.00020749
50 *148:22 *83:156 0.00020749
51 *148:23 *83:156 4.979e-05
52 *148:22 *83:157 4.979e-05
53 *148:22 *83:156 3.245e-05
54 *148:21 *83:157 3.24500094e-05
55 *148:9 *154:16 7.031e-05
56 *148:10 *154:15 7.031e-05
57 *148:9 *154:14 1.174e-05
58 *148:10 *154:13 1.174e-05
59 *148:7 *154:19 6.051e-05
60 *148:8 *154:17 6.051e-05
61 *148:11 *154:14 6.13e-05
62 *148:12 *154:13 6.13e-05
63 *148:13 *154:16 1.971e-05
64 *148:14 *154:15 1.971e-05
65 *148:15 *154:19 1.95e-05
66 *148:16 *154:17 1.95e-05
67 *148:15 *154:14 2.607e-05
68 *148:16 *154:13 2.60699971e-05

*RES
1 *148:26 *615:AN 0.895299
2 *148:27 *148:26 6.40001
3 *148:17 *148:27 6.40001
4 *148:18 *148:17 0.73549
5 *148:14 *148:18 6.40001
6 *148:14 *148:13 0.467955
7 *148:13 *148:10 0.0919033
8 *148:10 *148:9 1.55998
9 *148:12 *148:9 0.0919033
10 *148:12 *148:11 1.09203
11 *148:16 *148:11 0.183807
12 *148:16 *148:15 1.55998
13 *148:15 *148:8 0.183807
14 *148:8 *148:7 2.65201
15 *148:25 *148:7 3.2
16 *148:24 *148:25 0.73549
17 *148:24 *148:19 0.155985
18 *148:20 *148:19 4.0448
19 *148:3 *583:Q 3.2
20 *148:23 *148:20 0.155985
21 *148:4 *148:3 0.623941
22 *148:22 *148:23 8.6412859
23 *148:22 *148:4 3.2
24 *148:21 *148:22 0.551552
25 *148:5 *148:21 3.2
26 *148:6 *148:5 0.467955
27 *599:A0N *148:6 6.40001
*END

*D_NET *149 0.00973796

*CONN
*I *605:A0N I *C 55.11 63 *L 0.00236 *D AOI2BB1X1
*I *594:AN I *C 123.09 57.4 *L 0.0022 *D NOR2BXL
*I *586:Q O *C 55.77 56.28 *L 0 *D DFFTRX1

*CAP
1 *605:A0N 0.000139841
2 *594:AN 0.000139841
3 *586:Q 0.000139841
4 *149:3 0.000188846
5 *149:4 0.000198094
6 *149:5 0.000210139
7 *149:6 0.000225081
8 *149:7 0.000306405
9 *149:8 0.000306405
10 *149:9 0.000139808
11 *149:10 0.000194704
12 *149:11 0.00215685
13 *149:12 0.00208718
14 *149:13 0.00014221
15 *149:14 0.00019556
16 *149:15 0.000204841
17 *149:16 0.000130296
18 *149:17 0.00018516
19 *149:18 7.24051e-05
20 *149:19 0.000395003
21 *149:20 0.00012062
22 *149:21 0.00012062
23 *149:22 0.000380193
24 *149:11 *173:12 0.00025682
25 *149:12 *173:13 0.00025682
26 *149:11 *146:15 0.00042216
27 *149:12 *146:10 0.000422160004

*RES
1 *149:20 *594:AN 3.19993
2 *149:21 *149:20 3.19993
3 *149:22 *149:21 3.19993
4 *149:19 *149:22 1.872
5 *149:18 *149:19 0.183767
6 *149:11 *149:18 3.19993
7 *149:12 *149:11 16.9148579
8 *149:10 *149:12 3.19993
9 *149:10 *149:9 0.467936
10 *149:9 *149:8 0.183767
11 *149:8 *149:7 1.24791
12 *149:16 *149:7 0.183767
13 *149:16 *149:17 0.467936
14 *149:3 *149:17 3.19993
15 *149:4 *149:3 0.919353
16 *149:4 *149:15 0.155893
17 *149:14 *149:15 0.735328
18 *149:5 *605:A0N 3.19993
19 *149:13 *149:14 3.19993
20 *149:13 *586:Q 3.19993
21 *149:6 *149:5 1.09202
22 *149:6 *149:13 0.183767
*END

*D_NET *150 0.00780967

*CONN
*I *613:AN I *C 123.09 67.48 *L 0.0022 *D NOR2BXL
*I *600:A0N I *C 64.35 73.08 *L 0.00236 *D AOI2BB1X1
*I *579:Q O *C 57.09 74.76 *L 0 *D DFFTRX1

*CAP
1 *613:AN 3.98503e-05
2 *600:A0N 0.000139851
3 *579:Q 0.000139851
4 *150:3 0.000112435
5 *150:4 0.000182135
6 *150:5 0.000452735
7 *150:6 0.000452735
8 *150:7 0.000358877
9 *150:8 0.000358877
10 *150:9 0.0001206
11 *150:10 0.000182847
12 *150:11 0.000182847
13 *150:12 0.0024545
14 *150:13 7.52062e-05
15 *150:14 5.09364e-05
16 *150:15 5.09364e-05
17 *150:16 0.0024545

*RES
1 *150:13 *613:AN 0.223919
2 *150:14 *150:13 6.40008
3 *150:15 *150:14 6.40008
4 *150:8 *150:15 6.40008
5 *150:8 *150:7 1.71605
6 *150:16 *150:7 6.40008
7 *150:12 *150:16 16.1794281
8 *150:3 *600:A0N 3.20004
9 *150:11 *150:12 3.20004
10 *150:4 *150:3 0.312054
11 *150:10 *150:11 0.468082
12 *150:5 *150:4 3.20004
13 *150:5 *150:10 3.20004
14 *150:6 *150:5 2.02243
15 *150:9 *150:6 3.20004
16 *579:Q *150:9 3.20004
*END

*D_NET *151 0.00731725

*CONN
*I *601:A0N I *C 57.75 88.2 *L 0.00236 *D AOI2BB1X1
*I *589:AN I *C 123.09 83.72 *L 0.0022 *D NOR2BXL
*I *573:Q O *C 57.75 84.84 *L 0 *D DFFTRX1

*CAP
1 *601:A0N 0.000139849
2 *589:AN 0.000410346
3 *573:Q 0.000139849
4 *151:3 0.000371101
5 *151:4 0.000356179
6 *151:5 0.000157079
7 *151:6 8.74222e-05
8 *151:7 7.2534e-05
9 *151:8 0.000120611
10 *151:9 0.00218388
11 *151:10 0.00219258
12 *151:11 0.000248047
13 *151:12 0.000445676
14 *151:13 5.0921e-05
15 *151:14 5.0921e-05
16 *151:15 5.0921e-05
17 *151:16 0.000239349

*RES
1 *151:12 *589:AN 2.23829
2 *151:13 *151:12 6.39999
3 *151:14 *151:13 6.39999
4 *151:15 *151:14 6.39999
5 *151:16 *151:15 6.39999
6 *151:11 *151:16 1.47095
7 *151:10 *151:11 0.155982
8 *151:9 *151:10 14.7085714
9 *151:5 *151:9 3.19999
10 *151:6 *151:5 0.311965
11 *151:8 *151:6 3.19999
12 *151:4 *151:8 3.19999
13 *151:4 *573:Q 3.19999
14 *151:4 *151:3 1.71603
15 *151:7 *151:3 0.183812
16 *601:A0N *151:7 3.19999
*END

*D_NET *152 0.00789894

*CONN
*I *602:A0N I *C 64.35 78.12 *L 0.00236 *D AOI2BB1X1
*I *592:AN I *C 123.09 77.56 *L 0.0022 *D NOR2BXL
*I *582:Q O *C 57.09 76.44 *L 0 *D DFFTRX1

*CAP
1 *602:A0N 0.000139848
2 *592:AN 7.97389e-05
3 *582:Q 0.000125783
4 *152:3 0.000161117
5 *152:4 0.000225152
6 *152:5 0.000155457
7 *152:6 0.000223227
8 *152:7 0.000213965
9 *152:8 0.00013981
10 *152:9 0.000149072
11 *152:10 0.000214289
12 *152:11 0.00124897
13 *152:12 0.00112847
14 *152:13 0.000120599
15 *152:14 0.000152827
16 *152:15 0.000152827
17 *152:16 0.000932073
18 *152:17 0.000115054
19 *152:18 0.000120599
20 *152:19 0.000120599
21 *152:20 0.000120599
22 *152:21 0.000889211
23 *152:10 *174:15 4.17e-05
24 *152:11 *174:12 4.17e-05
25 *152:11 *174:11 0.00044313
26 *152:12 *174:10 0.000443129994

*RES
1 *152:17 *592:AN 0.447608
2 *152:18 *152:17 3.20002
3 *152:19 *152:18 3.20002
4 *152:20 *152:19 3.20002
5 *152:21 *152:20 3.20002
6 *152:16 *152:21 5.69953
7 *152:16 *152:10 0.311965
8 *152:11 *152:10 1.1031
9 *152:12 *152:11 9.19285679
10 *152:5 *602:A0N 3.20002
11 *152:14 *152:12 3.20002
12 *152:5 *152:4 0.467947
13 *152:14 *152:15 0.311965
14 *152:8 *152:4 3.20002
15 *152:8 *152:15 3.20002
16 *152:9 *152:8 0.735445
17 *152:6 *152:9 0.155982
18 *152:7 *152:6 0.551549
19 *152:13 *152:7 3.20002
20 *152:3 *152:13 3.20002
21 *582:Q *152:3 0.671481
*END

*D_NET *153 0.00260047

*CONN
*I *621:A0N I *C 111.21 68.04 *L 0.00236 *D AOI2BB1X1
*I *590:AN I *C 123.09 73.64 *L 0.0022 *D NOR2BXL
*I *584:Q O *C 119.79 74.76 *L 0 *D DFFTRX1

*CAP
1 *621:A0N 0.000139839
2 *590:AN 3.98642e-05
3 *584:Q 0.000266603
4 *153:3 0.000270239
5 *153:4 0.000200563
6 *153:5 0.00037178
7 *153:6 0.000363078
8 *153:7 0.000188258
9 *153:8 0.000120602
10 *153:9 0.000249238
11 *153:10 0.000238652
12 *153:11 0.000151747

*RES
1 *153:11 *590:AN 0.223828
2 *153:10 *153:11 0.569727
3 *584:Q *153:10 0.671484
4 *153:8 *584:Q 3.20000005
5 *153:9 *153:8 3.20000005
6 *153:7 *153:9 0.735449
7 *153:5 *153:7 0.156006
8 *153:6 *153:5 1.65474
9 *153:3 *153:6 3.20000005
10 *153:4 *153:3 0.935986
11 *621:A0N *153:4 3.20000005
*END

*D_NET *154 0.00645656

*CONN
*I *618:A0N I *C 101.97 57.96 *L 0.00236 *D AOI2BB1X1
*I *610:AN I *C 120.45 87.64 *L 0.0022 *D NOR2BXL
*I *585:Q O *C 119.13 56.28 *L 0 *D DFFTRX1

*CAP
1 *618:A0N 0.000139837
2 *610:AN 3.98603e-05
3 *585:Q 0.000139837
4 *154:3 0.000156681
5 *154:4 8.69919e-05
6 *154:5 0.00066741
7 *154:6 0.000633253
8 *154:7 0.000198507
9 *154:8 0.000241361
10 *154:9 0.000143574
11 *154:10 0.000152282
12 *154:11 0.000184463
13 *154:12 0.000109448
14 *154:13 0.000380994
15 *154:14 0.000401118
16 *154:15 0.000484749
17 *154:16 0.000484749
18 *154:17 0.000474525
19 *154:18 7.51886e-05
20 *154:19 0.000529396
21 *154:5 *215:6 5.185e-05
22 *154:6 *215:3 5.185e-05
23 *154:7 *215:6 4.518e-05
24 *154:8 *215:3 4.51800029e-05
25 *154:16 *148:9 7.031e-05
26 *154:15 *148:10 7.031e-05
27 *154:14 *148:9 1.174e-05
28 *154:13 *148:10 1.174e-05
29 *154:19 *148:7 6.051e-05
30 *154:17 *148:8 6.051e-05
31 *154:14 *148:11 6.13e-05
32 *154:13 *148:12 6.13e-05
33 *154:16 *148:13 1.971e-05
34 *154:15 *148:14 1.971e-05
35 *154:19 *148:15 1.95e-05
36 *154:17 *148:16 1.95e-05
37 *154:14 *148:15 2.607e-05
38 *154:13 *148:16 2.60699971e-05

*RES
1 *154:18 *610:AN 0.223828
2 *154:19 *154:18 3.20000005
3 *154:17 *154:19 2.652
4 *154:14 *154:17 0.183838
5 *154:13 *154:14 2.18398
6 *154:13 *154:16 0.0919434
7 *154:15 *154:16 2.652
8 *154:12 *154:15 0.0919434
9 *154:11 *154:12 0.468018
10 *154:11 *585:Q 3.20000005
11 *154:7 *154:11 3.20000005
12 *154:8 *154:7 1.10312
13 *154:8 *154:5 0.312012
14 *154:6 *154:5 3.12559
15 *154:10 *154:6 0.156006
16 *154:9 *154:10 0.551562
17 *154:3 *154:9 3.20000005
18 *154:4 *154:3 0.468018
19 *618:A0N *154:4 3.20000005
*END

*D_NET *155 0.00409366

*CONN
*I *607:AN I *C 117.15 93.8 *L 0.0022 *D NOR2BXL
*I *604:A0N I *C 103.29 83.16 *L 0.00236 *D AOI2BB1X1
*I *587:Q O *C 114.51 86.52 *L 0 *D DFFTRX1

*CAP
1 *607:AN 7.97284e-05
2 *604:A0N 0.000139841
3 *587:Q 0.000139841
4 *155:3 0.00046882
5 *155:4 0.000399143
6 *155:5 0.000231402
7 *155:6 0.00021678
8 *155:7 0.000162361
9 *155:8 0.000125941
10 *155:9 7.22384e-05
11 *155:10 0.000133217
12 *155:11 0.000419602
13 *155:12 0.000358624
14 *155:13 0.000120598
15 *155:14 0.000384034
16 *155:15 0.000384034
17 *155:16 0.000142395
18 *155:17 0.000115061

*RES
1 *155:17 *607:AN 0.447656
2 *155:5 *155:17 3.20000005
3 *155:6 *155:5 0.77998
4 *155:16 *155:6 0.367725
5 *155:7 *155:16 0.468018
6 *155:7 *587:Q 3.20000005
7 *155:8 *155:7 0.156006
8 *155:15 *155:8 3.20000005
9 *155:14 *155:15 1.65474
10 *155:3 *155:14 3.20000005
11 *155:4 *155:3 1.404
12 *155:11 *155:4 3.20000005
13 *155:12 *155:11 1.28701
14 *155:9 *155:12 0.156006
15 *155:10 *155:9 0.183838
16 *155:13 *155:10 3.20000005
17 *604:A0N *155:13 3.20000005
*END

*D_NET *156 0.00365036

*CONN
*I *617:A0N I *C 103.95 102.76 *L 0.00247 *D AOI2BB1XL
*I *611:AN I *C 121.77 103.88 *L 0.0022 *D NOR2BXL
*I *580:Q O *C 113.85 96.6 *L 0 *D DFFTRX1

*CAP
1 *617:A0N 0.000139834
2 *611:AN 8.06595e-05
3 *580:Q 0.000139834
4 *156:3 0.000259525
5 *156:4 0.000259525
6 *156:5 0.000161639
7 *156:6 0.000161639
8 *156:7 0.000375917
9 *156:8 0.00083812
10 *156:9 0.000475593
11 *156:10 0.000175834
12 *156:11 0.000175834
13 *156:12 0.000115995
14 *156:8 *160:7 0.0001452
15 *156:9 *160:8 0.0001452

*RES
1 *156:12 *611:AN 0.447656
2 *156:3 *156:12 3.20000005
3 *156:4 *156:3 0.77998
4 *156:6 *580:Q 3.20000005
5 *156:7 *156:4 3.20000005
6 *156:6 *156:5 0.468018
7 *156:8 *156:7 1.83857
8 *156:8 *156:5 3.20000005
9 *156:11 *617:A0N 3.20000005
10 *156:9 *156:8 2.75786
11 *156:10 *156:11 0.468018
12 *156:10 *156:9 3.20000005
*END

*D_NET *157 0.00868982

*CONN
*I *608:AN I *C 120.45 93.8 *L 0.0022 *D NOR2BXL
*I *603:A0N I *C 105.93 52.92 *L 0.00236 *D AOI2BB1X1
*I *571:Q O *C 119.79 46.2 *L 0 *D DFFTRX1

*CAP
1 *608:AN 0.000139847
2 *603:A0N 6.33206e-05
3 *571:Q 0.000139847
4 *157:3 0.000116771
5 *157:4 0.000131541
6 *157:5 0.000921798
7 *157:6 0.000921798
8 *157:7 6.14787e-05
9 *157:8 6.14787e-05
10 *157:9 5.43542e-05
11 *157:10 9.72051e-05
12 *157:11 0.000135955
13 *157:12 9.31042e-05
14 *157:13 0.00227756
15 *157:14 0.00227756
16 *157:15 6.57186e-05
17 *157:16 5.09136e-05
18 *157:17 5.09136e-05
19 *157:18 5.09136e-05
20 *157:19 0.000305134
21 *157:20 0.000305134
22 *157:21 0.000120594
23 *157:5 *237:2 0.00012341
24 *157:6 *237:3 0.000123409995

*RES
1 *157:21 *608:AN 3.19992
2 *157:7 *157:21 3.19992
3 *157:8 *157:7 0.183846
4 *157:13 *157:8 3.19992
5 *157:19 *571:Q 3.19992
6 *157:14 *157:13 11.3879995
7 *157:19 *157:20 1.09195
8 *157:5 *157:14 3.19992
9 *157:5 *157:20 3.19992
10 *157:6 *157:5 3.49324
11 *157:18 *157:6 6.40002
12 *157:9 *157:18 6.40002
13 *157:10 *157:9 0.183846
14 *157:11 *157:10 0.312086
15 *157:12 *157:11 0.367691
16 *157:3 *603:A0N 6.40002
17 *157:17 *157:12 6.40002
18 *157:4 *157:3 0.312086
19 *157:16 *157:17 6.40002
20 *157:15 *157:4 0.183846
21 *157:15 *157:16 6.40002
*END

*D_NET *158 0.00592471

*CONN
*I *616:A0N I *C 99.33 78.12 *L 0.00236 *D AOI2BB1X1
*I *595:AN I *C 123.09 97.72 *L 0.0022 *D NOR2BXL
*I *572:Q O *C 119.13 76.44 *L 0 *D DFFTRX1

*CAP
1 *616:A0N 0.000139836
2 *595:AN 6.32951e-05
3 *572:Q 6.32951e-05
4 *158:3 0.000788954
5 *158:4 0.00085863
6 *158:5 0.000196934
7 *158:6 0.000127245
8 *158:7 0.000582928
9 *158:8 0.000371988
10 *158:9 0.000701761
11 *158:10 0.000693062
12 *158:11 0.000120603
13 *158:12 0.000233043
14 *158:7 *223:9 8.112e-05
15 *158:8 *223:4 8.112e-05
16 *158:9 *223:4 4.305e-05
17 *158:10 *223:5 4.30499982e-05
18 *158:3 *246:59 6.4e-05
19 *158:4 *246:58 6.4e-05
20 *158:3 *246:56 7.556e-05
21 *158:4 *246:55 7.556e-05
22 *158:3 *246:54 2.543e-05
23 *158:4 *246:53 2.543e-05
24 *158:3 *246:53 5.86e-05
25 *158:4 *246:52 5.86e-05
26 *158:3 *246:39 6.747e-05
27 *158:4 *246:38 6.747e-05
28 *158:3 *246:38 7.633e-05
29 *158:4 *246:37 7.63300139e-05

*RES
1 *158:3 *595:AN 6.4000001
2 *158:4 *158:3 5.14805
3 *158:12 *158:4 3.2
4 *158:11 *572:Q 6.4000001
5 *158:7 *158:12 1.10312
6 *158:7 *158:11 3.2
7 *158:8 *158:7 2.02246
8 *158:8 *158:9 0.155957
9 *158:10 *158:9 3.49326
10 *158:5 *158:10 3.2
11 *158:6 *158:5 0.467969
12 *616:A0N *158:6 3.2
*END

*D_NET *159 0.00495206

*CONN
*I *620:A0N I *C 92.73 93.24 *L 0.00236 *D AOI2BB1X1
*I *591:AN I *C 118.47 97.72 *L 0.0022 *D NOR2BXL
*I *578:Q O *C 100.65 96.6 *L 0 *D DFFTRX1

*CAP
1 *620:A0N 0.000139844
2 *591:AN 3.98713e-05
3 *578:Q 0.000139844
4 *159:3 0.000322784
5 *159:4 0.000322784
6 *159:5 0.000203134
7 *159:6 0.000203134
8 *159:7 0.000931706
9 *159:8 0.00120747
10 *159:9 0.000289159
11 *159:10 0.000161328
12 *159:11 0.000161328
13 *159:12 7.99821e-05
14 *159:13 7.71631e-05
15 *159:8 *306:17 0.00015605
16 *159:9 *306:18 0.000156050005
17 *159:7 *32:9 4.979e-05
18 *159:8 *32:7 4.979e-05
19 *159:8 *32:7 0.00012157
20 *159:9 *32:5 0.00012157
21 *159:10 *32:3 8.86e-06
22 *159:11 *32:4 8.85999372e-06

*RES
1 *159:13 *591:AN 0.223828
2 *159:12 *159:13 0.189941
3 *159:5 *159:12 6.4000001
4 *159:6 *159:5 0.624023
5 *159:3 *578:Q 3.2
6 *159:7 *159:6 6.4000001
7 *159:4 *159:3 1.24805
8 *159:8 *159:7 4.78027
9 *159:8 *159:4 3.2
10 *159:9 *159:8 2.20625
11 *159:10 *159:9 3.2
12 *159:11 *159:10 0.467969
13 *620:A0N *159:11 3.2
*END

*D_NET *160 0.00538175

*CONN
*I *619:A0N I *C 88.11 93.24 *L 0.00236 *D AOI2BB1X1
*I *606:AN I *C 117.15 103.88 *L 0.0022 *D NOR2BXL
*I *577:Q O *C 88.11 96.6 *L 0 *D DFFTRX1

*CAP
1 *619:A0N 0.000139835
2 *606:AN 0.000318904
3 *577:Q 0.000139835
4 *160:3 0.000183987
5 *160:4 0.000183987
6 *160:5 0.000569311
7 *160:6 0.000441847
8 *160:7 0.00100088
9 *160:8 0.00100088
10 *160:9 0.00024807
11 *160:10 0.000354229
12 *160:7 *172:10 6.052e-05
13 *160:8 *172:11 6.052e-05
14 *160:7 *172:12 0.00014411
15 *160:8 *172:13 0.00014411
16 *160:7 *172:14 2.489e-05
17 *160:8 *172:15 2.489e-05
18 *160:7 *172:15 2.527e-05
19 *160:8 *172:16 2.5269995e-05
20 *160:7 *156:8 0.0001452
21 *160:8 *156:9 0.0001452

*RES
1 *160:10 *606:AN 1.79065
2 *160:3 *160:10 3.20005
3 *160:4 *160:3 0.468014
4 *160:7 *160:4 3.20005
5 *160:8 *160:7 6.61885691
6 *160:9 *160:8 3.20005
7 *160:5 *160:9 0.77999
8 *160:5 *577:Q 3.20005
9 *160:6 *160:5 1.71602
10 *619:A0N *160:6 3.20005
*END

*D_NET *161 0.0092846

*CONN
*I *654:QN O *C 45.87 107.24 *L 0 *D DFFX1
*I *638:B0 I *C 49.83 47.32 *L 0.00319 *D AOI21XL
*I *596:A1N I *C 55.77 47.32 *L 0.0024 *D AOI2BB1X1

*CAP
1 *654:QN 0.000139842
2 *638:B0 6.33097e-05
3 *596:A1N 0.000122376
4 *161:3 7.47165e-05
5 *161:4 5.99153e-05
6 *161:5 0.000206211
7 *161:6 0.000206211
8 *161:7 0.000220262
9 *161:8 0.000220262
10 *161:9 0.000531403
11 *161:10 0.000531403
12 *161:11 0.000152196
13 *161:12 8.25118e-05
14 *161:13 5.09162e-05
15 *161:14 0.00128524
16 *161:15 0.00129333
17 *161:16 0.000102661
18 *161:17 0.000142921
19 *161:18 0.000714563
20 *161:19 0.000729187
21 *161:20 0.000381674
22 *161:21 0.000381674
23 *161:22 0.000159675
24 *161:23 7.99858e-05
25 *161:24 6.57174e-05
26 *161:15 *174:7 0.00025556
27 *161:14 *174:8 0.000255559992
28 *161:21 *83:182 3.63e-05
29 *161:20 *83:183 3.63e-05
30 *161:15 *83:183 4.557e-05
31 *161:14 *83:184 4.557e-05
32 *161:15 *83:184 3.572e-05
33 *161:14 *83:185 3.572e-05
34 *161:15 *83:185 8.252e-05
35 *161:14 *83:186 8.252e-05
36 *161:7 *83:171 3.012e-05
37 *161:8 *83:172 3.01200072e-05
38 *161:5 *6:4 0.00015743
39 *161:6 *6:5 0.000157430003

*RES
1 *161:22 *596:A1N 0.671493
2 *161:22 *161:23 0.189854
3 *161:24 *161:23 6.40001
4 *161:3 *161:24 0.183812
5 *161:4 *161:3 0.156048
6 *161:13 *638:B0 6.40001
7 *161:5 *161:4 6.40001
8 *161:6 *161:13 6.40001
9 *161:6 *161:5 0.919318
10 *161:14 *161:6 6.40001
11 *161:14 *161:15 8.42399979
12 *161:15 *161:20 0.183812
13 *161:20 *161:21 1.87206
14 *161:16 *161:21 0.183812
15 *161:16 *161:17 0.311967
16 *161:10 *161:17 0.367753
17 *161:10 *161:9 2.49599
18 *161:9 *161:18 0.367753
19 *161:18 *161:19 3.27597
20 *161:7 *161:19 3.2
21 *161:8 *161:7 1.10313
22 *161:12 *654:QN 3.2
23 *161:11 *161:8 3.2
24 *161:11 *161:12 0.311967
*END

*D_NET *162 0.00677057

*CONN
*I *652:QN O *C 59.73 97.16 *L 0 *D DFFX1
*I *628:B0 I *C 63.69 53.48 *L 0.00319 *D AOI21XL
*I *597:A1N I *C 66.33 53.48 *L 0.0024 *D AOI2BB1X1

*CAP
1 *652:QN 0.000206009
2 *628:B0 6.33093e-05
3 *597:A1N 7.97431e-05
4 *162:3 0.000588252
5 *162:4 0.000686287
6 *162:5 0.000241342
7 *162:6 6.58526e-05
8 *162:7 6.58526e-05
9 *162:8 0.000169992
10 *162:9 0.000227647
11 *162:10 0.000554073
12 *162:11 0.000513693
13 *162:12 0.000115056
14 *162:13 6.58526e-05
15 *162:14 0.00124173
16 *162:15 0.00128213
17 *162:15 *29:3 4.124e-05
18 *162:14 *29:4 4.124e-05
19 *162:15 *29:4 0.00026064
20 *162:14 *29:5 0.000260640005

*RES
1 *162:12 *597:A1N 0.447656
2 *162:7 *628:B0 6.4000001
3 *162:13 *162:12 6.4000001
4 *162:7 *162:10 0.183887
5 *162:10 *162:13 0.183887
6 *162:10 *162:11 2.34004
7 *162:11 *162:14 0.183887
8 *162:14 *162:15 6.08398
9 *162:8 *162:15 0.367676
10 *162:8 *162:9 0.467969
11 *162:9 *162:4 1.09199
12 *162:4 *162:3 2.80801
13 *162:6 *162:3 0.183887
14 *162:5 *162:6 6.4000001
15 *652:QN *162:5 1.11914
*END

*D_NET *163 0.0034869

*CONN
*I *647:QN O *C 59.73 114.52 *L 0 *D DFFX1
*I *624:B0 I *C 71.61 103.88 *L 0.00319 *D AOI21XL
*I *598:A1N I *C 75.57 103.88 *L 0.0024 *D AOI2BB1X1

*CAP
1 *647:QN 8.23979e-05
2 *624:B0 6.33019e-05
3 *598:A1N 0.000119589
4 *163:3 0.000458983
5 *163:4 0.000585613828
6 *163:5 0.000126452
7 *163:6 0.000119696
8 *163:7 0.000555553
9 *163:8 0.0001609
10 *163:9 0.000555553
11 *163:10 0.000158934
12 *163:11 0.000154922
13 *163:12 0.000159684
14 *163:13 0.00018533

*RES
1 *163:11 *598:A1N 0.671484
2 *163:12 *163:11 3.2
3 *163:5 *624:B0 6.4000001
4 *163:12 *163:13 0.467969
5 *163:5 *163:4 0.467969
6 *163:4 *163:13 0.551562
7 *163:4 *163:3 1.87197
8 *163:10 *163:3 3.2
9 *163:8 *163:10 0.671484
10 *163:8 *163:9 0.189941
11 *163:7 *163:9 2.90977
12 *163:6 *163:7 0.189941
13 *647:QN *163:6 0.447656
*END

*D_NET *164 0.00420961

*CONN
*I *641:QN O *C 59.73 107.24 *L 0 *D DFFX1
*I *629:B0 I *C 65.67 87.64 *L 0.00319 *D AOI21XL
*I *599:A1N I *C 68.31 87.64 *L 0.0024 *D AOI2BB1X1

*CAP
1 *641:QN 0.000539084
2 *629:B0 6.32956e-05
3 *599:A1N 6.32956e-05
4 *164:3 0.00018703
5 *164:4 0.00146265
6 *164:5 0.000574414
7 *164:6 0.00131983

*RES
1 *164:3 *629:B0 6.4000001
2 *164:4 *599:A1N 6.4000001
3 *164:3 *164:4 0.735449
4 *164:4 *164:6 6.08398
5 *164:5 *164:6 6.4000001
6 *641:QN *164:5 2.90977
*END

*D_NET *165 0.00461746

*CONN
*I *657:QN O *C 45.87 87.08 *L 0 *D DFFX1
*I *632:B0 I *C 52.47 63.56 *L 0.00319 *D AOI21XL
*I *605:A1N I *C 55.77 63.56 *L 0.0024 *D AOI2BB1X1

*CAP
1 *657:QN 6.32867e-05
2 *632:B0 6.32867e-05
3 *605:A1N 0.000119583
4 *165:3 0.0012233
5 *165:4 0.00128326
6 *165:5 7.04927e-05
7 *165:6 0.000219487
8 *165:7 0.000411481
9 *165:8 0.000219487
10 *165:9 0.000481171
11 *165:10 8.2731e-05
12 *165:11 8.2731e-05
13 *165:12 0.000154908
14 *165:13 0.000142239

*RES
1 *165:12 *605:A1N 0.671484
2 *165:13 *165:12 3.2
3 *165:10 *165:13 0.183887
4 *165:5 *632:B0 6.4000001
5 *165:10 *165:11 0.155957
6 *165:5 *165:4 0.155957
7 *165:4 *165:11 0.183887
8 *165:4 *165:3 5.77197
9 *165:9 *165:3 3.2
10 *165:7 *165:9 1.83857
11 *165:8 *657:QN 6.4000001
12 *165:6 *165:7 6.4000001
13 *165:6 *165:8 0.624023
*END

*D_NET *166 0.00373769

*CONN
*I *658:QN O *C 45.21 74.2 *L 0 *D DFFX1
*I *639:B0 I *C 62.37 73.64 *L 0.00319 *D AOI21XL
*I *600:A1N I *C 65.01 73.64 *L 0.0024 *D AOI2BB1X1

*CAP
1 *658:QN 8.24036e-05
2 *639:B0 6.33032e-05
3 *600:A1N 8.0659e-05
4 *166:3 6.0501e-05
5 *166:4 0.000115822
6 *166:5 0.000316263
7 *166:6 0.000298844
8 *166:7 0.000142896
9 *166:8 0.000142896
10 *166:9 0.000548423
11 *166:10 0.00011773
12 *166:11 0.000219342
13 *166:12 0.0005924
14 *166:13 0.000175356
15 *166:14 5.72378e-05
16 *166:15 0.000192531
17 *166:12 *171:8 0.00011411
18 *166:9 *171:9 0.00011411
19 *166:13 *171:8 0.00012617
20 *166:11 *171:9 0.00012617
21 *166:13 *171:6 2.527e-05
22 *166:11 *171:7 2.52700115e-05

*RES
1 *166:15 *600:A1N 0.447656
2 *166:3 *166:15 3.2
3 *166:4 *166:3 0.155957
4 *166:14 *639:B0 6.4000001
5 *166:5 *166:4 0.367676
6 *166:5 *166:14 0.155957
7 *166:6 *166:5 0.936035
8 *166:13 *166:6 3.2
9 *166:11 *166:13 1.10312
10 *166:11 *166:12 0.312012
11 *166:9 *166:12 3.30947
12 *166:8 *166:9 3.2
13 *166:8 *166:7 0.312012
14 *166:10 *166:7 3.2
15 *658:QN *166:10 0.447656
*END

*D_NET *167 0.0036912

*CONN
*I *645:QN O *C 45.87 97.16 *L 0 *D DFFX1
*I *637:B0 I *C 52.47 87.64 *L 0.00319 *D AOI21XL
*I *601:A1N I *C 58.41 87.64 *L 0.0024 *D AOI2BB1X1

*CAP
1 *645:QN 6.33054e-05
2 *637:B0 6.33054e-05
3 *601:A1N 7.97324e-05
4 *167:3 0.000255815
5 *167:4 0.000255815
6 *167:5 0.0006366
7 *167:6 0.00069365
8 *167:7 7.04499e-05
9 *167:8 0.000420466
10 *167:9 0.000420466
11 *167:10 5.09216e-05
12 *167:11 7.99865e-05
13 *167:12 5.09216e-05
14 *167:13 0.000117032
15 *167:3 *343:4 0.00021638
16 *167:4 *343:5 0.000216380005

*RES
1 *167:13 *601:A1N 0.447656
2 *167:11 *167:13 0.189941
3 *167:12 *167:11 6.4000001
4 *167:3 *167:12 6.4000001
5 *167:4 *167:3 1.28701
6 *167:7 *167:4 6.4000001
7 *167:6 *637:B0 6.4000001
8 *167:7 *167:6 0.155957
9 *167:6 *167:5 2.96396
10 *167:8 *167:5 6.4000001
11 *167:9 *167:8 1.83857
12 *167:10 *167:9 6.4000001
13 *645:QN *167:10 6.4000001
*END

*D_NET *168 0.00375549

*CONN
*I *646:QN O *C 45.21 77 *L 0 *D DFFX1
*I *635:B0 I *C 62.37 77.56 *L 0.00319 *D AOI21XL
*I *602:A1N I *C 65.01 77.56 *L 0.0024 *D AOI2BB1X1

*CAP
1 *646:QN 8.23999e-05
2 *635:B0 6.33044e-05
3 *602:A1N 7.97346e-05
4 *168:3 0.000236221
5 *168:4 0.000228565
6 *168:5 0.000142745
7 *168:6 0.000142745
8 *168:7 0.00049483
9 *168:8 0.000494551
10 *168:9 0.000117729
11 *168:10 0.00010401
12 *168:11 9.56286e-05
13 *168:12 0.000241703
14 *168:13 0.000249805
15 *168:14 0.000191605
16 *168:15 0.000182619
17 *168:7 *80:6 0.0002172
18 *168:8 *80:7 0.0002172
19 *168:13 *80:6 6.317e-05
20 *168:12 *80:7 6.317e-05
21 *168:11 *80:6 2.329e-05
22 *168:10 *80:7 2.32900054e-05

*RES
1 *168:14 *602:A1N 0.447656
2 *168:15 *168:14 3.2
3 *168:4 *635:B0 6.4000001
4 *168:4 *168:15 0.367676
5 *168:4 *168:3 0.77998
6 *168:13 *168:3 3.2
7 *168:12 *168:13 1.4709
8 *168:12 *168:7 0.0780273
9 *168:8 *168:7 2.39014
10 *168:11 *168:8 0.0780273
11 *168:10 *168:11 0.551562
12 *168:5 *168:10 3.2
13 *168:6 *168:5 0.312012
14 *168:9 *168:6 3.2
15 *646:QN *168:9 0.447656
*END

*D_NET *169 0.00867212

*CONN
*I *644:QN O *C 44.55 64.12 *L 0 *D DFFX1
*I *633:B0 I *C 116.49 67.48 *L 0.00319 *D AOI21XL
*I *621:A1N I *C 111.87 67.48 *L 0.0024 *D AOI2BB1X1

*CAP
1 *644:QN 0.000343021
2 *633:B0 6.33069e-05
3 *621:A1N 6.33069e-05
4 *169:3 0.000417351
5 *169:4 0.000417351
6 *169:5 0.000162222
7 *169:6 0.000162222
8 *169:7 0.000331999
9 *169:8 0.000331999
10 *169:9 0.000389961
11 *169:10 0.000459634
12 *169:11 0.000735429
13 *169:12 0.000726735
14 *169:13 0.000378345
15 *169:14 0.000120604
16 *169:15 0.00155678
17 *169:16 0.00154809
18 *169:17 0.000120604
19 *169:18 0.000120604
20 *169:3 *214:8 0.00010693
21 *169:4 *214:3 0.00010693
22 *169:5 *214:4 4.34e-06
23 *169:6 *214:2 4.34000426e-06

*RES
1 *169:18 *633:B0 6.40002
2 *169:17 *621:A1N 6.40002
3 *169:7 *169:18 3.20001
4 *169:8 *169:17 3.20001
5 *169:8 *169:7 1.28701
6 *169:9 *169:8 3.20001
7 *169:10 *169:9 1.87196
8 *169:16 *169:10 3.20001
9 *169:15 *169:16 10.1121426
10 *169:11 *169:15 0.155996
11 *169:12 *169:11 4.59641
12 *169:14 *169:12 3.20001
13 *169:3 *169:14 3.20001
14 *169:4 *169:3 2.57402
15 *169:6 *169:4 3.20001
16 *169:6 *169:5 0.467989
17 *169:13 *169:5 3.20001
18 *644:QN *169:13 1.79064
*END

*D_NET *170 0.00765124

*CONN
*I *651:QN O *C 44.55 56.84 *L 0 *D DFFX1
*I *634:B0 I *C 107.25 57.4 *L 0.00319 *D AOI21XL
*I *618:A1N I *C 102.63 57.4 *L 0.0024 *D AOI2BB1X1

*CAP
1 *651:QN 3.98511e-05
2 *634:B0 3.98511e-05
3 *618:A1N 6.32809e-05
4 *170:3 0.00132311
5 *170:4 0.00125341
6 *170:5 7.51886e-05
7 *170:6 0.000120597
8 *170:7 7.24214e-05
9 *170:8 0.000142098
10 *170:9 0.00148642
11 *170:10 0.000112681
12 *170:11 0.000120597
13 *170:12 0.000120597
14 *170:13 0.00148642
15 *170:14 0.000218104
16 *170:15 0.000137585
17 *170:16 0.000193835
18 *170:17 0.000262876
19 *170:18 0.00011445
20 *170:3 *351:6 0.00013391
21 *170:4 *351:7 0.000133910002

*RES
1 *170:18 *634:B0 0.223784
2 *170:16 *170:18 0.379879
3 *170:17 *170:16 3.19994
4 *170:14 *170:17 0.735395
5 *170:14 *170:15 0.312043
6 *170:10 *618:A1N 6.40002
7 *170:10 *170:15 0.36777
8 *170:11 *170:10 3.19994
9 *170:12 *170:11 3.19994
10 *170:13 *170:12 3.19994
11 *170:9 *170:13 9.56057167
12 *170:8 *170:9 3.19994
13 *170:7 *170:8 0.183812
14 *170:3 *170:7 3.19994
15 *170:4 *170:3 6.25108
16 *170:6 *170:4 3.19994
17 *170:5 *170:6 3.19994
18 *651:QN *170:5 0.223784
*END

*D_NET *171 0.0124263

*CONN
*I *655:QN O *C 45.21 66.92 *L 0 *D DFFX1
*I *627:B0 I *C 109.89 83.72 *L 0.00319 *D AOI21XL
*I *604:A1N I *C 103.95 83.72 *L 0.0024 *D AOI2BB1X1

*CAP
1 *655:QN 0.000123595
2 *627:B0 6.33002e-05
3 *604:A1N 9.55009e-05
4 *171:3 0.000130833
5 *171:4 0.000160682
6 *171:5 9.09926e-05
7 *171:6 7.47488e-05
8 *171:7 9.21053e-05
9 *171:8 0.000691369
10 *171:9 0.00075179
11 *171:10 0.000559836
12 *171:11 0.000559836
13 *171:12 0.000146354
14 *171:13 0.000138244
15 *171:14 0.000109737
16 *171:15 6.68793e-05
17 *171:16 0.000611217
18 *171:17 0.000619328
19 *171:18 0.000424219
20 *171:19 0.000406863
21 *171:20 0.000345558
22 *171:21 0.000345558
23 *171:22 0.000429668
24 *171:23 0.000681825
25 *171:24 0.000313839
26 *171:25 0.000313839
27 *171:26 0.000334339
28 *171:27 0.000389219
29 *171:28 0.000158927
30 *171:29 0.000120601
31 *171:30 0.000462121
32 *171:31 0.000517001
33 *171:32 0.000244012
34 *171:33 5.09223e-05
35 *171:20 *140:11 1.702e-05
36 *171:21 *140:9 1.702e-05
37 *171:18 *140:11 1.263e-05
38 *171:19 *140:9 1.263e-05
39 *171:20 *140:6 0.00017234
40 *171:21 *140:7 0.00017234
41 *171:20 *140:4 7.53e-06
42 *171:21 *140:5 7.52998858e-06
43 *171:16 *132:2 0.00028247
44 *171:17 *132:3 0.00028247
45 *171:16 *132:4 7.53e-06
46 *171:17 *132:5 7.53001733e-06
47 *171:8 *166:12 0.00011411
48 *171:9 *166:9 0.00011411
49 *171:8 *166:13 0.00012617
50 *171:9 *166:11 0.00012617
51 *171:6 *166:13 2.527e-05
52 *171:7 *166:11 2.52700115e-05
53 *171:10 *130:9 0.00013566
54 *171:11 *130:7 0.000135660003

*RES
1 *171:3 *604:A1N 0.671484
2 *171:33 *171:3 6.4000001
3 *171:5 *627:B0 6.4000001
4 *171:15 *171:33 6.4000001
5 *171:5 *171:4 0.312012
6 *171:15 *171:14 0.183887
7 *171:22 *171:4 3.2
8 *171:14 *171:23 0.312012
9 *171:23 *171:22 2.02246
10 *171:32 *171:23 1.10312
11 *171:32 *171:18 0.155957
12 *171:19 *171:18 1.83857
13 *171:19 *171:20 0.0780273
14 *171:21 *171:20 2.20625
15 *171:16 *171:21 0.0780273
16 *171:17 *171:16 2.9417
17 *171:31 *171:17 3.2
18 *171:30 *171:31 2.02803
19 *171:30 *171:24 0.183887
20 *171:25 *171:24 1.24805
21 *171:26 *171:25 0.183887
22 *171:27 *171:26 1.404
23 *171:12 *171:27 3.2
24 *171:13 *171:12 0.551562
25 *171:10 *171:13 0.0780273
26 *171:11 *171:10 2.57402
27 *171:11 *171:6 0.0780273
28 *171:7 *171:6 0.367676
29 *171:7 *171:8 0.155957
30 *171:9 *171:8 3.86104
31 *171:29 *171:9 3.2
32 *171:28 *171:29 3.2
33 *655:QN *171:28 0.671484
*END

*D_NET *172 0.010885

*CONN
*I *653:QN O *C 45.21 84.28 *L 0 *D DFFX1
*I *636:B0 I *C 109.89 103.88 *L 0.00319 *D AOI21XL
*I *617:A1N I *C 104.61 103.32 *L 0.00223 *D AOI2BB1XL

*CAP
1 *653:QN 0.000139832
2 *636:B0 6.32978e-05
3 *617:A1N 9.96214e-05
4 *172:3 0.000134953
5 *172:4 0.000414395
6 *172:5 0.000414395
7 *172:6 0.000248114
8 *172:7 0.000248114
9 *172:8 0.000764931406
10 *172:9 0.000764931406
11 *172:10 0.00036068
12 *172:11 0.000299705
13 *172:12 0.000641802
14 *172:13 0.000641802
15 *172:14 8.77042e-05
16 *172:15 0.000144536
17 *172:16 8.76458e-05
18 *172:17 0.00041925
19 *172:18 0.00041925
20 *172:19 0.000755745
21 *172:20 0.000755745
22 *172:21 0.000149053
23 *172:22 0.000140357
24 *172:23 0.000570684
25 *172:24 0.000284531
26 *172:25 0.000130693
27 *172:26 5.09254e-05
28 *172:27 0.000416846
29 *172:28 0.000120596
30 *172:29 0.000120596
31 *172:19 *10:5 9.788e-05
32 *172:20 *10:6 9.78799983e-05
33 *172:19 *243:5 9.469e-05
34 *172:20 *243:3 9.469e-05
35 *172:8 *243:5 4.979e-05
36 *172:9 *243:3 4.97899927e-05
37 *172:10 *160:7 6.052e-05
38 *172:11 *160:8 6.052e-05
39 *172:12 *160:7 0.00014411
40 *172:13 *160:8 0.00014411
41 *172:14 *160:7 2.489e-05
42 *172:15 *160:8 2.489e-05
43 *172:15 *160:7 2.527e-05
44 *172:16 *160:8 2.5269995e-05

*RES
1 *172:29 *636:B0 6.4000001
2 *172:10 *172:29 3.2
3 *172:3 *617:A1N 0.671484
4 *172:11 *172:10 1.65469
5 *172:28 *172:3 3.2
6 *172:14 *172:11 0.155957
7 *172:15 *172:28 3.2
8 *172:15 *172:14 0.367676
9 *172:16 *172:15 0.367676
10 *172:16 *172:12 0.155957
11 *172:13 *172:12 3.86104
12 *172:6 *172:13 0.155957
13 *172:7 *172:6 1.10312
14 *172:8 *172:7 0.155957
15 *172:9 *172:8 3.86104
16 *172:9 *172:19 0.155957
17 *172:20 *172:19 4.4126
18 *172:17 *172:20 0.155957
19 *172:18 *172:17 2.02246
20 *172:18 *172:21 0.155957
21 *172:22 *172:21 0.367676
22 *172:27 *172:22 6.4000001
23 *172:23 *172:27 2.02803
24 *172:24 *172:23 1.09199
25 *172:25 *172:24 0.467969
26 *172:26 *172:25 6.4000001
27 *172:4 *172:26 6.4000001
28 *172:5 *172:4 1.71602
29 *653:QN *172:5 3.2
*END

*D_NET *173 0.0082458

*CONN
*I *648:QN O *C 44.55 54.04 *L 0 *D DFFX1
*I *630:B0 I *C 111.21 53.48 *L 0.00319 *D AOI21XL
*I *603:A1N I *C 105.27 53.48 *L 0.0024 *D AOI2BB1X1

*CAP
1 *648:QN 0.000327617
2 *630:B0 6.32994e-05
3 *603:A1N 6.32994e-05
4 *173:3 0.000431475
5 *173:4 0.000431475
6 *173:5 0.000531588
7 *173:6 0.000531588
8 *173:7 0.000402209
9 *173:8 0.000153953
10 *173:9 7.61562e-05
11 *173:10 0.000127139
12 *173:11 5.74695e-05
13 *173:12 0.00126512
14 *173:13 0.00126512
15 *173:14 0.000117275
16 *173:15 5.09253e-05
17 *173:16 0.000405549
18 *173:17 0.000397441
19 *173:18 7.24112e-05
20 *173:19 5.09253e-05
21 *173:20 7.24112e-05
22 *173:21 5.09253e-05
23 *173:12 *149:11 0.00025682
24 *173:13 *149:12 0.00025682
25 *173:3 *126:6 0.00025607
26 *173:4 *126:4 0.000256070006
27 *173:3 *30:3 0.00013731
28 *173:4 *30:4 0.000137310005

*RES
1 *173:20 *603:A1N 6.39999
2 *173:21 *630:B0 6.39999
3 *173:18 *173:20 0.183854
4 *173:5 *173:21 6.39999
5 *173:6 *173:18 6.39999
6 *173:6 *173:5 1.83854
7 *173:19 *173:6 6.39999
8 *173:12 *173:19 6.39999
9 *173:13 *173:12 9.37671471
10 *173:10 *173:13 3.20007
11 *173:11 *173:10 0.155954
12 *173:8 *173:11 3.20007
13 *173:9 *173:8 0.367709
14 *173:3 *173:9 0.0779771
15 *173:4 *173:3 3.30938
16 *173:4 *173:17 0.0779771
17 *173:16 *173:17 2.0224
18 *173:15 *173:16 6.39999
19 *173:14 *173:15 6.39999
20 *173:7 *173:14 0.37987
21 *648:QN *173:7 2.01439
*END

*D_NET *174 0.0114308

*CONN
*I *642:QN O *C 43.89 43.96 *L 0 *D DFFX1
*I *626:B0 I *C 106.59 77.56 *L 0.00319 *D AOI21XL
*I *616:A1N I *C 99.99 77.56 *L 0.0024 *D AOI2BB1X1

*CAP
1 *642:QN 6.33121e-05
2 *626:B0 6.33121e-05
3 *616:A1N 6.33121e-05
4 *174:3 0.000549956
5 *174:4 0.000549956
6 *174:5 0.000507654
7 *174:6 0.000437965
8 *174:7 0.00168528
9 *174:8 0.00168528
10 *174:9 5.09171e-05
11 *174:10 0.00165139
12 *174:11 0.00166008
13 *174:12 9.5071e-05
14 *174:13 0.000120607
15 *174:14 0.000120607
16 *174:15 8.63791e-05
17 *174:16 0.000120607
18 *174:15 *152:10 4.17e-05
19 *174:12 *152:11 4.17e-05
20 *174:11 *152:11 0.00044313
21 *174:10 *152:12 0.000443129994
22 *174:7 *161:15 0.00025556
23 *174:8 *161:14 0.000255559992
24 *174:3 *230:6 0.00021916
25 *174:4 *230:4 0.000219159993

*RES
1 *174:16 *626:B0 6.39998
2 *174:13 *616:A1N 6.39998
3 *174:5 *174:16 3.19999
4 *174:6 *174:13 3.19999
5 *174:6 *174:5 1.83858
6 *174:14 *174:6 3.19999
7 *174:15 *174:14 3.19999
8 *174:12 *174:15 0.551496
9 *174:11 *174:12 0.156022
10 *174:10 *174:11 12.6861429
11 *174:7 *174:10 3.19999
12 *174:8 *174:7 9.35994
13 *174:3 *174:8 3.19999
14 *174:4 *174:3 2.39007
15 *174:9 *174:4 6.39998
16 *642:QN *174:9 6.39998
*END

*D_NET *175 0.0132527

*CONN
*I *649:QN O *C 57.09 36.68 *L 0 *D DFFX1
*I *625:B0 I *C 99.33 93.8 *L 0.00319 *D AOI21XL
*I *620:A1N I *C 93.39 93.8 *L 0.0024 *D AOI2BB1X1

*CAP
1 *649:QN 0.000139857
2 *625:B0 6.33034e-05
3 *620:A1N 8.85882e-05
4 *175:3 0.000153685
5 *175:4 0.0002234
6 *175:5 0.000129372
7 *175:6 0.000199058
8 *175:7 0.00110217
9 *175:8 0.00103249
10 *175:9 0.00105057
11 *175:10 0.0010413
12 *175:11 0.000282692
13 *175:12 0.000291961
14 *175:13 0.000410211
15 *175:14 0.000410211
16 *175:15 0.000122869
17 *175:16 0.000557635
18 *175:17 0.000466707
19 *175:18 6.48229e-05
20 *175:19 0.00199164
21 *175:20 0.00199164
22 *175:21 6.48229e-05
23 *175:22 0.000200456
24 *175:11 *148:23 5.938e-05
25 *175:12 *148:22 5.938e-05
26 *175:13 *148:23 7.116e-05
27 *175:14 *148:22 7.116e-05
28 *175:15 *148:23 3.557e-05
29 *175:16 *148:22 3.557e-05
30 *175:16 *148:23 0.00018423
31 *175:17 *148:22 0.00018423
32 *175:9 *148:23 0.00010032
33 *175:10 *148:22 0.00010032
34 *175:9 *148:22 3.517e-05
35 *175:10 *148:21 3.51700039e-05
36 *175:7 *224:6 0.00010081
37 *175:8 *224:5 0.000100809999

*RES
1 *175:5 *625:B0 6.39994
2 *175:6 *175:5 0.623981
3 *175:22 *620:A1N 0.447619
4 *175:11 *175:6 3.20004
5 *175:3 *175:22 3.20004
6 *175:12 *175:11 1.47081
7 *175:4 *175:3 0.779976
8 *175:15 *175:12 0.155995
9 *175:16 *175:4 3.20004
10 *175:16 *175:15 0.551518
11 *175:17 *175:16 2.75788
12 *175:17 *175:13 0.155995
13 *175:14 *175:13 2.02248
14 *175:9 *175:14 0.155995
15 *175:10 *175:9 5.14799
16 *175:8 *649:QN 3.20004
17 *175:20 *175:10 3.20004
18 *175:8 *175:7 4.836
19 *175:19 *175:20 9.67199993
20 *175:21 *175:7 3.20004
21 *175:18 *175:19 3.20004
22 *175:18 *175:21 0.183888
*END

*D_NET *176 0.012577

*CONN
*I *643:QN O *C 43.89 36.68 *L 0 *D DFFX1
*I *623:B0 I *C 86.13 93.8 *L 0.00319 *D AOI21XL
*I *619:A1N I *C 88.77 93.8 *L 0.0024 *D AOI2BB1X1

*CAP
1 *643:QN 0.000139878
2 *623:B0 6.33136e-05
3 *619:A1N 8.34228e-05
4 *176:3 0.00022736
5 *176:4 0.000218728
6 *176:5 0.000110157
7 *176:6 0.000172211
8 *176:7 0.000120608
9 *176:8 0.000120608
10 *176:9 0.00298796
11 *176:10 0.00305767
12 *176:11 0.000577614
13 *176:12 0.000578174
14 *176:13 0.000739794
15 *176:14 0.000416834
16 *176:15 0.000739794
17 *176:16 0.000416834
18 *176:17 0.000196146
19 *176:18 0.000256567
20 *176:19 0.000195306
21 *176:20 0.000182616
22 *176:18 *84:106 5.796e-05
23 *176:17 *84:109 5.796e-05
24 *176:15 *84:116 8.197e-05
25 *176:13 *84:117 8.197e-05
26 *176:15 *84:109 1.263e-05
27 *176:13 *84:110 1.263e-05
28 *176:15 *84:118 3.79e-05
29 *176:13 *84:119 3.79e-05
30 *176:15 *84:119 5.78e-05
31 *176:13 *84:114 5.78e-05
32 *176:15 *84:114 3.67e-05
33 *176:13 *84:115 3.67e-05
34 *176:16 *84:106 2.926e-05
35 *176:14 *84:109 2.926e-05
36 *176:16 *84:109 5.544e-05
37 *176:14 *84:110 5.544e-05
38 *176:12 *84:114 0.00011809
39 *176:11 *84:115 0.000118090004

*RES
1 *176:19 *619:A1N 0.447748
2 *176:20 *176:19 3.19993
3 *176:6 *623:B0 6.4001
4 *176:6 *176:20 0.367767
5 *176:6 *176:5 0.312067
6 *176:18 *176:5 3.19993
7 *176:17 *176:18 0.919299
8 *176:16 *176:17 0.155914
9 *176:14 *176:16 2.20637
10 *176:14 *176:15 0.155914
11 *176:13 *176:15 4.22873
12 *176:12 *176:13 0.155914
13 *176:11 *176:12 3.30943
14 *176:11 *176:3 0.155914
15 *176:4 *176:3 1.10306
16 *176:10 *176:4 3.19993
17 *176:9 *176:10 15.6000004
18 *176:8 *176:9 3.19993
19 *176:7 *176:8 3.19993
20 *643:QN *176:7 3.19993
*END

*D_NET *177 0.000762361

*CONN
*I *452:A I *C 47.85 33.32 *L 0.00299 *D CLKBUFX2
*I *656:Q O *C 47.85 26.6 *L 0 *D DFFRHQX1

*CAP
1 *452:A 6.32976e-05
2 *656:Q 0.00013984
3 *177:2 0.0003111
4 *177:3 0.00024812

*RES
1 *177:3 *452:A 6.4000001
2 *177:2 *177:3 1.09199
3 *656:Q *177:2 3.2
*END

*D_NET *178 0.00341417

*CONN
*I *433:A I *C 32.01 23.24 *L 0.00446 *D BUFX3
*I *674:Q O *C 47.85 23.8 *L 0 *D DFFRHQX1

*CAP
1 *433:A 6.32984e-05
2 *674:Q 0.000139834
3 *178:2 0.00088885
4 *178:3 0.000117279
5 *178:4 0.000242181
6 *178:5 0.000242181
7 *178:6 0.00088885
8 *178:7 0.000239319
9 *178:8 0.000200054
10 *178:9 0.000196161
11 *178:10 0.000196161

*RES
1 *178:10 *674:Q 3.2
2 *178:9 *178:10 0.467969
3 *178:5 *433:A 6.4000001
4 *178:8 *178:9 3.2
5 *178:4 *178:5 1.09199
6 *178:7 *178:8 0.671484
7 *178:3 *178:4 6.4000001
8 *178:6 *178:7 0.379785
9 *178:2 *178:3 0.379785
10 *178:2 *178:6 4.70039
*END

*D_NET *179 0.0021671

*CONN
*I *444:A I *C 26.73 117.88 *L 0.0157 *D BUFX12
*I *675:Q O *C 32.01 106.68 *L 0 *D DFFHQX1

*CAP
1 *444:A 6.33016e-05
2 *675:Q 0.000139839
3 *179:2 0.000388631
4 *179:3 0.000403430117
5 *179:4 0.000120811
6 *179:5 0.000346451
7 *179:6 0.000120811
8 *179:7 7.24186e-05
9 *179:8 0.000346451
10 *179:2 *1:5 8.248e-05
11 *179:3 *1:4 8.24799991e-05

*RES
1 *179:7 *675:Q 3.2
2 *179:7 *179:3 0.183887
3 *179:3 *179:2 1.87197
4 *179:8 *179:2 6.4000001
5 *179:6 *444:A 6.4000001
6 *179:5 *179:8 1.65469
7 *179:4 *179:6 0.467969
8 *179:4 *179:5 6.4000001
*END

*D_NET *180 0.00207265

*CONN
*I *441:A I *C 46.53 103.88 *L 0.00406 *D CLKBUFX4
*I *672:Q O *C 32.01 105 *L 0 *D DFFHQX1

*CAP
1 *441:A 0.000139847
2 *672:Q 6.33035e-05
3 *180:2 0.0006726
4 *180:3 0.000638259
5 *180:4 5.09261e-05
6 *180:5 5.94446e-05
7 *180:6 0.000185272
8 *180:7 0.000120603
9 *180:8 0.000142412

*RES
1 *180:7 *441:A 3.2
2 *180:8 *180:7 3.2
3 *180:6 *180:8 0.551562
4 *180:6 *180:2 0.312012
5 *180:3 *180:2 3.30947
6 *180:5 *180:3 0.183887
7 *180:4 *180:5 6.4000001
8 *672:Q *180:4 6.4000001
*END

*D_NET *181 0.000649558

*CONN
*I *446:A I *C 47.19 117.88 *L 0.00766 *D CLKBUFX8
*I *660:Q O *C 45.87 115.08 *L 0 *D DFFHQX1

*CAP
1 *446:A 6.32998e-05
2 *660:Q 6.32998e-05
3 *181:2 6.57193e-05
4 *181:3 0.00019576
5 *181:4 0.00019576
6 *181:5 6.57193e-05

*RES
1 *181:5 *446:A 6.4000001
2 *181:4 *181:5 0.183887
3 *181:3 *181:4 0.77998
4 *181:2 *181:3 0.183887
5 *660:Q *181:2 6.4000001
*END

*D_NET *182 0.00278745

*CONN
*I *438:A I *C 46.53 107.8 *L 0.00331 *D CLKBUFX3
*I *663:Q O *C 32.01 115.08 *L 0 *D DFFHQX1

*CAP
1 *438:A 0.000139836
2 *663:Q 0.000139836
3 *182:2 0.000743544
4 *182:3 0.00081322
5 *182:4 0.000112425
6 *182:5 0.000182114
7 *182:6 0.000169357
8 *182:7 0.000239046
9 *182:2 *83:171 9.981e-05
10 *182:3 *83:172 9.981e-05
11 *182:7 *83:173 2.423e-05
12 *182:6 *83:174 2.42299999e-05

*RES
1 *182:6 *438:A 3.19998
2 *182:6 *182:7 0.935978
3 *182:2 *182:7 3.19998
4 *182:3 *182:2 4.04485703
5 *182:5 *663:Q 3.19998
6 *182:4 *182:3 3.19998
7 *182:4 *182:5 0.311993
*END

*D_NET *183 0.00400372

*CONN
*I *449:A I *C 32.67 87.64 *L 0.00446 *D BUFX3
*I *664:Q O *C 45.21 105 *L 0 *D DFFHQX1

*CAP
1 *449:A 0.00013984
2 *664:Q 6.33034e-05
3 *183:2 8.41924e-05
4 *183:3 8.41924e-05
5 *183:4 0.00042995
6 *183:5 0.00042995
7 *183:6 0.000296068
8 *183:7 0.000296068
9 *183:8 0.000252938
10 *183:9 0.000238137
11 *183:10 0.000373109
12 *183:11 0.000381808
13 *183:12 0.00028189
14 *183:13 0.00028189
15 *183:14 0.000182818
16 *183:15 0.000121844
17 *183:16 6.57177e-05

*RES
1 *183:16 *664:Q 6.4000001
2 *183:2 *183:16 0.183887
3 *183:3 *183:2 0.312012
4 *183:4 *183:3 0.183887
5 *183:5 *183:4 1.87197
6 *183:5 *183:8 0.183887
7 *183:9 *183:8 0.936035
8 *183:10 *183:9 6.4000001
9 *183:11 *183:10 1.65469
10 *183:6 *183:11 0.155957
11 *183:7 *183:6 1.28701
12 *183:7 *183:15 0.155957
13 *183:14 *183:15 0.367676
14 *183:13 *183:14 3.2
15 *183:12 *183:13 0.936035
16 *449:A *183:12 3.2
*END

*D_NET *184 0.0057243

*CONN
*I *447:A I *C 31.35 63.56 *L 0.00446 *D BUFX3
*I *670:Q O *C 32.01 94.92 *L 0 *D DFFHQX1

*CAP
1 *447:A 0.000139843
2 *670:Q 0.000139843
3 *184:2 0.000166711
4 *184:3 0.000166711
5 *184:4 0.000403554
6 *184:5 0.000403554
7 *184:6 0.00114787
8 *184:7 0.000528824
9 *184:8 0.000117984
10 *184:9 0.000172859
11 *184:10 0.000699564
12 *184:11 0.000351323
13 *184:12 0.000420999
14 *184:13 0.000120593
15 *184:14 0.000140631
16 *184:15 0.000195489
17 *184:4 *38:8 2.527e-05
18 *184:5 *38:9 2.527e-05
19 *184:6 *38:2 5.868e-05
20 *184:7 *38:3 5.868e-05
21 *184:8 *38:2 2.401e-05
22 *184:9 *38:3 2.40099986e-05
23 *184:10 *47:12 5.89e-05
24 *184:6 *47:10 5.89e-05
25 *184:10 *47:2 3.711e-05
26 *184:6 *47:3 3.71099984e-05

*RES
1 *184:13 *670:Q 3.20002
2 *184:12 *184:13 3.20002
3 *184:12 *184:11 1.65474
4 *184:15 *184:11 3.20002
5 *184:14 *184:15 0.468
6 *184:14 *184:10 0.183841
7 *184:6 *184:10 3.74399996
8 *184:7 *184:6 2.808
9 *184:8 *184:7 0.183841
10 *184:9 *184:8 0.468
11 *184:4 *184:9 3.20002
12 *184:5 *184:4 1.83858
13 *184:2 *184:5 3.20002
14 *184:3 *184:2 0.468
15 *447:A *184:3 3.20002
*END

*D_NET *185 0.00116626

*CONN
*I *445:A I *C 37.29 93.8 *L 0.0106 *D BUFX8
*I *666:Q O *C 32.01 96.6 *L 0 *D DFFHQX1

*CAP
1 *445:A 6.3301e-05
2 *666:Q 6.3301e-05
3 *185:2 0.0003323
4 *185:3 0.0003323
5 *185:4 0.000162071
6 *185:5 0.000162071
7 *185:6 5.09187e-05

*RES
1 *185:5 *445:A 6.4000001
2 *185:5 *185:4 0.77998
3 *185:2 *185:4 6.4000001
4 *185:3 *185:2 1.4709
5 *185:6 *185:3 6.4000001
6 *666:Q *185:6 6.4000001
*END

*D_NET *186 0.00129316

*CONN
*I *435:A I *C 27.39 87.64 *L 0.0106 *D BUFX8
*I *673:Q O *C 32.01 84.84 *L 0 *D DFFHQX1

*CAP
1 *435:A 0.000139839
2 *673:Q 0.000139839
3 *186:2 0.000222622
4 *186:3 0.00031896
5 *186:4 0.0002787
6 *186:5 0.000193201

*RES
1 *186:5 *673:Q 3.20000005
2 *186:3 *186:5 0.735449
3 *186:3 *186:4 0.77998
4 *186:2 *186:4 0.551562
5 *435:A *186:2 3.20000005
*END

*D_NET *187 0.00587732

*CONN
*I *405:A I *C 33.33 117.88 *L 0.0106 *D BUFX8
*I *671:Q O *C 32.01 76.44 *L 0 *D DFFHQX1

*CAP
1 *405:A 6.33031e-05
2 *671:Q 7.97235e-05
3 *187:2 0.000572015
4 *187:3 0.000557218
5 *187:4 0.000508449
6 *187:5 0.000508449
7 *187:6 0.000694504
8 *187:7 0.00074938
9 *187:8 5.09764e-05
10 *187:9 6.5773e-05
11 *187:10 0.000152106
12 *187:11 0.000152106
13 *187:12 0.000167348
14 *187:13 0.000167348
15 *187:14 0.000224328
16 *187:15 0.000239125
17 *187:16 0.000115057
18 *187:17 5.09192e-05
19 *187:6 *66:7 0.00016559
20 *187:7 *66:6 0.00016559
21 *187:6 *66:5 0.00020588
22 *187:7 *66:4 0.00020588
23 *187:8 *66:5 8.13e-06
24 *187:9 *66:4 8.13000025e-06

*RES
1 *671:Q *187:16 0.447656
2 *187:7 *187:16 3.2
3 *187:7 *187:6 3.74404
4 *187:17 *405:A 6.4000001
5 *187:9 *187:6 0.183887
6 *187:12 *187:17 6.4000001
7 *187:9 *187:8 0.155957
8 *187:13 *187:12 0.735449
9 *187:10 *187:8 6.4000001
10 *187:14 *187:13 6.4000001
11 *187:11 *187:10 0.551562
12 *187:15 *187:14 1.24805
13 *187:3 *187:11 6.4000001
14 *187:4 *187:15 0.183887
15 *187:3 *187:2 3.12002
16 *187:5 *187:4 2.65195
17 *187:5 *187:2 0.183887
*END

*D_NET *188 0.00294467

*CONN
*I *436:A I *C 32.01 47.32 *L 0.0058 *D BUFX4
*I *662:Q O *C 32.01 66.36 *L 0 *D DFFHQX1

*CAP
1 *436:A 6.32969e-05
2 *662:Q 0.000139853
3 *188:2 0.00113586
4 *188:3 0.00105534
5 *188:4 0.000140373
6 *188:5 0.000140373
7 *188:6 6.57234e-05
8 *188:7 5.09217e-05
9 *188:8 0.000152939

*RES
1 *188:7 *436:A 6.4000001
2 *188:4 *188:7 6.4000001
3 *188:5 *188:4 0.367676
4 *188:8 *662:Q 3.2
5 *188:6 *188:5 6.4000001
6 *188:2 *188:8 0.551562
7 *188:3 *188:6 0.183887
8 *188:3 *188:2 5.304
*END

*D_NET *189 0.00232055

*CONN
*I *404:A I *C 23.43 63.56 *L 0.00446 *D BUFX3
*I *665:Q O *C 32.01 74.76 *L 0 *D DFFHQX1

*CAP
1 *404:A 6.32986e-05
2 *665:Q 6.32986e-05
3 *189:2 0.000446121
4 *189:3 0.000460919297
5 *189:4 6.5718e-05
6 *189:5 0.000447781
7 *189:6 5.09202e-05
8 *189:7 0.000447781
9 *189:2 *97:9 0.00011647
10 *189:3 *97:8 0.00011647
11 *189:2 *97:5 2.089e-05
12 *189:3 *97:4 2.08899986e-05

*RES
1 *189:6 *665:Q 6.4000001
2 *189:7 *189:6 6.4000001
3 *189:5 *189:7 2.20625
4 *189:2 *189:5 6.4000001
5 *189:3 *189:2 2.34004
6 *189:4 *189:3 0.183887
7 *404:A *189:4 6.4000001
*END

*D_NET *190 0.00502958

*CONN
*I *448:A I *C 45.87 83.72 *L 0.00446 *D BUFX3
*I *661:Q O *C 32.01 56.28 *L 0 *D DFFHQX1

*CAP
1 *448:A 0.00013984
2 *661:Q 0.00013984
3 *190:2 0.000208543
4 *190:3 0.000208543
5 *190:4 0.000249925
6 *190:5 0.000241235
7 *190:6 0.000427271
8 *190:7 0.000427271
9 *190:8 0.000206492
10 *190:9 0.00111336
11 *190:10 0.000197802
12 *190:11 0.001139
13 *190:12 0.000212871
14 *190:13 0.000117558

*RES
1 *190:13 *448:A 3.19997
2 *190:12 *190:13 0.624014
3 *190:11 *190:12 0.551532
4 *190:9 *190:11 5.46000004
5 *190:10 *190:9 3.19997
6 *190:8 *190:10 0.551532
7 *190:7 *190:8 0.155962
8 *190:6 *190:7 1.83855
9 *190:6 *190:4 0.155962
10 *190:5 *190:4 0.919276
11 *190:2 *190:5 3.19997
12 *190:3 *190:2 0.779976
13 *661:Q *190:3 3.19997
*END

*D_NET *191 0.00146675

*CONN
*I *442:A I *C 36.63 47.32 *L 0.0058 *D BUFX4
*I *667:Q O *C 31.35 54.6 *L 0 *D DFFHQX1

*CAP
1 *442:A 7.97313e-05
2 *667:Q 7.97313e-05
3 *191:2 0.00044009
4 *191:3 0.000115061
5 *191:4 0.000374192
6 *191:5 0.000115061
7 *191:6 0.000262879

*RES
1 *191:5 *442:A 0.447656
2 *191:6 *191:5 3.20000005
3 *191:2 *191:6 0.735449
4 *191:2 *191:4 1.404
5 *191:3 *191:4 3.20000005
6 *667:Q *191:3 0.447656
*END

*D_NET *192 0.00210992

*CONN
*I *443:A I *C 40.59 47.32 *L 0.00766 *D CLKBUFX8
*I *659:Q O *C 31.35 44.52 *L 0 *D DFFHQX1

*CAP
1 *443:A 0.000139841
2 *659:Q 0.000139841
3 *192:2 0.000199839
4 *192:3 0.000191139
5 *192:4 0.000120601
6 *192:5 0.000295570605
7 *192:6 0.00010417
8 *192:7 0.000295570605
9 *192:8 0.000263941
10 *192:9 9.54702e-05
11 *192:10 0.000263941

*RES
1 *192:10 *443:A 3.20000005
2 *192:8 *192:10 0.77998
3 *192:9 *192:8 3.20000005
4 *192:6 *192:9 0.551562
5 *192:6 *192:7 0.156006
6 *192:5 *192:7 1.28701
7 *192:2 *192:5 0.156006
8 *192:3 *192:2 0.735449
9 *192:4 *192:3 3.20000005
10 *659:Q *192:4 3.20000005
*END

*D_NET *193 0.00252795

*CONN
*I *440:A I *C 45.21 33.32 *L 0.00331 *D CLKBUFX3
*I *669:Q O *C 31.35 36.12 *L 0 *D DFFHQX1

*CAP
1 *440:A 0.000119589
2 *669:Q 0.000164733
3 *193:2 0.000162479
4 *193:3 0.00044887
5 *193:4 0.000200062
6 *193:5 0.000162479
7 *193:6 0.000154918
8 *193:7 0.00018424
9 *193:8 0.00018424
10 *193:9 0.00044887
11 *193:9 *83:105 8.95e-05
12 *193:3 *83:106 8.95e-05
13 *193:9 *83:106 1.506e-05
14 *193:3 *83:107 1.506e-05
15 *193:9 *83:107 6.68e-06
16 *193:3 *83:108 6.68e-06
17 *193:9 *83:109 3.75e-05
18 *193:3 *83:110 3.75000036e-05

*RES
1 *193:6 *440:A 0.671484
2 *193:7 *193:6 3.20000005
3 *193:7 *193:8 0.468018
4 *193:9 *193:8 3.20000005
5 *193:3 *193:9 2.75786
6 *193:2 *193:3 3.20000005
7 *193:2 *193:5 0.312012
8 *193:4 *193:5 3.20000005
9 *669:Q *193:4 0.671484
*END

*D_NET *194 0.00178639

*CONN
*I *437:A I *C 37.95 33.32 *L 0.0106 *D BUFX8
*I *668:Q O *C 32.01 26.04 *L 0 *D DFFHQX1

*CAP
1 *437:A 0.000139843
2 *668:Q 0.000139843
3 *194:2 0.000350931875
4 *194:3 0.000350931875
5 *194:4 0.000120603
6 *194:5 0.000342118
7 *194:6 0.000342118

*RES
1 *194:6 *437:A 3.20000005
2 *194:5 *194:6 1.248
3 *194:2 *194:5 3.20000005
4 *194:3 *194:2 1.65474
5 *194:4 *194:3 3.20000005
6 *668:Q *194:4 3.20000005
*END

*D_NET *211 0.001899

*CONN
*I *633:A0 I *C 115.83 68.04 *L 0.00314 *D AOI21XL
*I *584:QN O *C 121.11 73.64 *L 0 *D DFFTRX1

*CAP
1 *633:A0 0.000139841
2 *584:QN 0.000139841
3 *211:2 0.000338578
4 *211:3 0.00040826
5 *211:4 0.000120598
6 *211:5 0.00041078
7 *211:6 0.000341098

*RES
1 *211:2 *584:QN 3.20000005
2 *211:3 *211:2 1.56001
3 *211:6 *211:3 3.20000005
4 *211:5 *211:6 1.47085
5 *211:4 *211:5 3.20000005
6 *633:A0 *211:4 3.20000005
*END

*D_NET *212 0.0018322

*CONN
*I *623:A0 I *C 85.47 93.24 *L 0.00314 *D AOI21XL
*I *577:QN O *C 89.43 97.72 *L 0 *D DFFTRX1

*CAP
1 *623:A0 0.000139841
2 *577:QN 0.000139841
3 *212:2 0.000413
4 *212:3 0.000413
5 *212:4 0.00027176
6 *212:5 5.66611e-05
7 *212:6 0.000126336
8 *212:7 0.00027176

*RES
1 *212:5 *577:QN 3.20000005
2 *212:5 *212:6 0.156006
3 *212:7 *212:6 3.20000005
4 *212:4 *212:7 1.10312
5 *212:3 *212:4 3.20000005
6 *212:2 *212:3 1.404
7 *623:A0 *212:2 3.20000005
*END

*D_NET *213 0.00166184

*CONN
*I *627:A0 I *C 110.55 83.16 *L 0.00314 *D AOI21XL
*I *587:QN O *C 115.83 87.64 *L 0 *D DFFTRX1

*CAP
1 *627:A0 0.000139835
2 *587:QN 0.000139835
3 *213:2 0.000347686
4 *213:3 0.00050872
5 *213:4 0.000343401
6 *213:5 0.000182366

*RES
1 *213:5 *587:QN 3.20000005
2 *213:2 *213:5 0.367725
3 *213:3 *213:2 1.248
4 *213:4 *213:3 1.10312
5 *627:A0 *213:4 3.20000005
*END

*D_NET *214 0.00198361

*CONN
*I *632:A0 I *C 51.81 63 *L 0.00314 *D AOI21XL
*I *586:QN O *C 57.09 57.4 *L 0 *D DFFTRX1

*CAP
1 *632:A0 0.000139839
2 *586:QN 3.98593e-05
3 *214:2 0.000192841
4 *214:3 0.000246591
5 *214:4 0.000123158
6 *214:5 0.000151729
7 *214:6 0.000275387
8 *214:7 0.00034507
9 *214:8 0.000246591
10 *214:8 *169:3 0.00010693
11 *214:3 *169:4 0.00010693
12 *214:4 *169:5 4.34e-06
13 *214:2 *169:6 4.34000426e-06

*RES
1 *586:QN *214:5 0.223828
2 *214:6 *214:5 3.20000005
3 *214:6 *214:7 1.09199
4 *214:8 *214:7 3.20000005
5 *214:4 *632:A0 3.20000005
6 *214:3 *214:8 1.65474
7 *214:2 *214:4 0.468018
8 *214:2 *214:3 3.20000005
*END

*D_NET *215 0.00227132

*CONN
*I *634:A0 I *C 106.59 57.96 *L 0.00314 *D AOI21XL
*I *585:QN O *C 120.45 57.4 *L 0 *D DFFTRX1

*CAP
1 *634:A0 0.000139831
2 *585:QN 0.000139831
3 *215:2 0.000128058
4 *215:3 0.00071043
5 *215:4 0.000128058
6 *215:5 0.0001206
7 *215:6 0.00071043
8 *215:6 *154:5 5.185e-05
9 *215:3 *154:6 5.185e-05
10 *215:6 *154:7 4.518e-05
11 *215:3 *154:8 4.51800029e-05

*RES
1 *215:5 *585:QN 3.19998
2 *215:6 *215:5 3.19998
3 *215:4 *634:A0 3.19998
4 *215:3 *215:6 3.86100006
5 *215:2 *215:4 0.156005
6 *215:2 *215:3 3.19998
*END

*D_NET *216 0.0026676

*CONN
*I *679:QN O *C 108.57 26.6 *L 0 *D DFFX1
*I *543:B0 I *C 97.35 33.32 *L 0.00457 *D OAI22X1

*CAP
1 *679:QN 0.000139839
2 *543:B0 0.000139839
3 *216:2 0.000122308
4 *216:3 5.26233e-05
5 *216:4 0.00040421
6 *216:5 0.000334525
7 *216:6 0.00064221
8 *216:7 0.000572526
9 *216:7 *83:102 0.00010371
10 *216:6 *83:103 0.00010371
11 *216:7 *83:103 7.53e-06
12 *216:6 *83:101 7.53e-06
13 *216:7 *83:101 1.335e-05
14 *216:6 *83:98 1.335e-05
15 *216:2 *83:97 5.17e-06
16 *216:3 *83:104 5.16999866e-06

*RES
1 *216:3 *679:QN 3.20000005
2 *216:3 *216:2 0.156006
3 *216:7 *216:2 3.20000005
4 *216:4 *543:B0 3.20000005
5 *216:6 *216:7 3.12559
6 *216:5 *216:4 1.09199
7 *216:5 *216:6 3.20000005
*END

*D_NET *217 0.00225148

*CONN
*I *630:A0 I *C 110.55 52.92 *L 0.00314 *D AOI21XL
*I *571:QN O *C 121.11 47.32 *L 0 *D DFFTRX1

*CAP
1 *630:A0 6.32965e-05
2 *571:QN 6.32965e-05
3 *217:2 0.000214408
4 *217:3 0.000127184
5 *217:4 0.000214408
6 *217:5 0.0005101
7 *217:6 0.000170041
8 *217:7 5.09205e-05
9 *217:8 0.000467243
10 *217:6 *84:59 2.377e-05
11 *217:3 *84:60 2.377e-05
12 *217:4 *84:51 0.00016152
13 *217:2 *84:52 0.000161519997

*RES
1 *217:7 *571:QN 6.4000001
2 *217:8 *217:7 6.4000001
3 *217:5 *217:8 2.39014
4 *217:5 *217:6 0.312012
5 *217:4 *630:A0 6.4000001
6 *217:3 *217:6 0.551562
7 *217:2 *217:4 1.24805
8 *217:2 *217:3 6.4000001
*END

*D_NET *218 0.00121182

*CONN
*I *625:A0 I *C 99.99 93.24 *L 0.00314 *D AOI21XL
*I *578:QN O *C 101.97 97.72 *L 0 *D DFFTRX1

*CAP
1 *625:A0 0.000139838
2 *578:QN 0.000139838
3 *218:2 0.000222779
4 *218:3 0.00040242
5 *218:4 0.000306941

*RES
1 *218:4 *578:QN 3.20000005
2 *218:3 *218:4 1.248
3 *218:2 *218:3 0.551562
4 *625:A0 *218:2 3.20000005
*END

*D_NET *219 0.00204583

*CONN
*I *628:A0 I *C 63.03 52.92 *L 0.00314 *D AOI21XL
*I *575:QN O *C 70.29 47.32 *L 0 *D DFFTRX1

*CAP
1 *628:A0 0.000139841
2 *575:QN 0.000139841
3 *219:2 0.00022139
4 *219:3 0.000291069
5 *219:4 0.000150611
6 *219:5 0.000150611
7 *219:6 0.00051107
8 *219:7 0.000441391

*RES
1 *219:5 *575:QN 3.20000005
2 *219:5 *219:4 0.624023
3 *219:6 *219:4 3.20000005
4 *219:2 *628:A0 3.20000005
5 *219:7 *219:6 2.02241
6 *219:3 *219:2 0.935986
7 *219:3 *219:7 3.20000005
*END

*D_NET *220 0.00242016

*CONN
*I *629:A0 I *C 65.01 88.2 *L 0.00314 *D AOI21XL
*I *583:QN O *C 70.95 93.8 *L 0 *D DFFTRX1

*CAP
1 *629:A0 0.000139839
2 *583:QN 0.000139839
3 *220:2 0.000358036
4 *220:3 0.00042772
5 *220:4 8.19348e-05
6 *220:5 9.11895e-05
7 *220:6 0.000157128
8 *220:7 0.000147873
9 *220:8 5.09204e-05
10 *220:6 *83:156 0.00018786
11 *220:7 *83:157 0.00018786
12 *220:4 *83:156 3.753e-05
13 *220:5 *83:157 3.753e-05
14 *220:2 *83:161 8.13e-06
15 *220:3 *83:162 8.12999555e-06
16 *220:4 *26:12 9.545e-05
17 *220:5 *26:10 9.545e-05
18 *220:6 *26:10 7.505e-05
19 *220:7 *26:9 7.505e-05
20 *220:2 *26:5 8.82e-06
21 *220:3 *26:6 8.82000785e-06

*RES
1 *220:2 *583:QN 3.2
2 *220:3 *220:2 1.71602
3 *220:4 *220:3 3.2
4 *220:5 *220:4 0.551562
5 *220:5 *220:6 0.155957
6 *220:7 *220:6 1.10312
7 *220:8 *220:7 6.4000001
8 *629:A0 *220:8 3.2
*END

*D_NET *221 0.00146191

*CONN
*I *624:A0 I *C 70.95 103.32 *L 0.00314 *D AOI21XL
*I *574:QN O *C 74.25 97.72 *L 0 *D DFFTRX1

*CAP
1 *624:A0 0.000139838
2 *574:QN 0.000139838
3 *221:2 0.000350971
4 *221:3 0.00052747
5 *221:4 0.000303797

*RES
1 *221:2 *624:A0 3.20000005
2 *221:4 *574:QN 3.20000005
3 *221:3 *221:2 1.56001
4 *221:3 *221:4 0.919287
*END

*D_NET *222 0.00103583

*CONN
*I *635:A0 I *C 61.71 78.12 *L 0.00314 *D AOI21XL
*I *582:QN O *C 58.41 77.56 *L 0 *D DFFTRX1

*CAP
1 *635:A0 0.00013984
2 *582:QN 7.97309e-05
3 *222:2 0.000180499
4 *222:3 0.000115062
5 *222:4 0.000154461
6 *222:5 0.000196139922
7 *222:6 0.000170099

*RES
1 *222:6 *635:A0 3.20000005
2 *222:5 *222:6 0.468018
3 *222:2 *222:5 0.551562
4 *222:2 *222:4 0.312012
5 *222:3 *222:4 3.20000005
6 *582:QN *222:3 0.447656
*END

*D_NET *223 0.00247286

*CONN
*I *626:A0 I *C 105.93 78.12 *L 0.00314 *D AOI21XL
*I *572:QN O *C 120.45 77.56 *L 0 *D DFFTRX1

*CAP
1 *626:A0 0.000139837
2 *572:QN 0.000139837
3 *223:2 5.72346e-05
4 *223:3 0.000126925
5 *223:4 0.00057564
6 *223:5 0.000266445
7 *223:6 0.000175446
8 *223:7 0.000164088
9 *223:8 0.000164088
10 *223:9 0.00041496
11 *223:9 *158:7 8.112e-05
12 *223:4 *158:8 8.112e-05
13 *223:4 *158:9 4.305e-05
14 *223:5 *158:10 4.30499982e-05

*RES
1 *223:2 *572:QN 3.20000005
2 *223:3 *223:2 0.156006
3 *223:9 *223:3 3.20000005
4 *223:4 *223:9 2.57402
5 *223:5 *223:4 1.10312
6 *223:8 *626:A0 3.20000005
7 *223:6 *223:5 0.367725
8 *223:7 *223:8 0.312012
9 *223:7 *223:6 3.20000005
*END

*D_NET *224 0.00227692

*CONN
*I *638:A0 I *C 50.49 47.88 *L 0.00314 *D AOI21XL
*I *581:QN O *C 57.75 43.4 *L 0 *D DFFTRX1

*CAP
1 *638:A0 0.00013984
2 *581:QN 0.00013984
3 *224:2 0.000157909
4 *224:3 0.000157909
5 *224:4 0.000301173
6 *224:5 0.000159641
7 *224:6 0.000159641
8 *224:7 0.00037085
9 *224:7 *6:4 0.00015824
10 *224:4 *6:5 0.00015824
11 *224:7 *84:53 7.605e-05
12 *224:4 *84:54 7.605e-05
13 *224:2 *84:27 9.96e-06
14 *224:3 *84:28 9.96000582e-06
15 *224:6 *175:7 0.00010081
16 *224:5 *175:8 0.000100809999

*RES
1 *224:5 *581:QN 3.20000005
2 *224:5 *224:6 0.77998
3 *224:7 *224:6 3.20000005
4 *224:2 *638:A0 3.20000005
5 *224:4 *224:7 2.02241
6 *224:3 *224:2 0.468018
7 *224:3 *224:4 3.20000005
*END

*D_NET *225 0.00181105

*CONN
*I *636:A0 I *C 109.23 103.32 *L 0.00314 *D AOI21XL
*I *580:QN O *C 115.17 97.72 *L 0 *D DFFTRX1

*CAP
1 *636:A0 0.000139844
2 *580:QN 0.000139844
3 *225:2 0.000105902
4 *225:3 0.000105902
5 *225:4 0.000224568
6 *225:5 0.000294251
7 *225:6 0.00043521
8 *225:7 0.000365527

*RES
1 *225:3 *580:QN 3.20000005
2 *225:3 *225:2 0.624023
3 *225:6 *225:2 3.20000005
4 *225:4 *636:A0 3.20000005
5 *225:7 *225:6 1.65474
6 *225:5 *225:4 0.935986
7 *225:5 *225:7 3.20000005
*END

*D_NET *226 0.000854133

*CONN
*I *639:A0 I *C 61.71 73.08 *L 0.00314 *D AOI21XL
*I *579:QN O *C 58.41 73.64 *L 0 *D DFFTRX1

*CAP
1 *639:A0 0.00013984
2 *579:QN 3.98596e-05
3 *226:2 0.000117001
4 *226:3 7.7161e-05
5 *226:4 0.000115031
6 *226:5 0.00018262
7 *226:6 0.00018262

*RES
1 *226:6 *639:A0 3.20000005
2 *226:5 *226:6 0.367725
3 *226:4 *226:5 3.20000005
4 *226:2 *226:4 0.447656
5 *226:2 *226:3 0.189893
6 *579:QN *226:3 0.223828
*END

*D_NET *227 0.0016863

*CONN
*I *637:A0 I *C 53.13 88.2 *L 0.00314 *D AOI21XL
*I *573:QN O *C 59.07 83.72 *L 0 *D DFFTRX1

*CAP
1 *637:A0 6.33039e-05
2 *573:QN 0.000139838
3 *227:2 0.000174976
4 *227:3 0.000244656
5 *227:4 0.000154131
6 *227:5 0.000154131
7 *227:6 0.00034279
8 *227:7 0.00041247

*RES
1 *227:5 *573:QN 3.2
2 *227:5 *227:4 0.624023
3 *227:7 *227:4 3.2
4 *227:2 *637:A0 6.4000001
5 *227:6 *227:7 1.65469
6 *227:3 *227:2 0.624023
7 *227:3 *227:6 3.2
*END

*D_NET *228 0.000831441

*CONN
*I *650:Y O *C 86.13 38.36 *L 0 *D AOI22X1
*I *622:B I *C 86.13 32.2 *L 0.00627 *D XOR2X1

*CAP
1 *650:Y 6.33017e-05
2 *622:B 0.000139841
3 *228:2 0.000273893
4 *228:3 0.00028869
5 *228:4 6.57201e-05

*RES
1 *228:4 *650:Y 6.4000001
2 *228:3 *228:4 0.183887
3 *228:2 *228:3 1.24805
4 *622:B *228:2 3.2
*END

*D_NET *229 0.00237287

*CONN
*I *387:A I *C 58.41 63.56 *L 0.00446 *D BUFX3
*I *639:Y O *C 63.03 74.2 *L 0 *D AOI21XL

*CAP
1 *387:A 6.33026e-05
2 *639:Y 6.33026e-05
3 *229:2 0.000124793
4 *229:3 5.5127e-05
5 *229:4 0.00061233
6 *229:5 0.00061233
7 *229:6 0.000260209
8 *229:7 0.000260209
9 *229:4 *83:125 0.00016063
10 *229:5 *83:88 0.000160629993

*RES
1 *229:3 *639:Y 6.4000001
2 *229:3 *229:2 0.155957
3 *229:7 *229:2 3.2
4 *229:6 *229:7 1.28701
5 *229:4 *229:6 6.4000001
6 *229:5 *229:4 3.12002
7 *387:A *229:5 6.4000001
*END

*D_NET *230 0.00163642

*CONN
*I *422:A I *C 44.55 43.4 *L 0.00446 *D BUFX3
*I *638:Y O *C 49.17 46.76 *L 0 *D AOI21XL

*CAP
1 *422:A 6.3302e-05
2 *638:Y 6.3302e-05
3 *230:2 5.64205e-05
4 *230:3 5.64205e-05
5 *230:4 0.00021609
6 *230:5 0.000160962
7 *230:6 0.00021609
8 *230:7 0.000160962
9 *230:6 *84:53 3.131e-05
10 *230:4 *84:54 3.131e-05
11 *230:7 *84:55 4.071e-05
12 *230:5 *84:56 4.071e-05
13 *230:7 *84:56 2.034e-05
14 *230:5 *84:57 2.034e-05
15 *230:7 *84:27 9.92e-06
16 *230:5 *84:28 9.92000021e-06
17 *230:6 *174:3 0.00021916
18 *230:4 *174:4 0.000219159993

*RES
1 *230:7 *638:Y 6.4000001
2 *230:5 *230:7 0.77998
3 *230:6 *230:5 6.4000001
4 *230:4 *230:6 1.28701
5 *230:3 *230:4 6.4000001
6 *230:2 *230:3 0.155957
7 *422:A *230:2 6.4000001
*END

*D_NET *231 0.000804579

*CONN
*I *424:A I *C 49.17 87.64 *L 0.00446 *D BUFX3
*I *637:Y O *C 51.81 87.08 *L 0 *D AOI21XL

*CAP
1 *424:A 3.98599e-05
2 *637:Y 3.98599e-05
3 *231:2 0.000151748
4 *231:3 0.00028527
5 *231:4 7.71602e-05
6 *231:5 0.000210682

*RES
1 *231:4 *637:Y 0.223826
2 *231:4 *231:5 0.189919
3 *231:3 *231:5 0.895304322
4 *231:2 *424:A 0.223826
5 *231:2 *231:3 0.569743
*END

*D_NET *232 0.00188686

*CONN
*I *425:A I *C 115.83 97.72 *L 0.00446 *D BUFX3
*I *636:Y O *C 110.55 104.44 *L 0 *D AOI21XL

*CAP
1 *425:A 6.32976e-05
2 *636:Y 0.000139842
3 *232:2 0.000402270078
4 *232:3 0.000402270078
5 *232:4 0.000261698
6 *232:5 0.000246899
7 *232:6 6.57222e-05
8 *232:7 5.09168e-05
9 *232:2 *147:5 0.00012697
10 *232:3 *147:6 0.000126969999

*RES
1 *232:7 *425:A 6.4000001
2 *232:2 *232:7 6.4000001
3 *232:3 *232:2 1.28701
4 *232:6 *232:3 6.4000001
5 *232:5 *636:Y 3.2
6 *232:4 *232:6 0.183887
7 *232:4 *232:5 1.404
*END

*D_NET *233 0.00305527

*CONN
*I *384:A I *C 54.45 87.64 *L 0.00446 *D BUFX3
*I *635:Y O *C 63.03 77 *L 0 *D AOI21XL

*CAP
1 *384:A 6.33059e-05
2 *635:Y 0.000139836
3 *233:2 0.000418462
4 *233:3 0.000305054
5 *233:4 0.00066668
6 *233:5 0.00066668
7 *233:6 0.000359194
8 *233:7 0.0001206
9 *233:8 0.000315451

*RES
1 *233:7 *635:Y 3.2
2 *233:8 *233:7 3.2
3 *233:6 *233:8 0.919238
4 *233:2 *233:6 0.624023
5 *233:5 *384:A 6.4000001
6 *233:3 *233:2 1.4709
7 *233:4 *233:5 3.12002
8 *233:4 *233:3 6.4000001
*END

*D_NET *234 0.00207681

*CONN
*I *392:A I *C 117.15 63.56 *L 0.00446 *D BUFX3
*I *634:Y O *C 107.91 56.84 *L 0 *D AOI21XL

*CAP
1 *392:A 6.33035e-05
2 *634:Y 8.06627e-05
3 *234:2 0.000346299
4 *234:3 0.000346299
5 *234:4 0.000290658
6 *234:5 0.00042624
7 *234:6 0.000211172
8 *234:7 0.000145267
9 *234:8 0.000115992
10 *234:9 5.09199e-05

*RES
1 *234:9 *392:A 6.4000001
2 *234:2 *234:9 6.4000001
3 *234:3 *234:2 1.4709
4 *234:4 *234:3 6.4000001
5 *234:5 *234:4 1.09199
6 *234:6 *234:5 0.735449
7 *234:7 *234:6 0.312012
8 *234:8 *234:7 3.2
9 *634:Y *234:8 0.447656
*END

*D_NET *235 7.972e-05

*CONN
*I *391:A I *C 117.81 67.48 *L 0.00446 *D BUFX3
*I *633:Y O *C 117.15 66.92 *L 0 *D AOI21XL

*CAP
1 *391:A 3.986e-05
2 *633:Y 3.986e-05

*RES
1 *633:Y *391:A 0.223826
*END

*D_NET *236 0.00232777

*CONN
*I *421:A I *C 48.51 53.48 *L 0.00446 *D BUFX3
*I *632:Y O *C 53.13 64.12 *L 0 *D AOI21XL

*CAP
1 *421:A 3.98564e-05
2 *632:Y 0.00013984
3 *236:2 0.000328649
4 *236:3 0.000328649
5 *236:4 7.31842e-05
6 *236:5 7.31842e-05
7 *236:6 0.000260447
8 *236:7 0.00033013
9 *236:8 7.71588e-05
10 *236:9 7.99898e-05
11 *236:10 6.57187e-05
12 *236:11 0.000212581
13 *236:12 0.000197781
14 *236:13 0.000120602

*RES
1 *236:13 *632:Y 3.2
2 *236:6 *236:13 3.2
3 *236:7 *236:6 1.28701
4 *236:12 *236:7 3.2
5 *236:11 *236:12 1.09199
6 *236:11 *236:2 0.183887
7 *236:3 *236:2 1.09199
8 *236:4 *236:3 0.183887
9 *236:5 *236:4 0.155957
10 *236:10 *236:5 0.183887
11 *236:9 *236:10 6.4000001
12 *236:8 *421:A 0.223828
13 *236:8 *236:9 0.189941
*END

*D_NET *237 0.00110338

*CONN
*I *393:A I *C 115.17 53.48 *L 0.00446 *D BUFX3
*I *630:Y O *C 111.87 54.04 *L 0 *D AOI21XL

*CAP
1 *393:A 6.33007e-05
2 *630:Y 6.33007e-05
3 *237:2 0.00011721
4 *237:3 0.00011721
5 *237:4 5.09207e-05
6 *237:5 6.57206e-05
7 *237:6 0.00010216
8 *237:7 8.73598e-05
9 *237:2 *157:5 0.00012341
10 *237:3 *157:6 0.000123409995
11 *237:2 *33:5 9.469e-05
12 *237:3 *33:6 9.46899964e-05

*RES
1 *237:7 *393:A 6.4000001
2 *237:6 *237:7 0.312012
3 *237:5 *237:6 0.183887
4 *237:2 *237:5 6.4000001
5 *237:3 *237:2 0.735449
6 *237:4 *237:3 6.4000001
7 *630:Y *237:4 6.4000001
*END

*D_NET *238 0.00162757

*CONN
*I *385:A I *C 61.71 87.64 *L 0.00446 *D BUFX3
*I *629:Y O *C 66.33 87.08 *L 0 *D AOI21XL

*CAP
1 *385:A 3.98583e-05
2 *629:Y 6.3299e-05
3 *238:2 0.00019789
4 *238:3 0.00027659
5 *238:4 7.7159e-05
6 *238:5 7.9991e-05
7 *238:6 5.09202e-05
8 *238:7 6.14884e-05
9 *238:8 0.000140188
10 *238:9 5.64195e-05
11 *238:10 6.31217e-05
12 *238:2 *26:10 9.52e-05
13 *238:3 *26:9 9.52000027e-05
14 *238:2 *343:10 6.992e-05
15 *238:3 *343:11 6.992e-05
16 *238:2 *343:8 9.52e-05
17 *238:3 *343:9 9.51999973e-05

*RES
1 *238:10 *629:Y 6.4000001
2 *238:9 *238:10 0.155957
3 *238:2 *238:9 6.4000001
4 *238:3 *238:2 1.28701
5 *238:3 *238:8 0.467969
6 *238:7 *238:8 0.183887
7 *238:6 *238:7 6.4000001
8 *238:5 *238:6 6.4000001
9 *238:4 *385:A 0.223828
10 *238:4 *238:5 0.189941
*END

*D_NET *239 0.00162257

*CONN
*I *390:A I *C 61.71 43.4 *L 0.00446 *D BUFX3
*I *628:Y O *C 64.35 54.04 *L 0 *D AOI21XL

*CAP
1 *390:A 6.32993e-05
2 *628:Y 0.00013984
3 *239:2 0.000310723
4 *239:3 0.00039124
5 *239:4 0.00014624
6 *239:5 0.000293011
7 *239:6 0.000278211

*RES
1 *239:6 *628:Y 3.2
2 *239:5 *239:6 1.24805
3 *239:2 *239:5 0.183887
4 *239:3 *239:2 1.24805
5 *239:4 *239:3 0.551562
6 *390:A *239:4 6.4000001
*END

*D_NET *240 0.00090232

*CONN
*I *389:Y O *C 107.91 83.72 *L 0 *D BUFX3
*I *587:D I *C 107.25 88.2 *L 0.00217 *D DFFTRX1

*CAP
1 *389:Y 6.33004e-05
2 *587:D 6.33004e-05
3 *240:2 0.0003624
4 *240:3 0.000347597
5 *240:4 6.57225e-05

*RES
1 *240:3 *389:Y 6.4000001
2 *240:3 *240:2 1.09199
3 *240:4 *240:2 0.183887
4 *587:D *240:4 6.4000001
*END

*D_NET *241 0.00150368

*CONN
*I *423:A I *C 111.87 83.72 *L 0.00446 *D BUFX3
*I *626:Y O *C 107.25 77 *L 0 *D AOI21XL

*CAP
1 *423:A 6.32987e-05
2 *626:Y 0.00012236
3 *241:2 0.0004126
4 *241:3 0.000332082
5 *241:4 0.000157686
6 *241:5 5.0921e-05
7 *241:6 5.0921e-05
8 *241:7 6.57226e-05
9 *241:8 5.0921e-05
10 *241:9 5.0921e-05
11 *241:10 0.000146241

*RES
1 *241:8 *423:A 6.4000001
2 *241:9 *241:8 6.4000001
3 *241:10 *241:9 6.4000001
4 *241:2 *241:10 0.551562
5 *241:3 *241:2 1.404
6 *241:7 *241:3 0.183887
7 *241:6 *241:7 6.4000001
8 *241:5 *241:6 6.4000001
9 *241:4 *241:5 6.4000001
10 *626:Y *241:4 0.671484
*END

*D_NET *242 0.000478331

*CONN
*I *388:A I *C 96.03 93.8 *L 0.00446 *D BUFX3
*I *625:Y O *C 98.67 94.36 *L 0 *D AOI21XL

*CAP
1 *388:A 6.32991e-05
2 *625:Y 3.98611e-05
3 *242:2 0.000146641
4 *242:3 7.51901e-05
5 *242:4 0.00015334

*RES
1 *242:3 *625:Y 0.223828
2 *242:4 *242:3 6.4000001
3 *242:2 *242:4 0.551562
4 *388:A *242:2 6.4000001
*END

*D_NET *243 0.00109966

*CONN
*I *420:A I *C 67.65 103.88 *L 0.00446 *D BUFX3
*I *624:Y O *C 72.27 104.44 *L 0 *D AOI21XL

*CAP
1 *420:A 6.33008e-05
2 *624:Y 6.33008e-05
3 *243:2 5.09212e-05
4 *243:3 0.00019644
5 *243:4 5.09212e-05
6 *243:5 0.00019644
7 *243:5 *127:9 9.469e-05
8 *243:3 *127:10 9.46899964e-05
9 *243:5 *172:19 9.469e-05
10 *243:3 *172:20 9.469e-05
11 *243:5 *172:8 4.979e-05
12 *243:3 *172:9 4.97899927e-05

*RES
1 *243:4 *624:Y 6.4000001
2 *243:5 *243:4 6.4000001
3 *243:3 *243:5 1.28701
4 *243:2 *243:3 6.4000001
5 *420:A *243:2 6.4000001
*END

*D_NET *244 0.00217049

*CONN
*I *386:A I *C 80.85 103.88 *L 0.00446 *D BUFX3
*I *623:Y O *C 86.79 94.36 *L 0 *D AOI21XL

*CAP
1 *386:A 3.87836e-05
2 *623:Y 6.33012e-05
3 *244:2 0.000169979
4 *244:3 0.000169979
5 *244:4 0.000409572
6 *244:5 0.000409572
7 *244:6 0.000414249
8 *244:7 0.000420947969
9 *244:8 7.41115e-05

*RES
1 *244:7 *623:Y 6.4000001
2 *244:7 *244:6 1.87197
3 *244:8 *386:A 0.223828
4 *244:4 *244:6 6.4000001
5 *244:2 *244:8 6.4000001
6 *244:5 *244:4 1.83857
7 *244:3 *244:2 0.77998
8 *244:3 *244:5 6.4000001
*END

*D_NET *245 0.0129182

*CONN
*I *631:Y O *C 107.25 32.2 *L 0 *D NAND2X1
*I *614:A I *C 123.75 113.96 *L 0.0026 *D INVXL
*I *534:A0 I *C 102.63 23.24 *L 0.00336 *D OAI21XL

*CAP
1 *631:Y 6.32889e-05
2 *614:A 0.00104932
3 *534:A0 6.32889e-05
4 *245:3 0.000241642
5 *245:4 0.000241642
6 *245:5 5.08837e-05
7 *245:6 0.000511734
8 *245:7 5.08837e-05
9 *245:8 5.08837e-05
10 *245:9 0.00486812
11 *245:10 0.00108468
12 *245:11 0.000120635
13 *245:12 0.000120635
14 *245:13 0.00440051

*RES
1 *245:10 *614:A 5.81946
2 *245:11 *245:10 3.20009
3 *245:12 *245:11 3.20009
4 *245:7 *631:Y 6.39984
5 *245:13 *245:12 3.20009
6 *245:8 *245:7 6.39984
7 *245:9 *245:13 22.7759991
8 *245:9 *245:8 6.39984
9 *245:6 *245:9 2.49599
10 *245:3 *245:6 6.39984
11 *245:4 *245:3 1.10307
12 *245:5 *245:4 6.39984
13 *534:A0 *245:5 6.39984
*END

*D_NET *246 0.018737

*CONN
*I *681:B I *C 94.71 37.8 *L 0.0041 *D NOR2BX1
*I *640:Y O *C 117.81 88.2 *L 0 *D INVX1
*I *615:B I *C 124.41 63 *L 0.00302 *D NOR2BXL
*I *613:B I *C 124.41 68.04 *L 0.00302 *D NOR2BXL
*I *612:B I *C 124.41 52.92 *L 0.00302 *D NOR2BXL
*I *611:B I *C 123.09 103.32 *L 0.00302 *D NOR2BXL
*I *610:B I *C 121.77 88.2 *L 0.00302 *D NOR2BXL
*I *609:B I *C 124.41 37.8 *L 0.00302 *D NOR2BXL
*I *608:B I *C 121.77 93.24 *L 0.00302 *D NOR2BXL
*I *607:B I *C 118.47 93.24 *L 0.00302 *D NOR2BXL
*I *606:B I *C 118.47 103.32 *L 0.00302 *D NOR2BXL
*I *595:B I *C 124.41 98.28 *L 0.00302 *D NOR2BXL
*I *594:B I *C 124.41 57.96 *L 0.00302 *D NOR2BXL
*I *593:B I *C 124.41 42.84 *L 0.00302 *D NOR2BXL
*I *592:B I *C 124.41 78.12 *L 0.00302 *D NOR2BXL
*I *591:B I *C 119.79 98.28 *L 0.00302 *D NOR2BXL
*I *590:B I *C 124.41 73.08 *L 0.00302 *D NOR2BXL
*I *589:B I *C 124.41 83.16 *L 0.00302 *D NOR2BXL
*I *540:B I *C 96.69 37.8 *L 0.00385 *D NOR2X1

*CAP
1 *681:B 0.000139841
2 *640:Y 4.16936e-05
3 *615:B 0.000139841
4 *613:B 0.000139841
5 *612:B 0.000139841
6 *611:B 0.000139841
7 *610:B 0.000139841
8 *609:B 0.000139841
9 *608:B 0.000139841
10 *607:B 0.000139841
11 *606:B 0.000139841
12 *595:B 0.000139841
13 *594:B 0.000139841
14 *593:B 0.000139841
15 *592:B 0.000139841
16 *591:B 0.000139841
17 *590:B 0.000139841
18 *589:B 0.000139841
19 *540:B 0.000139841
20 *246:19 0.000968246016
21 *246:20 0.000968246016
22 *246:21 5.90979e-05
23 *246:22 0.000128774
24 *246:23 0.000171354
25 *246:24 0.000150921
26 *246:25 0.000150921
27 *246:26 0.000479683
28 *246:27 0.000116999
29 *246:28 0.000298267
30 *246:29 0.000116999
31 *246:30 0.000424131
32 *246:31 0.000153566
33 *246:32 0.000305714
34 *246:33 0.000624326
35 *246:34 0.000631004
36 *246:35 0.000269383
37 *246:36 0.000284379
38 *246:37 0.000252171
39 *246:38 0.000477807
40 *246:39 0.000374622
41 *246:40 6.99129e-05
42 *246:41 6.99129e-05
43 *246:42 0.000390682
44 *246:43 0.000295372
45 *246:44 0.00035574
46 *246:45 0.000415429
47 *246:46 0.000833296
48 *246:47 0.000849503
49 *246:48 0.000573841
50 *246:49 0.000564105
51 *246:50 0.000580696
52 *246:51 0.000580696
53 *246:52 0.000534039
54 *246:53 0.000335972
55 *246:54 0.000109243
56 *246:55 0.000253589
57 *246:56 0.000281646
58 *246:57 0.000111326
59 *246:58 0.000415872
60 *246:59 0.000415872
61 *246:59 *158:3 6.4e-05
62 *246:58 *158:4 6.4e-05
63 *246:56 *158:3 7.556e-05
64 *246:55 *158:4 7.556e-05
65 *246:54 *158:3 2.543e-05
66 *246:53 *158:4 2.543e-05
67 *246:53 *158:3 5.86e-05
68 *246:52 *158:4 5.86e-05
69 *246:39 *158:3 6.747e-05
70 *246:38 *158:4 6.747e-05
71 *246:38 *158:3 7.633e-05
72 *246:37 *158:4 7.63300139e-05

*RES
1 *640:Y *246:31 0.223837
2 *246:32 *246:31 3.19999
3 *246:33 *607:B 3.19999
4 *246:32 *246:33 1.24798
5 *246:35 *606:B 3.19999
6 *246:37 *610:B 3.19999
7 *246:33 *246:34 1.404
8 *246:34 *246:35 1.404
9 *246:38 *608:B 3.19999
10 *246:37 *246:38 1.404
11 *246:36 *591:B 3.19999
12 *246:34 *246:36 0.367728
13 *246:38 *246:39 1.404
14 *246:36 *246:39 0.55156
15 *246:39 *246:40 0.183832
16 *246:40 *246:41 0.156022
17 *246:43 *611:B 3.19999
18 *246:41 *246:42 0.183832
19 *246:42 *246:43 1.24798
20 *246:42 *246:57 0.367728
21 *246:56 *595:B 3.19999
22 *246:56 *246:57 0.156022
23 *246:55 *246:56 1.56002
24 *246:55 *246:59 0.183832
25 *246:58 *246:59 2.18398
26 *246:54 *246:58 0.183832
27 *246:53 *589:B 3.19999
28 *246:53 *246:54 0.468
29 *246:52 *592:B 3.19999
30 *246:52 *246:53 1.404
31 *246:51 *590:B 3.19999
32 *246:51 *246:52 1.404
33 *246:50 *613:B 3.19999
34 *246:50 *246:51 1.404
35 *246:49 *615:B 3.19999
36 *246:49 *246:50 1.404
37 *246:48 *594:B 3.19999
38 *246:48 *246:49 1.404
39 *246:47 *612:B 3.19999
40 *246:47 *246:48 1.404
41 *246:46 *593:B 3.19999
42 *246:46 *246:47 2.808
43 *246:44 *609:B 3.19999
44 *246:44 *246:46 1.404
45 *246:45 *246:44 3.19999
46 *246:30 *246:45 2.02241
47 *246:19 *246:30 0.156022
48 *246:20 *246:19 4.22871447
49 *246:20 *246:29 0.156022
50 *246:24 *540:B 3.19999
51 *246:27 *246:29 0.367728
52 *246:24 *246:25 0.156022
53 *246:27 *246:28 0.156022
54 *246:26 *246:25 3.19999
55 *246:26 *246:28 1.10312
56 *246:23 *246:26 0.55156
57 *246:22 *246:23 3.19999
58 *246:21 *246:22 0.156022
59 *681:B *246:21 3.19999
*END

*D_NET *247 0.00108605

*CONN
*I *588:Y O *C 80.19 27.72 *L 0 *D INVX1
*I *561:A I *C 82.83 28.28 *L 0.0047 *D NOR3X1

*CAP
1 *588:Y 3.87801e-05
2 *561:A 0.00013984
3 *247:2 7.41098e-05
4 *247:3 0.000120599
5 *247:4 0.00013748
6 *247:5 0.000120599
7 *247:6 0.00013748
8 *247:6 *83:98 0.00015858
9 *247:4 *83:99 0.000158579994

*RES
1 *247:5 *561:A 3.20000005
2 *247:6 *247:5 3.20000005
3 *247:4 *247:6 0.919287
4 *247:3 *247:4 3.20000005
5 *247:2 *247:3 3.20000005
6 *247:2 *588:Y 0.223828
*END

*D_NET *248 0.00411386

*CONN
*I *622:Y O *C 90.09 33.88 *L 0 *D XOR2X1
*I *588:A I *C 79.53 27.16 *L 0.00346 *D INVX1
*I *576:A I *C 78.87 32.76 *L 0.00403 *D NAND2X1
*I *570:A I *C 76.89 26.6 *L 0.00477 *D NAND3X1
*I *558:A0 I *C 75.57 33.32 *L 0.00336 *D OAI21XL

*CAP
1 *622:Y 0.00013984
2 *588:A 7.97324e-05
3 *576:A 0.00013984
4 *570:A 0.00013984
5 *558:A0 0.00013984
6 *248:5 0.000126915
7 *248:6 5.72429e-05
8 *248:7 0.000668635
9 *248:8 0.00072212
10 *248:9 0.000120601
11 *248:10 0.000178781
12 *248:11 0.000142099
13 *248:12 6.87796e-05
14 *248:13 6.87796e-05
15 *248:14 0.000115059
16 *248:15 0.000166495
17 *248:16 9.01121e-05
18 *248:17 7.55783e-05
19 *248:18 0.000187475
20 *248:19 0.000315613
21 *248:20 0.000370487

*RES
1 *248:11 *570:A 3.20000005
2 *248:11 *248:12 0.183838
3 *248:14 *588:A 0.447656
4 *248:12 *248:13 0.156006
5 *248:15 *248:14 3.20000005
6 *248:13 *248:15 0.183838
7 *248:15 *248:16 0.312012
8 *248:6 *622:Y 3.20000005
9 *248:16 *248:19 0.183838
10 *248:6 *248:5 0.156006
11 *248:20 *576:A 3.20000005
12 *248:19 *248:20 1.248
13 *248:7 *248:5 3.20000005
14 *248:8 *248:20 3.20000005
15 *248:8 *248:7 3.12559
16 *248:17 *248:8 0.183838
17 *248:17 *248:18 0.156006
18 *248:10 *248:18 0.735449
19 *248:9 *248:10 3.20000005
20 *558:A0 *248:9 3.20000005
*END

*D_NET *249 0.00457026

*CONN
*I *562:Y O *C 96.03 78.68 *L 0 *D NAND2X1
*I *560:B I *C 95.37 52.92 *L 0.00385 *D NOR2X1
*I *553:A0 I *C 92.73 53.48 *L 0.00465 *D AOI22X1

*CAP
1 *562:Y 0.000139837
2 *560:B 3.98449e-05
3 *553:A0 6.33107e-05
4 *249:3 7.00539e-05
5 *249:4 7.00539e-05
6 *249:5 0.000280668
7 *249:6 0.000210975
8 *249:7 0.00118477
9 *249:8 0.0011151
10 *249:9 6.58597e-05
11 *249:10 0.000251796
12 *249:11 0.000196476
13 *249:12 0.000120601
14 *249:13 7.51701e-05
15 *249:14 0.000142223
16 *249:15 0.000120601
17 *249:7 *367:44 0.00021146
18 *249:8 *367:45 0.000211459993

*RES
1 *249:15 *562:Y 3.2
2 *249:5 *249:15 3.2
3 *249:6 *249:5 0.919238
4 *249:13 *560:B 0.223828
5 *249:7 *249:6 3.2
6 *249:14 *249:13 3.2
7 *249:8 *249:7 5.77197
8 *249:4 *249:14 0.183887
9 *249:12 *249:8 3.2
10 *249:4 *249:3 0.155957
11 *249:11 *249:12 3.2
12 *249:10 *249:3 0.183887
13 *249:10 *249:11 0.77998
14 *249:9 *249:10 0.183887
15 *553:A0 *249:9 6.4000001
*END

*D_NET *250 0.00178312

*CONN
*I *569:Y O *C 98.67 52.36 *L 0 *D NAND2X1
*I *560:A I *C 96.03 53.48 *L 0.0043 *D NOR2X1
*I *553:B0 I *C 92.07 52.92 *L 0.00433 *D AOI22X1

*CAP
1 *569:Y 0.00013984
2 *560:A 6.32998e-05
3 *553:B0 0.00013984
4 *250:3 0.000214159
5 *250:4 0.00027458
6 *250:5 0.0001206
7 *250:6 7.07493e-05
8 *250:7 0.0001206
9 *250:8 0.000169759
10 *250:9 0.000130932
11 *250:10 7.88692e-05
12 *250:11 0.0001206
13 *250:12 0.000139291

*RES
1 *250:11 *569:Y 3.2
2 *250:12 *250:11 3.2
3 *250:10 *250:12 0.183887
4 *250:7 *560:A 6.4000001
5 *250:9 *250:10 0.155957
6 *250:8 *250:7 3.2
7 *250:8 *250:9 0.735449
8 *250:6 *250:8 0.183887
9 *250:3 *250:6 0.155957
10 *250:4 *250:3 0.919238
11 *250:5 *250:4 3.2
12 *553:B0 *250:5 3.2
*END

*D_NET *251 0.00587158

*CONN
*I *566:Y O *C 94.71 72.52 *L 0 *D NAND2X1
*I *559:B I *C 94.71 47.88 *L 0.00385 *D NOR2X1
*I *555:A0 I *C 91.41 47.32 *L 0.00465 *D AOI22X1

*CAP
1 *566:Y 0.000139832
2 *559:B 0.000139832
3 *555:A0 3.98546e-05
4 *251:3 0.000171511
5 *251:4 0.000241192
6 *251:5 0.000363925
7 *251:6 0.000295512
8 *251:7 7.02169e-05
9 *251:8 0.000139897
10 *251:9 8.18222e-05
11 *251:10 0.000352466
12 *251:11 0.000297577
13 *251:12 0.0010652
14 *251:13 0.0010652
15 *251:14 0.000113615
16 *251:15 0.000168488
17 *251:16 0.000117272
18 *251:17 0.000120588
19 *251:18 0.00011446
20 *251:19 0.000120588
21 *251:12 *367:44 0.00017166
22 *251:13 *367:45 0.00017166
23 *251:10 *367:44 3.428e-05
24 *251:11 *367:45 3.428e-05
25 *251:14 *367:44 2.518e-05
26 *251:15 *367:45 2.51800091e-05
27 *251:5 *258:7 9.515e-05
28 *251:6 *258:4 9.51500031e-05

*RES
1 *251:19 *566:Y 3.19998
2 *251:8 *251:19 3.19998
3 *251:8 *251:7 0.183898
4 *251:10 *251:7 3.19998
5 *251:11 *251:10 1.55996
6 *251:11 *251:12 0.183898
7 *251:13 *251:12 5.77199984
8 *251:14 *251:13 0.183898
9 *251:3 *559:B 3.19998
10 *251:15 *251:14 0.468024
11 *251:4 *251:3 0.468024
12 *251:9 *251:15 3.19998
13 *251:5 *251:4 3.19998
14 *251:5 *251:9 0.367708
15 *251:6 *251:5 1.10312
16 *251:18 *555:A0 0.223795
17 *251:17 *251:6 3.19998
18 *251:16 *251:18 0.379862
19 *251:16 *251:17 3.19998
*END

*D_NET *252 0.00355664

*CONN
*I *568:Y O *C 99.33 58.52 *L 0 *D NAND2X1
*I *559:A I *C 95.37 47.32 *L 0.0043 *D NOR2X1
*I *555:B0 I *C 90.75 47.88 *L 0.00433 *D AOI22X1

*CAP
1 *568:Y 3.73007e-05
2 *559:A 6.32975e-05
3 *555:B0 0.000139835
4 *252:3 6.02557e-05
5 *252:4 6.02557e-05
6 *252:5 9.5152e-05
7 *252:6 9.31833e-05
8 *252:7 0.000224902
9 *252:8 0.000144878
10 *252:9 0.000265591
11 *252:10 0.000256329
12 *252:11 0.000232809
13 *252:12 0.000172392
14 *252:13 0.00052877
15 *252:14 0.00052877
16 *252:15 0.0001206
17 *252:16 0.000124312
18 *252:17 0.000102123
19 *252:18 0.0001206
20 *252:19 0.000185285

*RES
1 *252:5 *568:Y 0.189941
2 *252:6 *252:5 0.223828
3 *252:3 *252:6 6.4000001
4 *252:4 *252:3 0.155957
5 *252:11 *252:4 3.2
6 *252:12 *252:11 0.735449
7 *252:18 *559:A 6.4000001
8 *252:9 *252:12 0.155957
9 *252:19 *252:18 3.2
10 *252:10 *252:9 1.10312
11 *252:16 *252:19 0.367676
12 *252:13 *252:10 3.2
13 *252:16 *252:17 0.155957
14 *252:14 *252:13 2.02803
15 *252:7 *252:17 0.367676
16 *252:7 *252:14 3.2
17 *252:8 *252:7 0.551562
18 *252:15 *252:8 3.2
19 *555:B0 *252:15 3.2
*END

*D_NET *253 0.000698759

*CONN
*I *558:Y O *C 76.23 31.64 *L 0 *D OAI21XL
*I *529:A1 I *C 72.93 32.76 *L 0.00472 *D AOI22X1

*CAP
1 *558:Y 6.32986e-05
2 *529:A1 6.32986e-05
3 *253:2 6.57196e-05
4 *253:3 0.00022036
5 *253:4 9.95798e-05
6 *253:5 0.0001865

*RES
1 *253:5 *558:Y 6.4000001
2 *253:3 *253:5 0.735449
3 *253:3 *253:4 0.312012
4 *253:2 *253:4 0.183887
5 *529:A1 *253:2 6.4000001
*END

*D_NET *254 0.00427532

*CONN
*I *563:Y O *C 71.61 78.68 *L 0 *D NAND2X1
*I *557:B I *C 72.27 52.92 *L 0.00385 *D NOR2X1
*I *554:A0 I *C 76.23 53.48 *L 0.00465 *D AOI22X1

*CAP
1 *563:Y 0.00013984
2 *557:B 0.00013984
3 *554:A0 6.32924e-05
4 *254:3 6.80156e-05
5 *254:4 6.80156e-05
6 *254:5 0.000335697
7 *254:6 0.000335697
8 *254:7 0.000149489
9 *254:8 0.000164294
10 *254:9 0.000400006
11 *254:10 0.000400006
12 *254:11 0.00083207
13 *254:12 0.000817266
14 *254:13 0.000120605
15 *254:14 0.000120605
16 *254:15 0.000120605

*RES
1 *254:3 *554:A0 6.4000001
2 *254:4 *254:3 0.155957
3 *254:14 *563:Y 3.2
4 *254:13 *557:B 3.2
5 *254:5 *254:4 3.2
6 *254:15 *254:14 3.2
7 *254:6 *254:13 3.2
8 *254:6 *254:5 1.10312
9 *254:7 *254:15 3.2
10 *254:12 *254:6 3.2
11 *254:8 *254:7 0.624023
12 *254:12 *254:11 4.05596
13 *254:9 *254:8 0.183887
14 *254:10 *254:11 0.183887
15 *254:10 *254:9 2.02803
*END

*D_NET *255 0.00178738

*CONN
*I *565:Y O *C 71.61 62.44 *L 0 *D NAND2X1
*I *557:A I *C 72.93 53.48 *L 0.0043 *D NOR2X1
*I *554:B0 I *C 75.57 52.92 *L 0.00433 *D AOI22X1

*CAP
1 *565:Y 0.000139841
2 *557:A 6.33011e-05
3 *554:B0 0.000139841
4 *255:3 0.000297229766
5 *255:4 0.000282299
6 *255:5 8.562e-05
7 *255:6 0.000268149
8 *255:7 8.68128e-05
9 *255:8 0.000144091
10 *255:9 0.000280199

*RES
1 *255:8 *554:B0 3.2
2 *255:5 *557:A 6.4000001
3 *255:8 *255:9 0.624023
4 *255:5 *255:6 0.467969
5 *255:6 *255:9 0.735449
6 *255:6 *255:7 0.312012
7 *255:4 *565:Y 3.2
8 *255:3 *255:7 0.183887
9 *255:3 *255:4 1.71602
*END

*D_NET *256 0.00450056

*CONN
*I *564:Y O *C 79.53 72.52 *L 0 *D NAND2X1
*I *556:B I *C 77.55 47.88 *L 0.00385 *D NOR2X1
*I *550:A0 I *C 79.53 53.48 *L 0.00465 *D AOI22X1

*CAP
1 *564:Y 0.000139839
2 *556:B 7.45943e-05
3 *550:A0 6.32925e-05
4 *256:3 9.13181e-05
5 *256:4 9.32941e-05
6 *256:5 0.000270725
7 *256:6 0.000340391
8 *256:7 6.96061e-05
9 *256:8 0.000139297
10 *256:9 0.000734738
11 *256:10 0.00078962
12 *256:11 0.000156912
13 *256:12 0.00017172
14 *256:13 0.000420468
15 *256:14 0.000420468
16 *256:15 0.000160177
17 *256:16 0.000122886
18 *256:17 0.000120597
19 *256:18 0.000120597

*RES
1 *256:17 *564:Y 3.2
2 *256:18 *256:17 3.2
3 *256:11 *256:18 3.2
4 *256:12 *256:11 0.624023
5 *256:12 *256:13 0.183887
6 *256:14 *256:13 1.87197
7 *256:9 *256:14 0.183887
8 *256:10 *256:9 3.27598
9 *256:7 *256:10 3.2
10 *256:8 *256:7 0.183887
11 *256:5 *550:A0 6.4000001
12 *256:5 *256:8 3.2
13 *256:6 *256:5 1.09199
14 *256:3 *256:6 3.2
15 *256:4 *256:3 0.223828
16 *256:16 *256:4 0.189941
17 *256:15 *256:16 0.447656
18 *556:B *256:15 0.379785
*END

*D_NET *257 0.00286503

*CONN
*I *567:Y O *C 70.29 52.36 *L 0 *D NAND2X1
*I *556:A I *C 78.21 47.32 *L 0.0043 *D NOR2X1
*I *550:B0 I *C 78.87 52.92 *L 0.00433 *D AOI22X1

*CAP
1 *567:Y 3.72989e-05
2 *556:A 6.32981e-05
3 *550:B0 0.000139839
4 *257:3 0.00039308
5 *257:4 0.00039308
6 *257:5 0.000362442
7 *257:6 0.000362442
8 *257:7 0.000119701
9 *257:8 0.000117727
10 *257:9 0.000394319375
11 *257:10 0.000339571
12 *257:11 0.000142228

*RES
1 *257:11 *550:B0 3.2
2 *257:10 *257:11 0.183887
3 *257:9 *556:A 6.4000001
4 *257:9 *257:10 1.55996
5 *257:3 *257:9 3.2
6 *257:4 *257:3 1.65469
7 *257:6 *257:4 3.2
8 *257:6 *257:5 1.24805
9 *257:8 *257:5 3.2
10 *257:7 *257:8 0.447656
11 *257:7 *567:Y 0.189941
*END

*D_NET *258 0.00165193

*CONN
*I *555:Y O *C 92.07 48.44 *L 0 *D AOI22X1
*I *536:B1 I *C 85.47 47.88 *L 0.00419 *D OAI22X1

*CAP
1 *555:Y 0.000139842
2 *536:B1 6.33005e-05
3 *258:2 5.0922e-05
4 *258:3 0.00017527
5 *258:4 0.0002134
6 *258:5 0.00021813
7 *258:6 0.0001206
8 *258:7 0.00017054
9 *258:5 *143:35 0.00015481
10 *258:3 *143:36 0.000154810003
11 *258:7 *251:5 9.515e-05
12 *258:4 *251:6 9.51500031e-05

*RES
1 *258:6 *555:Y 3.2
2 *258:7 *258:6 3.2
3 *258:4 *258:7 1.10312
4 *258:4 *258:5 0.312012
5 *258:3 *258:5 0.919238
6 *258:2 *258:3 6.4000001
7 *536:B1 *258:2 6.4000001
*END

*D_NET *259 0.0027845

*CONN
*I *554:Y O *C 76.89 52.36 *L 0 *D AOI22X1
*I *535:A1 I *C 89.43 52.92 *L 0.00456 *D OAI22X1

*CAP
1 *554:Y 6.33027e-05
2 *535:A1 0.00013984
3 *259:2 0.000374009
4 *259:3 0.000364991
5 *259:4 0.000370047
6 *259:5 0.00037907
7 *259:6 5.64195e-05
8 *259:7 0.000126102
9 *259:8 0.000120601
10 *259:2 *340:25 5.016e-05
11 *259:3 *340:26 5.016e-05
12 *259:2 *340:29 0.00015486
13 *259:3 *340:30 0.00015486
14 *259:4 *340:29 2.81e-05
15 *259:5 *340:30 2.81000042e-05
16 *259:4 *260:21 0.00014859
17 *259:5 *260:22 0.00014859
18 *259:2 *260:29 1.335e-05
19 *259:3 *260:30 1.33500016e-05

*RES
1 *259:8 *535:A1 3.2
2 *259:4 *259:8 3.2
3 *259:5 *259:4 1.65469
4 *259:5 *259:2 0.467969
5 *259:3 *259:2 1.65469
6 *259:7 *259:3 3.2
7 *259:6 *259:7 0.155957
8 *554:Y *259:6 6.4000001
*END

*D_NET *260 0.0100088

*CONN
*I *678:QN O *C 78.87 43.96 *L 0 *D DFFX1
*I *650:B0 I *C 84.81 37.8 *L 0.00433 *D AOI22X1
*I *570:B I *C 76.23 27.72 *L 0.00455 *D NAND3X1
*I *561:B I *C 82.17 27.16 *L 0.00439 *D NOR3X1
*I *555:A1 I *C 92.07 47.88 *L 0.00472 *D AOI22X1
*I *554:A1 I *C 76.89 52.92 *L 0.00472 *D AOI22X1
*I *553:A1 I *C 93.39 52.92 *L 0.00472 *D AOI22X1
*I *550:A1 I *C 80.19 52.92 *L 0.00472 *D AOI22X1

*CAP
1 *678:QN 0.000139839
2 *650:B0 0.000139839
3 *570:B 0.000139839
4 *561:B 6.33111e-05
5 *555:A1 6.33111e-05
6 *554:A1 6.33111e-05
7 *553:A1 6.33111e-05
8 *550:A1 6.33111e-05
9 *260:8 7.60979e-05
10 *260:9 0.00019557
11 *260:10 0.000122217
12 *260:11 0.000103971
13 *260:12 0.000103971
14 *260:13 6.05075e-05
15 *260:14 0.000130182
16 *260:15 0.000515997
17 *260:16 0.000446323
18 *260:17 0.000194829
19 *260:18 0.000194829
20 *260:19 5.83863e-05
21 *260:20 0.000128061
22 *260:21 0.000331137
23 *260:22 0.000331137
24 *260:23 6.28364e-05
25 *260:24 6.28364e-05
26 *260:25 0.000194339
27 *260:26 0.000122854
28 *260:27 0.000124323
29 *260:28 0.000116224
30 *260:29 8.02514e-05
31 *260:30 0.00019201
32 *260:31 0.00060773
33 *260:32 0.000769183
34 *260:33 0.00097214
35 *260:34 0.000778513
36 *260:35 0.000334564
37 *260:36 0.000564178
38 *260:37 0.0001206
39 *260:38 0.0001206
40 *260:39 5.091e-05
41 *260:40 0.000312699
42 *260:41 6.57142e-05
43 *260:21 *259:4 0.00014859
44 *260:22 *259:5 0.00014859
45 *260:29 *259:2 1.335e-05
46 *260:30 *259:3 1.33500016e-05
47 *260:21 *282:4 0.00014638
48 *260:22 *282:5 0.00014638
49 *260:23 *282:2 5.17e-06
50 *260:24 *282:3 5.17000024e-06

*RES
1 *260:41 *555:A1 6.4000001
2 *260:41 *260:12 0.183887
3 *260:12 *260:11 0.467969
4 *260:11 *260:10 0.183887
5 *260:8 *553:A1 6.4000001
6 *260:10 *260:9 0.624023
7 *260:9 *260:8 0.312012
8 *260:27 *260:9 3.2
9 *260:28 *260:27 0.551562
10 *260:28 *260:21 0.0780273
11 *260:19 *554:A1 6.4000001
12 *260:23 *550:A1 6.4000001
13 *260:22 *260:21 2.75781
14 *260:20 *260:19 0.155957
15 *260:24 *260:23 0.155957
16 *260:22 *260:29 0.0780273
17 *260:18 *650:B0 3.2
18 *260:26 *260:20 3.2
19 *260:30 *260:24 3.2
20 *260:30 *260:29 0.367676
21 *260:18 *260:17 0.467969
22 *260:26 *260:25 0.551562
23 *260:25 *260:30 0.367676
24 *260:37 *678:QN 3.2
25 *260:15 *260:17 3.2
26 *260:31 *260:25 3.2
27 *260:38 *260:37 3.2
28 *260:16 *260:15 1.65469
29 *260:32 *260:31 2.496
30 *260:32 *260:38 3.2
31 *260:39 *561:B 6.4000001
32 *260:33 *260:16 3.2
33 *260:33 *260:32 1.09199
34 *260:40 *260:39 6.4000001
35 *260:34 *260:33 3.43203
36 *260:36 *260:40 0.919238
37 *260:36 *260:34 3.2
38 *260:13 *570:B 3.2
39 *260:35 *260:36 0.735449
40 *260:14 *260:13 0.155957
41 *260:14 *260:35 3.2
*END

*D_NET *261 0.00153084

*CONN
*I *553:Y O *C 93.39 52.36 *L 0 *D AOI22X1
*I *535:B1 I *C 86.79 52.92 *L 0.00419 *D OAI22X1

*CAP
1 *553:Y 6.32966e-05
2 *535:B1 0.000139838
3 *261:2 0.000169279
4 *261:3 9.96024e-05
5 *261:4 0.00053879
6 *261:5 5.09234e-05
7 *261:6 0.000469114

*RES
1 *261:5 *553:Y 6.4000001
2 *261:6 *261:5 6.4000001
3 *261:4 *261:6 2.02246
4 *261:3 *261:4 3.2
5 *261:2 *261:3 0.312012
6 *535:B1 *261:2 3.2
*END

*D_NET *262 0.00148723

*CONN
*I *570:Y O *C 77.55 26.04 *L 0 *D NAND3X1
*I *552:B0 I *C 77.55 23.24 *L 0.00464 *D OAI2BB2X1
*I *552:A1N I *C 75.57 22.68 *L 0.00219 *D OAI2BB2X1

*CAP
1 *570:Y 0.00010982
2 *552:B0 0.000139841
3 *552:A1N 6.32991e-05
4 *262:3 0.000141361
5 *262:4 0.0003377
6 *262:5 0.000141279
7 *262:6 0.000145149
8 *262:7 6.5721e-05
9 *262:8 0.000158712
10 *262:9 0.000184353

*RES
1 *262:6 *570:Y 0.447656
2 *262:8 *552:B0 3.2
3 *262:7 *262:6 6.4000001
4 *262:8 *262:9 0.312012
5 *262:5 *262:7 0.183887
6 *262:4 *262:9 0.551562
7 *262:4 *262:5 0.467969
8 *262:3 *262:4 0.467969
9 *552:A1N *262:3 6.4000001
*END

*D_NET *263 0.00147092

*CONN
*I *552:Y O *C 78.87 23.24 *L 0 *D OAI2BB2X1
*I *530:A1 I *C 72.93 22.68 *L 0.00472 *D AOI22X1

*CAP
1 *552:Y 0.000139842
2 *530:A1 6.32986e-05
3 *263:2 0.000171598
4 *263:3 0.00026881
5 *263:4 0.000101917
6 *263:5 0.000141733
7 *263:6 0.00026881
8 *263:7 7.20518e-05
9 *263:6 *367:19 0.00010069
10 *263:3 *367:20 0.00010069
11 *263:6 *367:20 1.188e-05
12 *263:3 *367:21 1.188e-05
13 *263:4 *367:22 8.86e-06
14 *263:2 *367:23 8.86000355e-06

*RES
1 *263:7 *552:Y 3.2
2 *263:5 *263:7 0.312012
3 *263:6 *263:5 3.2
4 *263:4 *530:A1 6.4000001
5 *263:3 *263:6 1.65469
6 *263:2 *263:4 0.467969
7 *263:2 *263:3 3.2
*END

*D_NET *264 0.00183015

*CONN
*I *576:Y O *C 78.87 32.2 *L 0 *D NAND2X1
*I *558:B0 I *C 76.23 32.2 *L 0.00302 *D OAI21XL
*I *551:B0 I *C 79.53 37.24 *L 0.00464 *D OAI2BB2X1
*I *551:A1N I *C 77.55 37.8 *L 0.00219 *D OAI2BB2X1

*CAP
1 *576:Y 8.06546e-05
2 *558:B0 6.33011e-05
3 *551:B0 0.00013984
4 *551:A1N 6.33011e-05
5 *264:4 0.000105983
6 *264:5 0.000192528
7 *264:6 0.000320324
8 *264:7 0.00044217
9 *264:8 0.000113749
10 *264:9 0.00016697
11 *264:10 0.000141331

*RES
1 *264:10 *551:B0 3.2
2 *264:9 *264:10 0.312012
3 *264:8 *551:A1N 6.4000001
4 *264:7 *264:9 0.551562
5 *264:7 *264:8 0.467969
6 *264:5 *576:Y 0.447656
7 *264:6 *264:7 1.09199
8 *264:6 *264:5 3.2
9 *264:4 *264:6 0.367676
10 *558:B0 *264:4 6.4000001
*END

*D_NET *265 0.00156822

*CONN
*I *551:Y O *C 80.85 37.24 *L 0 *D OAI2BB2X1
*I *532:A1 I *C 72.93 37.8 *L 0.00472 *D AOI22X1

*CAP
1 *551:Y 0.00013984
2 *532:A1 6.32982e-05
3 *265:2 5.39771e-05
4 *265:3 0.000123663
5 *265:4 0.00038834
6 *265:5 0.0001206
7 *265:6 0.00038834
8 *265:6 *143:26 6.965e-05
9 *265:4 *143:27 6.965e-05
10 *265:6 *143:27 7.543e-05
11 *265:4 *143:28 7.54300035e-05

*RES
1 *265:5 *551:Y 3.2
2 *265:6 *265:5 3.2
3 *265:4 *265:6 2.20625
4 *265:3 *265:4 3.2
5 *265:2 *265:3 0.155957
6 *532:A1 *265:2 6.4000001
*END

*D_NET *266 0.00213725

*CONN
*I *550:Y O *C 80.19 52.36 *L 0 *D AOI22X1
*I *536:A1 I *C 88.11 47.88 *L 0.00456 *D OAI22X1

*CAP
1 *550:Y 0.00013984
2 *536:A1 0.00013984
3 *266:2 0.000222919
4 *266:3 8.23794e-05
5 *266:4 0.000222919
6 *266:5 0.00029574
7 *266:6 9.10799e-05
8 *266:7 0.00015188
9 *266:8 8.21989e-05
10 *266:9 0.00028704
11 *266:9 *143:35 0.00015511
12 *266:5 *143:36 0.00015511
13 *266:9 *143:37 3.557e-05
14 *266:5 *143:31 3.557e-05
15 *266:6 *143:31 2.003e-05
16 *266:3 *143:32 2.00300021e-05

*RES
1 *266:7 *536:A1 3.2
2 *266:7 *266:8 0.155957
3 *266:9 *266:8 6.4000001
4 *266:5 *266:9 1.4709
5 *266:5 *266:6 0.155957
6 *266:3 *266:6 0.551562
7 *266:4 *550:Y 3.2
8 *266:2 *266:3 3.2
9 *266:2 *266:4 0.77998
*END

*D_NET *267 0.00210142

*CONN
*I *560:Y O *C 96.69 52.92 *L 0 *D NOR2X1
*I *549:B I *C 96.69 43.4 *L 0.00375 *D NAND2X1
*I *544:A0 I *C 94.71 42.84 *L 0.00456 *D OAI22X1

*CAP
1 *560:Y 0.000139839
2 *549:B 0.000139839
3 *544:A0 0.000139839
4 *267:3 0.000182356
5 *267:4 0.000112302
6 *267:5 0.00047843
7 *267:6 0.000446651
8 *267:7 0.000142094
9 *267:8 0.000167427
10 *267:9 0.000152629

*RES
1 *267:9 *560:Y 3.20000005
2 *267:8 *267:9 0.624023
3 *267:7 *549:B 3.20000005
4 *267:6 *267:8 0.183838
5 *267:5 *267:7 0.183838
6 *267:5 *267:6 1.87202
7 *267:4 *267:5 0.156006
8 *267:3 *267:4 0.367725
9 *544:A0 *267:3 3.20000005
*END

*D_NET *268 0.00218489

*CONN
*I *559:Y O *C 96.03 47.88 *L 0 *D NOR2X1
*I *549:A I *C 97.35 42.84 *L 0.00403 *D NAND2X1
*I *544:B0 I *C 93.39 43.4 *L 0.00457 *D OAI22X1

*CAP
1 *559:Y 0.000203967
2 *549:A 0.00013984
3 *544:B0 3.98593e-05
4 *268:3 0.000337825
5 *268:4 0.000268138
6 *268:5 0.00034961
7 *268:6 0.00041929
8 *268:7 7.51888e-05
9 *268:8 0.00023238
10 *268:9 0.000118791

*RES
1 *268:4 *549:A 3.20000005
2 *268:4 *268:3 1.09199
3 *268:9 *268:3 3.20000005
4 *559:Y *268:9 0.447656
5 *268:8 *559:Y 0.671484
6 *268:5 *268:8 3.20000005
7 *268:6 *268:5 1.404
8 *268:7 *268:6 3.20000005
9 *544:B0 *268:7 0.223828
*END

*D_NET *269 0.00114134

*CONN
*I *561:Y O *C 82.17 26.6 *L 0 *D NOR3X1
*I *548:B0 I *C 83.49 23.24 *L 0.00464 *D OAI2BB2X1
*I *548:A1N I *C 81.51 22.68 *L 0.00219 *D OAI2BB2X1

*CAP
1 *561:Y 6.33007e-05
2 *548:B0 0.000139841
3 *548:A1N 6.33007e-05
4 *269:3 6.57203e-05
5 *269:4 0.000124427
6 *269:5 0.00024358
7 *269:6 0.00011105
8 *269:7 0.00017237
9 *269:8 0.000157748

*RES
1 *269:7 *548:B0 3.2
2 *269:7 *269:8 0.312012
3 *269:6 *561:Y 6.4000001
4 *269:5 *269:8 0.367676
5 *269:5 *269:6 0.624023
6 *269:4 *269:5 0.467969
7 *269:3 *269:4 0.183887
8 *548:A1N *269:3 6.4000001
*END

*D_NET *270 0.000790831

*CONN
*I *548:Y O *C 84.81 23.24 *L 0 *D OAI2BB2X1
*I *531:A1 I *C 88.11 22.68 *L 0.00472 *D AOI22X1

*CAP
1 *548:Y 3.98601e-05
2 *531:A1 6.33013e-05
3 *270:2 7.51895e-05
4 *270:3 0.0001421
5 *270:4 0.00015158
6 *270:5 7.10592e-05
7 *270:6 0.00017153
8 *270:7 7.62103e-05

*RES
1 *270:7 *531:A1 6.4000001
2 *270:6 *270:7 0.312012
3 *270:4 *270:6 0.551562
4 *270:4 *270:5 0.155957
5 *270:3 *270:5 0.183887
6 *270:2 *270:3 3.2
7 *548:Y *270:2 0.223828
*END

*D_NET *271 0.00404288

*CONN
*I *557:Y O *C 73.59 52.92 *L 0 *D NOR2X1
*I *547:B I *C 81.51 37.24 *L 0.00375 *D NAND2X1
*I *545:A0 I *C 83.49 42.84 *L 0.00456 *D OAI22X1

*CAP
1 *557:Y 0.000139839
2 *547:B 0.000111887
3 *545:A0 0.000139839
4 *271:3 0.00052085
5 *271:4 0.000389761
6 *271:5 0.000283851
7 *271:6 0.000468801
8 *271:7 0.000149376
9 *271:8 0.000399124
10 *271:9 0.000246989
11 *271:10 0.000158079
12 *271:11 0.000246989
13 *271:12 0.000198493
14 *271:13 0.000237889
15 *271:14 0.00016133
16 *271:15 0.00018979

*RES
1 *547:B *271:13 0.569727
2 *271:13 *271:14 0.671484
3 *271:4 *271:14 3.20000005
4 *271:3 *545:A0 3.20000005
5 *271:4 *271:3 1.09199
6 *271:3 *271:5 0.935986
7 *271:15 *271:5 3.20000005
8 *271:12 *271:15 0.919287
9 *271:11 *271:12 0.156006
10 *271:9 *271:11 1.28701
11 *271:9 *271:10 0.156006
12 *271:7 *271:10 0.551562
13 *271:8 *557:Y 3.20000005
14 *271:6 *271:7 3.20000005
15 *271:6 *271:8 1.71602
*END

*D_NET *272 0.0020771

*CONN
*I *556:Y O *C 78.87 47.88 *L 0 *D NOR2X1
*I *547:A I *C 82.17 37.8 *L 0.00403 *D NAND2X1
*I *545:B0 I *C 82.17 43.4 *L 0.00457 *D OAI22X1

*CAP
1 *556:Y 4.22877e-05
2 *547:A 0.000139837
3 *545:B0 0.000119588
4 *272:3 9.72885e-05
5 *272:4 7.95888e-05
6 *272:5 0.000342619
7 *272:6 0.000154916
8 *272:7 0.00046158
9 *272:8 9.53164e-05
10 *272:9 0.000195521
11 *272:10 0.000161453
12 *272:11 0.00018709

*RES
1 *272:10 *547:A 3.2
2 *272:10 *272:11 0.467969
3 *272:6 *545:B0 0.671484
4 *272:5 *272:11 0.551562
5 *272:7 *272:6 3.2
6 *272:5 *272:7 1.09199
7 *272:7 *272:9 0.77998
8 *272:8 *272:9 6.4000001
9 *272:3 *272:8 0.223828
10 *272:3 *272:4 0.189941
11 *556:Y *272:4 0.223828
*END

*D_NET *273 0.0026988

*CONN
*I *549:Y O *C 97.35 42.28 *L 0 *D NAND2X1
*I *546:A I *C 94.71 33.32 *L 0.00346 *D INVX1
*I *543:A1 I *C 99.33 32.76 *L 0.00456 *D OAI22X1

*CAP
1 *549:Y 0.000139838
2 *546:A 0.000139838
3 *543:A1 0.000139838
4 *273:3 0.000371387
5 *273:4 0.000301709
6 *273:5 0.000120602
7 *273:6 7.24231e-05
8 *273:7 0.00043246
9 *273:8 0.00043246
10 *273:9 0.000123664
11 *273:10 0.000225181
12 *273:11 0.000199399

*RES
1 *273:6 *549:Y 3.20000005
2 *273:6 *273:8 0.183838
3 *273:7 *273:8 1.71602
4 *273:9 *543:A1 3.20000005
5 *273:7 *273:11 0.183838
6 *273:9 *273:10 0.156006
7 *273:10 *273:11 0.77998
8 *273:3 *273:10 3.20000005
9 *273:4 *273:3 1.28701
10 *273:5 *273:4 3.20000005
11 *546:A *273:5 3.20000005
*END

*D_NET *274 0.000745588

*CONN
*I *546:Y O *C 95.37 32.76 *L 0 *D INVX1
*I *542:A0 I *C 92.07 33.32 *L 0.00336 *D OAI21XL

*CAP
1 *546:Y 7.97308e-05
2 *542:A0 6.32994e-05
3 *274:2 6.57192e-05
4 *274:3 6.99192e-05
5 *274:4 6.99192e-05
6 *274:5 6.99192e-05
7 *274:6 6.99192e-05
8 *274:7 0.000115059
9 *274:8 0.0001421

*RES
1 *274:7 *546:Y 0.447656
2 *274:8 *274:7 3.2
3 *274:5 *274:8 0.183887
4 *274:5 *274:6 0.155957
5 *274:3 *274:6 0.183887
6 *274:3 *274:4 0.155957
7 *274:2 *274:4 0.183887
8 *542:A0 *274:2 6.4000001
*END

*D_NET *275 0.00952292

*CONN
*I *680:QN O *C 96.03 26.6 *L 0 *D DFFX1
*I *650:A0 I *C 85.47 37.24 *L 0.00465 *D AOI22X1
*I *548:B1 I *C 82.83 22.68 *L 0.00444 *D OAI2BB2X1
*I *548:A0N I *C 80.85 23.24 *L 0.00186 *D OAI2BB2X1
*I *545:B1 I *C 81.51 42.84 *L 0.00419 *D OAI22X1
*I *544:B1 I *C 92.73 42.84 *L 0.00419 *D OAI22X1

*CAP
1 *680:QN 0.000139839
2 *650:A0 6.33022e-05
3 *548:B1 0.000139839
4 *548:A0N 0.000139839
5 *545:B1 0.000139839
6 *544:B1 3.98398e-05
7 *275:6 8.84235e-05
8 *275:7 0.000183745
9 *275:8 0.000141485
10 *275:9 0.000195644
11 *275:10 0.00042448
12 *275:11 0.000494169
13 *275:12 0.000469796
14 *275:13 0.00040012
15 *275:14 0.000627733
16 *275:15 0.00026214
17 *275:16 0.000448666
18 *275:17 0.000300083
19 *275:18 0.000300083
20 *275:19 0.000260855
21 *275:20 0.000205972
22 *275:21 0.000120605
23 *275:22 0.000123661
24 *275:23 0.000182959
25 *275:24 0.000290766
26 *275:25 0.00081744
27 *275:26 0.000762557
28 *275:27 0.000394444
29 *275:28 0.000129897
30 *275:29 7.51643e-05
31 *275:30 0.000120605
32 *275:31 0.000394444
33 *275:32 0.00010752
34 *275:33 9.88138e-05
35 *275:16 *277:7 0.00021906
36 *275:14 *277:5 0.000219059994

*RES
1 *275:29 *544:B1 0.223828
2 *275:13 *650:A0 6.4000001
3 *275:21 *545:B1 3.2
4 *275:30 *275:29 3.2
5 *275:13 *275:12 1.55996
6 *275:15 *275:21 3.2
7 *275:16 *275:30 3.2
8 *275:14 *275:12 3.2
9 *275:15 *275:14 1.10312
10 *275:14 *275:16 1.83857
11 *275:10 *680:QN 3.2
12 *275:19 *275:14 3.2
13 *275:11 *275:10 1.55996
14 *275:20 *275:19 0.77998
15 *275:33 *275:11 3.2
16 *275:17 *275:20 0.183887
17 *275:32 *275:33 0.551562
18 *275:18 *275:17 1.55996
19 *275:31 *275:32 0.155957
20 *275:18 *275:26 0.183887
21 *275:27 *275:31 1.83857
22 *275:25 *275:26 3.74404
23 *275:27 *275:28 0.155957
24 *275:24 *275:25 3.2
25 *275:24 *275:28 0.551562
26 *275:23 *275:24 0.735449
27 *275:22 *275:23 3.2
28 *275:8 *548:B1 3.2
29 *275:6 *548:A0N 3.2
30 *275:22 *275:9 0.155957
31 *275:9 *275:8 0.312012
32 *275:7 *275:6 0.467969
33 *275:7 *275:9 0.551562
*END

*D_NET *276 0.000930868

*CONN
*I *545:Y O *C 82.83 41.72 *L 0 *D OAI22X1
*I *537:A1 I *C 89.43 42.84 *L 0.00472 *D AOI22X1

*CAP
1 *545:Y 0.000126761
2 *537:A1 6.32982e-05
3 *276:2 0.000162088
4 *276:3 0.00026288
5 *276:4 0.000225707
6 *276:5 9.01297e-05

*RES
1 *276:5 *537:A1 6.4000001
2 *276:4 *276:5 0.312012
3 *276:3 *276:4 0.735449
4 *276:2 *276:3 3.2
5 *545:Y *276:2 0.671484
*END

*D_NET *277 0.00190882

*CONN
*I *544:Y O *C 94.05 41.72 *L 0 *D OAI22X1
*I *537:B1 I *C 87.45 43.4 *L 0.00434 *D AOI22X1

*CAP
1 *544:Y 0.000139844
2 *537:B1 0.000139844
3 *277:2 0.00012692
4 *277:3 5.72366e-05
5 *277:4 0.000120601
6 *277:5 0.00037146
7 *277:6 0.000170163
8 *277:7 0.000344638
9 *277:7 *275:16 0.00021906
10 *277:5 *275:14 0.000219059994

*RES
1 *277:3 *544:Y 3.20000005
2 *277:3 *277:2 0.156006
3 *277:6 *277:2 3.20000005
4 *277:6 *277:7 0.312012
5 *277:5 *277:7 1.83857
6 *277:4 *277:5 3.20000005
7 *537:B1 *277:4 3.20000005
*END

*D_NET *278 0.00376638

*CONN
*I *547:Y O *C 82.17 38.36 *L 0 *D NAND2X1
*I *543:A0 I *C 98.67 32.76 *L 0.00456 *D OAI22X1
*I *542:B0 I *C 92.73 32.2 *L 0.00302 *D OAI21XL

*CAP
1 *547:Y 0.000139834
2 *543:A0 0.000139834
3 *542:B0 3.98557e-05
4 *278:3 0.000391248
5 *278:4 0.000460936
6 *278:5 0.00090724
7 *278:6 0.000521294
8 *278:7 9.91617e-05
9 *278:8 0.00016885
10 *278:9 0.000469035
11 *278:10 0.00015174
12 *278:11 0.000138685
13 *278:12 0.000138685

*RES
1 *278:10 *542:B0 0.223828
2 *278:12 *543:A0 3.20000005
3 *278:7 *278:10 3.20000005
4 *278:11 *278:12 0.468018
5 *278:8 *278:7 0.312012
6 *278:9 *278:11 3.20000005
7 *278:5 *278:8 3.20000005
8 *278:5 *278:9 1.83857
9 *278:6 *278:5 2.57402
10 *278:3 *547:Y 3.20000005
11 *278:4 *278:6 3.20000005
12 *278:4 *278:3 1.56001
*END

*D_NET *279 0.00046088

*CONN
*I *539:Y O *C 98.67 23.8 *L 0 *D INVXL
*I *534:B0 I *C 103.29 22.12 *L 0.00302 *D OAI21XL

*CAP
1 *539:Y 0.00023044
2 *534:B0 0.00023044

*RES
1 *539:Y *534:B0 1.56678
*END

*D_NET *280 0.0012238

*CONN
*I *538:Y O *C 113.85 23.24 *L 0 *D OAI2BB2XL
*I *533:D I *C 111.87 27.16 *L 0.00207 *D DFFHQX1

*CAP
1 *538:Y 0.000139838
2 *533:D 0.000139838
3 *280:2 0.000182363
4 *280:3 0.000289701
5 *280:4 0.00032996
6 *280:5 0.000142099

*RES
1 *280:5 *538:Y 3.20000005
2 *280:3 *280:5 0.183838
3 *280:3 *280:4 0.935986
4 *280:2 *280:4 0.367725
5 *533:D *280:2 3.20000005
*END

*D_NET *281 0.000972251

*CONN
*I *536:Y O *C 86.79 49 *L 0 *D OAI22X1
*I *520:A1 I *C 84.15 52.92 *L 0.00472 *D AOI22X1

*CAP
1 *536:Y 8.55912e-05
2 *520:A1 6.32992e-05
3 *281:2 0.0002855
4 *281:3 0.000285369
5 *281:4 6.58521e-05
6 *281:5 0.000120918
7 *281:6 6.57214e-05

*RES
1 *281:5 *536:Y 0.447656
2 *281:6 *281:5 6.4000001
3 *281:3 *281:6 0.183887
4 *281:3 *281:2 1.09199
5 *281:4 *281:2 0.183887
6 *520:A1 *281:4 6.4000001
*END

*D_NET *282 0.00183896

*CONN
*I *535:Y O *C 88.11 51.8 *L 0 *D OAI22X1
*I *520:B1 I *C 82.17 53.48 *L 0.00434 *D AOI22X1

*CAP
1 *535:Y 0.000139838
2 *520:B1 0.000139838
3 *282:2 0.000125608
4 *282:3 0.00019529
5 *282:4 0.00039869
6 *282:5 0.000329014
7 *282:6 0.000138627
8 *282:7 6.89517e-05
9 *282:4 *260:21 0.00014638
10 *282:5 *260:22 0.00014638
11 *282:2 *260:23 5.17e-06
12 *282:3 *260:24 5.17000024e-06

*RES
1 *282:7 *535:Y 3.20000005
2 *282:6 *282:7 0.156006
3 *282:4 *282:6 3.20000005
4 *282:2 *520:B1 3.20000005
5 *282:5 *282:4 1.65474
6 *282:3 *282:2 0.624023
7 *282:3 *282:5 3.20000005
*END

*D_NET *283 0.00129317

*CONN
*I *679:D I *C 99.33 27.16 *L 0.00191 *D DFFX1
*I *534:Y O *C 103.29 21.56 *L 0 *D OAI21XL

*CAP
1 *679:D 0.000139841
2 *534:Y 0.000139841
3 *283:2 0.0003434
4 *283:3 0.000198183
5 *283:4 0.00039948
6 *283:5 7.24227e-05

*RES
1 *283:5 *534:Y 3.20000005
2 *283:3 *283:5 0.183838
3 *283:3 *283:4 0.77998
4 *283:2 *283:4 1.10312
5 *679:D *283:2 3.20000005
*END

*D_NET *284 0.00020892

*CONN
*I *532:Y O *C 72.93 38.36 *L 0 *D AOI22X1
*I *528:A I *C 75.57 37.24 *L 0.00346 *D INVX1

*CAP
1 *532:Y 0.00010446
2 *528:A 0.00010446

*RES
1 *532:Y *528:A 0.671478
*END

*D_NET *285 0.00024954

*CONN
*I *531:Y O *C 88.11 22.12 *L 0 *D AOI22X1
*I *527:A I *C 90.75 23.24 *L 0.00346 *D INVX1

*CAP
1 *531:Y 0.00012477
2 *527:A 0.00012477

*RES
1 *531:Y *527:A 0.671478
*END

*D_NET *286 0.00841085

*CONN
*I *540:Y O *C 98.01 37.8 *L 0 *D NOR2X1
*I *539:A I *C 98.01 23.24 *L 0.0026 *D INVXL
*I *532:A0 I *C 72.27 37.24 *L 0.00465 *D AOI22X1
*I *531:A0 I *C 87.45 23.24 *L 0.00465 *D AOI22X1
*I *530:A0 I *C 72.27 23.24 *L 0.00465 *D AOI22X1
*I *529:A0 I *C 72.27 33.32 *L 0.00465 *D AOI22X1

*CAP
1 *540:Y 0.000132904
2 *539:A 7.7553e-05
3 *532:A0 6.32958e-05
4 *531:A0 6.32958e-05
5 *530:A0 6.32958e-05
6 *529:A0 6.32958e-05
7 *286:6 0.000579566
8 *286:7 0.000594367578
9 *286:8 0.00037495
10 *286:9 0.000429829
11 *286:10 0.000160384
12 *286:11 0.000151678
13 *286:12 0.000258571
14 *286:13 0.000446046
15 *286:14 0.000177417
16 *286:15 0.000314212
17 *286:16 0.000314212
18 *286:17 5.09251e-05
19 *286:18 0.000173526
20 *286:19 0.000118647
21 *286:20 0.000159142
22 *286:21 0.000219844
23 *286:22 0.000120597
24 *286:23 0.000144341
25 *286:24 0.000150172
26 *286:25 0.000437484
27 *286:26 0.000437484
28 *286:27 0.000120597
29 *286:28 0.000277299
30 *286:29 0.000120597
31 *286:30 0.000244767
32 *286:31 0.000326882
33 *286:19 *367:37 2.379e-05
34 *286:18 *367:38 2.379e-05
35 *286:16 *367:37 4.985e-05
36 *286:15 *367:38 4.985e-05
37 *286:12 *367:39 9.572e-05
38 *286:13 *367:19 9.572e-05
39 *286:13 *367:39 1.263e-05
40 *286:14 *367:19 1.263e-05
41 *286:26 *367:19 8.983e-05
42 *286:25 *367:20 8.983e-05
43 *286:13 *367:19 6.124e-05
44 *286:14 *367:20 6.124e-05
45 *286:10 *367:19 2.527e-05
46 *286:11 *367:20 2.527e-05
47 *286:10 *367:20 2.377e-05
48 *286:11 *367:21 2.377e-05
49 *286:24 *367:40 0.00013974
50 *286:21 *367:9 0.000139739983

*RES
1 *286:30 *540:Y 0.671484
2 *286:6 *286:30 3.2
3 *286:7 *286:6 2.96396
4 *286:7 *286:8 0.183887
5 *286:9 *286:8 1.24805
6 *286:31 *539:A 0.447656
7 *286:31 *286:9 3.2
8 *286:28 *286:31 1.34297
9 *286:29 *286:28 3.2
10 *286:27 *531:A0 6.4000001
11 *286:12 *286:29 3.2
12 *286:13 *286:27 3.2
13 *286:13 *286:12 1.4709
14 *286:14 *286:13 1.10312
15 *286:24 *532:A0 6.4000001
16 *286:14 *286:26 0.155957
17 *286:21 *529:A0 6.4000001
18 *286:21 *286:24 1.09199
19 *286:25 *286:26 2.39014
20 *286:22 *286:21 3.2
21 *286:17 *530:A0 6.4000001
22 *286:10 *286:25 0.155957
23 *286:23 *286:22 3.2
24 *286:11 *286:17 6.4000001
25 *286:11 *286:10 0.735449
26 *286:20 *286:23 0.624023
27 *286:18 *286:11 3.2
28 *286:16 *286:20 0.183887
29 *286:18 *286:19 0.467969
30 *286:15 *286:16 1.71602
31 *286:15 *286:19 0.183887
*END

*D_NET *287 0.00128914

*CONN
*I *530:Y O *C 72.93 22.12 *L 0 *D AOI22X1
*I *526:A I *C 68.31 23.24 *L 0.00346 *D INVX1

*CAP
1 *530:Y 0.000139841
2 *526:A 0.000139841
3 *287:2 0.000120599
4 *287:3 0.000127399
5 *287:4 0.0001361
6 *287:5 0.00025673
7 *287:6 0.000120599
8 *287:7 0.000248029

*RES
1 *287:6 *530:Y 3.20000005
2 *287:7 *287:6 3.20000005
3 *287:5 *287:7 0.919287
4 *287:4 *287:5 0.156006
5 *287:3 *287:4 0.551562
6 *287:2 *287:3 3.20000005
7 *526:A *287:2 3.20000005
*END

*D_NET *288 0.0011166

*CONN
*I *529:Y O *C 72.93 32.2 *L 0 *D AOI22X1
*I *525:A I *C 68.97 33.32 *L 0.00346 *D INVX1

*CAP
1 *529:Y 6.32994e-05
2 *525:A 0.00013984
3 *288:2 0.000120599
4 *288:3 0.0001724
5 *288:4 0.000111419
6 *288:5 0.00019857
7 *288:6 0.000120599
8 *288:7 0.000189871

*RES
1 *288:6 *529:Y 6.4000001
2 *288:7 *288:6 3.2
3 *288:5 *288:7 0.735449
4 *288:4 *288:5 0.155957
5 *288:3 *288:4 0.551562
6 *288:2 *288:3 3.2
7 *525:A *288:2 3.2
*END

*D_NET *289 0.00175999

*CONN
*I *678:D I *C 69.63 43.4 *L 0.00191 *D DFFX1
*I *528:Y O *C 76.23 37.8 *L 0 *D INVX1

*CAP
1 *678:D 0.000139841
2 *528:Y 0.00012438
3 *289:2 0.000159708
4 *289:3 0.000383665
5 *289:4 0.000382857
6 *289:5 0.00056954

*RES
1 *289:2 *528:Y 0.671484
2 *289:4 *289:2 3.20000005
3 *289:4 *289:5 1.404
4 *289:3 *289:5 1.28701
5 *678:D *289:3 3.20000005
*END

*D_NET *290 0.00148295

*CONN
*I *680:D I *C 86.79 27.16 *L 0.00191 *D DFFX1
*I *527:Y O *C 91.41 22.68 *L 0 *D INVX1

*CAP
1 *680:D 0.000139841
2 *527:Y 6.22141e-05
3 *290:2 9.75468e-05
4 *290:3 0.00049319
5 *290:4 0.000387026
6 *290:5 0.000303139

*RES
1 *290:2 *527:Y 0.447656
2 *290:4 *290:2 3.20000005
3 *290:4 *290:3 1.404
4 *290:5 *290:3 0.919287
5 *680:D *290:5 3.20000005
*END

*D_NET *291 0.00147019

*CONN
*I *526:Y O *C 68.97 22.68 *L 0 *D INVX1
*I *523:D I *C 63.69 27.16 *L 0.00207 *D DFFHQX1

*CAP
1 *526:Y 0.000318908
2 *523:D 0.000139841
3 *291:2 0.00035424
4 *291:3 0.00036344
5 *291:4 0.000293758

*RES
1 *291:4 *523:D 3.20000005
2 *291:3 *291:4 1.404
3 *291:2 *291:3 3.20000005
4 *291:2 *526:Y 1.79062
*END

*D_NET *292 0.00192335

*CONN
*I *677:D I *C 59.07 33.32 *L 0.00191 *D DFFX1
*I *525:Y O *C 69.63 32.76 *L 0 *D INVX1

*CAP
1 *677:D 0.00013984
2 *525:Y 0.00013984
3 *292:2 0.00061239
4 *292:3 0.00061239
5 *292:4 8.2521e-05
6 *292:5 0.000152203
7 *292:6 5.72442e-05
8 *292:7 0.000126926

*RES
1 *292:6 *525:Y 3.20000005
2 *292:6 *292:7 0.156006
3 *292:2 *292:7 3.20000005
4 *292:3 *292:2 2.9417
5 *292:5 *292:3 3.20000005
6 *292:4 *292:5 0.312012
7 *677:D *292:4 3.20000005
*END

*D_NET *293 0.00141522

*CONN
*I *537:Y O *C 89.43 42.28 *L 0 *D AOI22X1
*I *524:B0 I *C 90.75 37.24 *L 0.00464 *D OAI2BB2X1
*I *524:A1N I *C 88.77 37.8 *L 0.00219 *D OAI2BB2X1

*CAP
1 *537:Y 6.33011e-05
2 *524:B0 0.00013984
3 *524:A1N 6.33011e-05
4 *293:3 0.000268061
5 *293:4 0.000282861035
6 *293:5 6.57182e-05
7 *293:6 0.000113438
8 *293:7 0.00013463
9 *293:8 0.000101711
10 *293:9 0.000182359

*RES
1 *293:3 *537:Y 6.4000001
2 *293:9 *524:B0 3.2
3 *293:4 *293:3 0.77998
4 *293:6 *293:9 0.367676
5 *293:8 *293:4 0.183887
6 *293:6 *293:7 0.155957
7 *293:7 *293:8 0.467969
8 *293:5 *293:7 0.183887
9 *524:A1N *293:5 6.4000001
*END

*D_NET *294 0.00150991

*CONN
*I *521:Y O *C 103.95 43.4 *L 0 *D OAI2BB2X1
*I *519:D I *C 99.99 37.24 *L 0.00207 *D DFFHQX1

*CAP
1 *521:Y 0.000139838
2 *519:D 0.000139838
3 *294:2 0.000303141
4 *294:3 0.00047302
5 *294:4 0.000311976
6 *294:5 0.000142097

*RES
1 *294:5 *521:Y 3.20000005
2 *294:4 *294:5 0.183838
3 *294:3 *294:4 1.248
4 *294:2 *294:3 0.919287
5 *519:D *294:2 3.20000005
*END

*D_NET *295 0.00138973

*CONN
*I *520:Y O *C 84.15 52.36 *L 0 *D AOI22X1
*I *518:B0 I *C 83.49 47.32 *L 0.00464 *D OAI2BB2X1
*I *518:A1N I *C 81.51 47.88 *L 0.00219 *D OAI2BB2X1

*CAP
1 *520:Y 6.3303e-05
2 *518:B0 0.000139843
3 *518:A1N 0.000139843
4 *295:3 0.000142104
5 *295:4 0.000113439
6 *295:5 7.31798e-05
7 *295:6 0.0003495
8 *295:7 0.000302671
9 *295:8 6.58522e-05

*RES
1 *295:8 *520:Y 6.4000001
2 *295:7 *295:8 0.183887
3 *295:6 *518:B0 3.2
4 *295:6 *295:7 1.404
5 *295:4 *295:6 0.367676
6 *295:4 *295:5 0.155957
7 *295:3 *295:5 0.183887
8 *518:A1N *295:3 3.2
*END

*D_NET *296 0.011045

*CONN
*I *524:Y O *C 92.07 37.24 *L 0 *D OAI2BB2X1
*I *522:A I *C 84.15 67.48 *L 0.00346 *D INVX1
*I *521:B0 I *C 102.63 43.4 *L 0.00464 *D OAI2BB2X1
*I *520:B0 I *C 82.83 52.92 *L 0.00433 *D AOI22X1
*I *517:B I *C 91.41 67.48 *L 0.0037 *D OR2X2
*I *514:B I *C 81.51 73.64 *L 0.00375 *D NAND2X1

*CAP
1 *524:Y 0.000139833
2 *522:A 0.000139833
3 *521:B0 0.000139833
4 *520:B0 0.000139833
5 *517:B 0.000139833
6 *514:B 0.000111877
7 *296:6 0.000112072
8 *296:7 0.000112072
9 *296:8 0.000106081
10 *296:9 0.000175741
11 *296:10 0.000292407
12 *296:11 0.000222729
13 *296:12 0.000472301
14 *296:13 0.000960189
15 *296:14 0.000501282
16 *296:15 0.000365531
17 *296:16 0.000168372
18 *296:17 0.00025452
19 *296:18 0.000316405
20 *296:19 0.000290693
21 *296:20 0.00115809
22 *296:21 0.0011099
23 *296:22 0.00069268
24 *296:23 0.000747568
25 *296:24 0.000250208
26 *296:25 0.000120607
27 *296:26 0.000120607
28 *296:27 0.000142219
29 *296:28 0.000146354
30 *296:29 0.000309124
31 *296:30 0.000173656
32 *296:31 0.000228632
33 *296:12 *145:5 0.00018974
34 *296:13 *145:6 0.00018974
35 *296:13 *145:5 0.0001522
36 *296:14 *145:6 0.000152199991

*RES
1 *296:8 *521:B0 3.2
2 *296:9 *296:8 0.468029
3 *296:11 *524:Y 3.2
4 *296:12 *296:9 3.2
5 *296:11 *296:10 0.935986
6 *296:13 *296:12 2.94171
7 *296:13 *296:10 3.2
8 *296:14 *296:13 2.39013
9 *296:25 *520:B0 3.2
10 *296:23 *296:14 3.2
11 *296:7 *517:B 3.2
12 *296:26 *296:25 3.2
13 *296:23 *296:22 3.12002
14 *296:7 *296:6 0.311995
15 *296:21 *296:26 3.2
16 *296:21 *296:22 0.183884
17 *296:18 *296:6 3.2
18 *296:21 *296:20 4.67999983
19 *296:19 *296:18 1.10316
20 *296:27 *522:A 3.2
21 *296:16 *296:20 3.2
22 *296:19 *296:17 0.311995
23 *296:27 *296:28 0.183884
24 *296:16 *296:15 0.55158
25 *296:15 *296:17 0.735463
26 *296:28 *296:29 0.62399
27 *296:29 *296:15 3.2
28 *296:29 *296:31 0.62399
29 *296:30 *296:31 3.2
30 *296:24 *514:B 0.569718
31 *296:24 *296:30 1.11916
*END

*D_NET *297 0.00424477

*CONN
*I *522:Y O *C 84.81 68.04 *L 0 *D INVX1
*I *520:A0 I *C 83.49 53.48 *L 0.00465 *D AOI22X1
*I *516:B I *C 82.17 67.48 *L 0.0037 *D OR2X2
*I *515:B I *C 84.15 73.64 *L 0.00375 *D NAND2X1

*CAP
1 *522:Y 3.98592e-05
2 *520:A0 6.33034e-05
3 *516:B 0.000139836
4 *515:B 3.98592e-05
5 *297:4 0.000228333
6 *297:5 0.000198983
7 *297:6 0.000166072
8 *297:7 0.000166072
9 *297:8 8.91548e-05
10 *297:9 0.00015884
11 *297:10 0.000161541
12 *297:11 0.000161541
13 *297:12 0.00066282
14 *297:13 0.00066282
15 *297:14 0.000298302
16 *297:15 0.00039401
17 *297:16 0.000167751
18 *297:17 0.00015173
19 *297:18 0.00015173
20 *297:19 0.000142233

*RES
1 *297:7 *520:A0 6.4000001
2 *297:7 *297:6 0.77998
3 *297:9 *297:6 3.2
4 *297:9 *297:8 0.183887
5 *297:17 *515:B 0.223828
6 *297:18 *522:Y 0.223828
7 *297:13 *297:8 3.2
8 *297:14 *297:17 3.2
9 *297:19 *297:18 3.2
10 *297:13 *297:12 2.496
11 *297:15 *297:14 1.404
12 *297:15 *297:19 0.183887
13 *297:10 *297:12 3.2
14 *297:16 *297:15 0.367676
15 *297:11 *297:10 0.551562
16 *297:4 *516:B 3.2
17 *297:4 *297:16 0.312012
18 *297:5 *297:11 3.2
19 *297:5 *297:4 0.624023
*END

*D_NET *298 0.0120497

*CONN
*I *518:Y O *C 84.81 47.32 *L 0 *D OAI2BB2X1
*I *517:A I *C 90.75 67.48 *L 0.00337 *D OR2X2
*I *516:A I *C 81.51 67.48 *L 0.00337 *D OR2X2
*I *515:A I *C 84.81 73.08 *L 0.00403 *D NAND2X1
*I *514:A I *C 82.17 73.08 *L 0.00403 *D NAND2X1
*I *513:B0 I *C 112.53 37.24 *L 0.00464 *D OAI2BB2X1

*CAP
1 *518:Y 0.000139831
2 *517:A 0.000139831
3 *516:A 0.000139831
4 *515:A 0.000139831
5 *514:A 6.33039e-05
6 *513:B0 0.000139831
7 *298:6 0.000260995
8 *298:7 0.000191318
9 *298:8 0.0014864275
10 *298:9 0.0014864275
11 *298:10 0.000193745
12 *298:11 0.000193745
13 *298:12 0.000151512
14 *298:13 8.18119e-05
15 *298:14 0.000377623
16 *298:15 0.000307946
17 *298:16 0.000342422
18 *298:17 0.000272744
19 *298:18 0.000129624
20 *298:19 0.000129624
21 *298:20 0.00133399
22 *298:21 0.00113459
23 *298:22 0.000216948
24 *298:23 0.000261063
25 *298:24 0.000261063
26 *298:25 0.000327338
27 *298:26 0.000272585
28 *298:27 0.000158112
29 *298:28 0.000143165
30 *298:29 0.000376625
31 *298:30 0.000376625
32 *298:31 0.00022534
33 *298:32 0.000280206
34 *298:33 0.000120597
35 *298:34 0.000120597
36 *298:35 7.24218e-05

*RES
1 *298:10 *513:B0 3.19997
2 *298:11 *298:10 0.467955
3 *298:8 *298:11 3.19997
4 *298:9 *298:8 7.17042875
5 *298:32 *298:9 3.19997
6 *298:32 *298:31 0.93602
7 *298:31 *298:30 0.183812
8 *298:6 *517:A 3.19997
9 *298:30 *298:29 1.71602
10 *298:33 *518:Y 3.19997
11 *298:7 *298:6 0.623977
12 *298:19 *298:29 0.183812
13 *298:13 *298:33 3.19997
14 *298:14 *298:7 3.19997
15 *298:19 *298:18 0.467955
16 *298:13 *298:12 0.367734
17 *298:15 *298:14 1.28701
18 *298:21 *298:18 0.183812
19 *298:21 *298:12 3.19997
20 *298:20 *298:15 3.19997
21 *298:21 *298:20 5.14795
22 *298:20 *298:22 1.09204
23 *298:24 *298:22 0.183812
24 *298:24 *298:23 1.09204
25 *298:34 *515:A 3.19997
26 *298:35 *298:23 0.183812
27 *298:16 *298:34 3.19997
28 *298:16 *298:35 3.19997
29 *298:17 *298:16 0.735468
30 *298:25 *514:A 6.39995
31 *298:25 *298:17 3.19997
32 *298:26 *298:25 0.93602
33 *298:27 *298:26 0.183812
34 *298:28 *298:27 0.623977
35 *516:A *298:28 3.19997
*END

*D_NET *299 0.00135369

*CONN
*I *513:Y O *C 111.21 37.24 *L 0 *D OAI2BB2X1
*I *506:D I *C 111.87 33.32 *L 0.00207 *D DFFHQX1

*CAP
1 *513:Y 4.12097e-05
2 *506:D 0.00013984
3 *299:2 0.000176981
4 *299:3 0.000182819
5 *299:4 7.99918e-05
6 *299:5 0.00024666
7 *299:6 7.85089e-05
8 *299:7 0.000112432
9 *299:8 0.000112432
10 *299:9 0.000182819

*RES
1 *299:7 *506:D 3.20000005
2 *299:7 *299:8 0.312012
3 *299:6 *513:Y 0.223828
4 *299:9 *299:8 3.20000005
5 *299:4 *299:6 0.189893
6 *299:3 *299:9 0.367725
7 *299:5 *299:4 3.20000005
8 *299:2 *299:3 3.20000005
9 *299:2 *299:5 0.468018
*END

*D_NET *300 0.00224604

*CONN
*I *602:Y O *C 66.33 77 *L 0 *D AOI2BB1X1
*I *563:B I *C 70.95 77.56 *L 0.00375 *D NAND2X1
*I *512:B I *C 73.59 78.12 *L 0.00274 *D NOR2XL
*I *470:B0 I *C 69.63 77.56 *L 0.00319 *D AOI21XL

*CAP
1 *602:Y 4.12087e-05
2 *563:B 0.000139837
3 *512:B 0.000139837
4 *470:B0 4.17236e-05
5 *300:4 7.4509e-05
6 *300:5 0.000123129
7 *300:6 7.65396e-05
8 *300:7 0.000182619
9 *300:8 8.44076e-05
10 *300:9 6.52293e-05
11 *300:10 0.000193484
12 *300:11 0.000318718
13 *300:12 0.0001206
14 *300:13 0.000144448
15 *300:14 0.0001206
16 *300:15 0.00037914

*RES
1 *300:14 *512:B 3.2
2 *300:12 *563:B 3.2
3 *300:15 *300:14 3.2
4 *300:13 *300:12 3.2
5 *300:11 *300:15 1.10312
6 *300:10 *300:13 0.367676
7 *300:10 *300:11 0.155957
8 *300:8 *470:B0 0.223828
9 *300:9 *300:10 0.183887
10 *300:4 *300:8 6.4000001
11 *300:4 *300:9 6.4000001
12 *300:5 *300:4 0.155957
13 *300:7 *300:5 0.367676
14 *300:6 *300:7 3.2
15 *602:Y *300:6 0.223828
*END

*D_NET *301 0.00119427

*CONN
*I *512:Y O *C 74.91 78.12 *L 0 *D NOR2XL
*I *501:B0 I *C 72.93 72.52 *L 0.00314 *D AOI2BB1XL

*CAP
1 *512:Y 0.000166959
2 *501:B0 6.33009e-05
3 *301:2 0.00034259
4 *301:3 0.000278829
5 *301:4 0.00034259

*RES
1 *301:3 *512:Y 0.671484
2 *301:4 *301:3 3.2
3 *301:2 *301:4 1.71602
4 *501:B0 *301:2 6.4000001
*END

*D_NET *302 0.00475191

*CONN
*I *601:Y O *C 59.73 87.08 *L 0 *D AOI2BB1X1
*I *563:A I *C 71.61 78.12 *L 0.00403 *D NAND2X1
*I *511:B I *C 76.23 78.12 *L 0.00274 *D NOR2XL
*I *483:B0 I *C 74.91 83.72 *L 0.00319 *D AOI21XL

*CAP
1 *601:Y 4.12086e-05
2 *563:A 0.000139841
3 *511:B 7.45892e-05
4 *483:B0 6.33039e-05
5 *302:4 0.000154304
6 *302:5 0.000139365
7 *302:6 0.000422765
8 *302:7 0.000145591
9 *302:8 0.00041367
10 *302:9 0.000374409
11 *302:10 0.000397772
12 *302:11 0.000124203
13 *302:12 5.45254e-05
14 *302:13 0.000174368
15 *302:14 0.00061072
16 *302:15 0.000493729
17 *302:16 7.65369e-05
18 *302:17 6.5848e-05
19 *302:18 5.1096e-05
20 *302:19 9.50723e-05
21 *302:19 *343:8 3.182e-05
22 *302:18 *343:9 3.182e-05
23 *302:14 *343:10 8.333e-05
24 *302:15 *343:11 8.333e-05
25 *302:14 *343:8 1.506e-05
26 *302:15 *343:9 1.506e-05
27 *302:13 *132:2 0.00015798
28 *302:14 *132:3 0.00015798
29 *302:14 *132:2 3.131e-05
30 *302:15 *132:3 3.13099991e-05

*RES
1 *511:B *302:8 0.379785
2 *302:9 *302:8 1.5668
3 *302:7 *563:A 3.2
4 *302:12 *483:B0 6.4000001
5 *302:6 *302:9 3.2
6 *302:7 *302:6 0.312012
7 *302:12 *302:11 0.155957
8 *302:6 *302:10 1.404
9 *302:13 *302:11 3.2
10 *302:14 *302:10 3.2
11 *302:14 *302:13 0.919238
12 *302:15 *302:14 2.57402
13 *302:15 *302:19 0.312012
14 *302:18 *302:19 0.183887
15 *302:5 *302:18 6.4000001
16 *302:5 *302:4 0.467969
17 *302:17 *302:4 0.183887
18 *302:16 *302:17 6.4000001
19 *601:Y *302:16 0.223828
*END

*D_NET *303 0.001042

*CONN
*I *511:Y O *C 77.55 78.12 *L 0 *D NOR2XL
*I *502:B0 I *C 76.23 72.52 *L 0.00314 *D AOI2BB1XL

*CAP
1 *511:Y 0.000139841
2 *502:B0 6.33012e-05
3 *303:2 0.00030009
4 *303:3 0.00024477
5 *303:4 0.000139818
6 *303:5 0.000154178

*RES
1 *303:5 *511:Y 3.2
2 *303:4 *303:5 0.312012
3 *303:2 *303:4 0.367676
4 *303:3 *303:2 1.24805
5 *502:B0 *303:3 6.4000001
*END

*D_NET *304 0.00369761

*CONN
*I *619:Y O *C 90.09 94.36 *L 0 *D AOI2BB1X1
*I *562:B I *C 95.37 77.56 *L 0.00375 *D NAND2X1
*I *510:B I *C 88.77 78.12 *L 0.00385 *D NOR2X1
*I *476:B0 I *C 88.11 83.72 *L 0.00319 *D AOI21XL

*CAP
1 *619:Y 0.000139838
2 *562:B 7.97225e-05
3 *510:B 6.32939e-05
4 *476:B0 6.32939e-05
5 *304:4 0.000224284
6 *304:5 0.000327036
7 *304:6 0.000142579
8 *304:7 0.000127657
9 *304:8 0.000126918
10 *304:9 0.000126918
11 *304:10 0.000500965
12 *304:11 0.00063707
13 *304:12 0.000343047
14 *304:13 0.000412727
15 *304:14 0.000267183
16 *304:15 0.000115059

*RES
1 *304:15 *562:B 0.447656
2 *304:9 *304:15 3.2
3 *304:9 *304:8 0.155957
4 *304:12 *304:8 3.2
5 *304:10 *619:Y 3.2
6 *304:13 *304:12 1.4709
7 *304:11 *304:10 2.02803
8 *304:7 *510:B 6.4000001
9 *304:7 *304:13 3.2
10 *304:4 *304:11 0.735449
11 *304:7 *304:6 0.467969
12 *304:5 *476:B0 6.4000001
13 *304:5 *304:4 0.467969
14 *304:14 *304:6 0.183887
15 *304:14 *304:5 1.09199
*END

*D_NET *305 0.00124037

*CONN
*I *510:Y O *C 90.09 78.12 *L 0 *D NOR2X1
*I *503:B0 I *C 88.11 72.52 *L 0.00314 *D AOI2BB1XL

*CAP
1 *510:Y 0.000126239
2 *503:B0 6.33025e-05
3 *305:2 0.00040636
4 *305:3 0.000238111
5 *305:4 0.00040636

*RES
1 *305:3 *510:Y 0.671484
2 *305:4 *305:3 3.2
3 *305:2 *305:4 1.71602
4 *503:B0 *305:2 6.4000001
*END

*D_NET *306 0.00503683

*CONN
*I *620:Y O *C 94.71 94.36 *L 0 *D AOI2BB1X1
*I *562:A I *C 96.03 78.12 *L 0.00403 *D NAND2X1
*I *509:B I *C 91.41 78.12 *L 0.00385 *D NOR2X1
*I *482:B0 I *C 94.71 83.72 *L 0.00319 *D AOI21XL

*CAP
1 *620:Y 3.72969e-05
2 *562:A 0.000139838
3 *509:B 7.45939e-05
4 *482:B0 6.33074e-05
5 *306:4 0.00073379
6 *306:5 0.00073379
7 *306:6 6.93089e-05
8 *306:7 7.60159e-05
9 *306:8 0.000111577
10 *306:9 7.119e-05
11 *306:10 0.000325909
12 *306:11 0.000365165
13 *306:12 0.000180483
14 *306:13 0.000188321
15 *306:14 0.000154461
16 *306:15 0.000233713
17 *306:16 0.00028233
18 *306:17 0.000210536
19 *306:18 0.000210536
20 *306:19 7.99908e-05
21 *306:20 0.000218956
22 *306:21 0.000163632
23 *306:17 *159:8 0.00015605
24 *306:18 *159:9 0.000156050005

*RES
1 *620:Y *306:19 0.189941
2 *306:7 *306:19 6.4000001
3 *306:7 *306:6 0.155957
4 *306:18 *306:6 6.4000001
5 *306:18 *306:17 0.919238
6 *306:21 *306:17 6.4000001
7 *306:20 *306:21 0.77998
8 *306:8 *306:20 0.367676
9 *306:9 *306:8 0.155957
10 *306:15 *482:B0 6.4000001
11 *306:4 *306:9 0.183887
12 *306:16 *306:15 0.936035
13 *306:5 *306:4 3.27598
14 *306:14 *562:A 3.2
15 *306:16 *306:12 0.367676
16 *306:12 *306:5 0.183887
17 *306:14 *306:13 0.312012
18 *306:13 *306:12 0.312012
19 *306:10 *306:13 3.2
20 *306:11 *306:10 1.5668
21 *509:B *306:11 0.379785
*END

*D_NET *307 0.00388383

*CONN
*I *514:Y O *C 82.17 72.52 *L 0 *D NAND2X1
*I *512:A I *C 74.25 77.56 *L 0.00317 *D NOR2XL
*I *511:A I *C 76.89 77.56 *L 0.00317 *D NOR2XL
*I *510:A I *C 89.43 77.56 *L 0.0043 *D NOR2X1
*I *509:A I *C 92.07 77.56 *L 0.0043 *D NOR2X1
*I *505:A0 I *C 85.47 77 *L 0.00465 *D AOI21X1

*CAP
1 *514:Y 4.12122e-05
2 *512:A 6.33004e-05
3 *511:A 6.33004e-05
4 *510:A 6.33004e-05
5 *509:A 6.33004e-05
6 *505:A0 0.000139842
7 *307:6 0.00020119
8 *307:7 0.000128063
9 *307:8 0.000114998
10 *307:9 0.000184678
11 *307:10 0.000193727
12 *307:11 0.000187028
13 *307:12 0.000394141
14 *307:13 7.65351e-05
15 *307:14 8.60677e-05
16 *307:15 0.000130055
17 *307:16 0.000228417
18 *307:17 0.000403399
19 *307:18 7.25523e-05
20 *307:19 0.00042789
21 *307:20 0.000142232
22 *307:21 0.000291567
23 *307:22 0.000187028

*RES
1 *307:13 *514:Y 0.223828
2 *307:22 *509:A 6.4000001
3 *307:9 *307:13 3.2
4 *307:6 *510:A 6.4000001
5 *307:6 *307:22 0.735449
6 *307:9 *307:8 0.467969
7 *307:20 *505:A0 3.2
8 *307:7 *307:6 0.155957
9 *307:14 *307:8 6.4000001
10 *307:18 *307:20 0.183887
11 *307:21 *307:7 3.2
12 *307:14 *307:15 0.183887
13 *307:19 *307:18 3.2
14 *307:19 *307:21 1.28701
15 *307:15 *307:16 0.312012
16 *307:16 *307:19 0.551562
17 *307:16 *307:17 0.155957
18 *307:12 *307:17 1.65469
19 *307:11 *511:A 6.4000001
20 *307:11 *307:12 6.4000001
21 *307:10 *307:11 0.735449
22 *512:A *307:10 6.4000001
*END

*D_NET *308 0.00103784

*CONN
*I *509:Y O *C 92.73 78.12 *L 0 *D NOR2X1
*I *500:B0 I *C 91.41 72.52 *L 0.00314 *D AOI2BB1XL

*CAP
1 *509:Y 0.00013984
2 *500:B0 6.33006e-05
3 *308:2 0.00030986
4 *308:3 0.000254541
5 *308:4 0.000127972
6 *308:5 0.000142327

*RES
1 *308:5 *509:Y 3.2
2 *308:4 *308:5 0.312012
3 *308:2 *308:4 0.367676
4 *308:3 *308:2 1.24805
5 *500:B0 *308:3 6.4000001
*END

*D_NET *309 0.00802753

*CONN
*I *617:Y O *C 106.59 102.2 *L 0 *D AOI2BB1XL
*I *566:B I *C 94.05 73.64 *L 0.00375 *D NAND2X1
*I *503:A1N I *C 87.45 73.08 *L 0.00223 *D AOI2BB1XL
*I *475:B0 I *C 92.07 83.72 *L 0.00319 *D AOI21XL

*CAP
1 *617:Y 0.000139837
2 *566:B 0.000139837
3 *503:A1N 0.000139837
4 *475:B0 6.32993e-05
5 *309:4 0.000112435
6 *309:5 0.000112435
7 *309:6 5.59502e-05
8 *309:7 0.000125631
9 *309:8 0.000431919
10 *309:9 0.000353463
11 *309:10 0.000231218
12 *309:11 0.000197587
13 *309:12 0.000190891
14 *309:13 0.000168725
15 *309:14 0.000238406
16 *309:15 0.00019123
17 *309:16 0.000199929
18 *309:17 0.000467858
19 *309:18 0.000468419
20 *309:19 0.000133515
21 *309:20 0.000124256
22 *309:21 0.000343432
23 *309:22 0.000545245
24 *309:23 0.000479086
25 *309:24 0.00055615
26 *309:25 0.000515891
27 *309:26 9.23565e-05
28 *309:27 0.000147237
29 *309:28 0.000120599
30 *309:29 0.000277341
31 *309:30 0.000138199
32 *309:27 *83:189 8.75e-06
33 *309:26 *83:190 8.75e-06
34 *309:25 *83:189 7.991e-05
35 *309:24 *83:190 7.991e-05
36 *309:17 *83:166 9.858e-05
37 *309:18 *83:167 9.858e-05
38 *309:15 *83:166 5.016e-05
39 *309:16 *83:167 5.016e-05
40 *309:19 *83:166 1.263e-05
41 *309:20 *83:167 1.263e-05
42 *309:19 *83:167 1.263e-05
43 *309:20 *83:191 1.26299949e-05

*RES
1 *309:13 *617:Y 3.2
2 *309:14 *309:13 0.624023
3 *309:15 *309:14 3.2
4 *309:16 *309:15 1.10312
5 *309:16 *309:17 0.155957
6 *309:18 *309:17 2.57402
7 *309:19 *309:18 0.155957
8 *309:20 *309:19 0.551562
9 *309:27 *309:20 3.2
10 *309:26 *309:27 0.467969
11 *309:25 *309:26 0.183887
12 *309:24 *309:25 2.96396
13 *309:11 *475:B0 6.4000001
14 *309:24 *309:30 0.367676
15 *309:12 *309:11 0.936035
16 *309:29 *309:30 0.312012
17 *309:7 *566:B 3.2
18 *309:28 *309:12 3.2
19 *309:21 *309:29 1.09199
20 *309:7 *309:6 0.155957
21 *309:22 *309:28 3.2
22 *309:22 *309:21 0.624023
23 *309:10 *309:6 3.2
24 *309:23 *309:22 1.71602
25 *309:8 *309:10 0.551562
26 *309:8 *309:23 3.2
27 *309:9 *309:8 1.28701
28 *309:4 *309:9 3.2
29 *309:5 *309:4 0.312012
30 *503:A1N *309:5 3.2
*END

*D_NET *310 0.000750358

*CONN
*I *503:Y O *C 89.43 71.96 *L 0 *D AOI2BB1XL
*I *497:C0 I *C 89.43 68.04 *L 0.00329 *D OAI221XL

*CAP
1 *503:Y 0.000139839
2 *497:C0 0.000139839
3 *310:2 0.00023534
4 *310:3 0.00023534

*RES
1 *310:3 *503:Y 3.20000005
2 *310:2 *310:3 1.09199
3 *497:C0 *310:2 3.20000005
*END

*D_NET *311 0.00607892

*CONN
*I *598:Y O *C 76.89 104.44 *L 0 *D AOI2BB1X1
*I *564:A I *C 79.53 73.08 *L 0.00403 *D NAND2X1
*I *502:A1N I *C 75.57 73.08 *L 0.00223 *D AOI2BB1XL
*I *478:B0 I *C 78.87 83.72 *L 0.00319 *D AOI21XL

*CAP
1 *598:Y 7.97251e-05
2 *564:A 0.000139836
3 *502:A1N 0.000139836
4 *478:B0 6.33048e-05
5 *311:4 0.000321187
6 *311:5 0.000321187
7 *311:6 0.000152591
8 *311:7 0.000500655
9 *311:8 0.000431141
10 *311:9 0.000433136
11 *311:10 0.000433136
12 *311:11 0.00013144
13 *311:12 0.000111243
14 *311:13 0.000208935
15 *311:14 0.000154182
16 *311:15 0.00067156
17 *311:16 0.00073454
18 *311:17 5.09196e-05
19 *311:18 0.000120916
20 *311:19 5.09196e-05
21 *311:20 0.000115659
22 *311:21 0.000115054
23 *311:22 0.000120602
24 *311:9 *26:7 0.00014019
25 *311:10 *26:8 0.00014019
26 *311:11 *26:7 2.089e-05
27 *311:12 *26:8 2.089e-05
28 *311:4 *26:14 7.752e-05
29 *311:5 *26:13 7.75200104e-05

*RES
1 *598:Y *311:21 0.447656
2 *311:13 *311:21 3.2
3 *311:14 *311:13 0.624023
4 *311:4 *311:14 0.183887
5 *311:5 *311:4 1.55996
6 *311:5 *311:11 0.183887
7 *311:12 *311:11 0.467969
8 *311:12 *311:9 0.0918945
9 *311:10 *311:9 2.18398
10 *311:20 *311:10 0.0918945
11 *311:18 *478:B0 6.4000001
12 *311:18 *311:20 0.467969
13 *311:19 *311:18 6.4000001
14 *311:22 *564:A 3.2
15 *311:15 *311:19 6.4000001
16 *311:6 *311:22 3.2
17 *311:16 *311:15 2.96396
18 *311:7 *311:6 0.183887
19 *311:7 *311:16 3.2
20 *311:8 *311:7 0.919238
21 *311:17 *311:8 6.4000001
22 *502:A1N *311:17 3.2
*END

*D_NET *312 0.00155726

*CONN
*I *502:Y O *C 77.55 71.96 *L 0 *D AOI2BB1XL
*I *498:C0 I *C 76.89 63 *L 0.00329 *D OAI221XL

*CAP
1 *502:Y 0.000139844
2 *498:C0 0.000139844
3 *312:2 0.000390643
4 *312:3 0.00040557
5 *312:4 0.000233224
6 *312:5 0.000248151

*RES
1 *312:2 *502:Y 3.20000005
2 *312:3 *312:2 1.56001
3 *312:5 *312:3 0.183838
4 *312:4 *312:5 0.935986
5 *498:C0 *312:4 3.20000005
*END

*D_NET *313 0.00447427

*CONN
*I *599:Y O *C 69.63 87.08 *L 0 *D AOI2BB1X1
*I *564:B I *C 78.87 73.64 *L 0.00375 *D NAND2X1
*I *501:A1N I *C 72.27 73.08 *L 0.00223 *D AOI2BB1XL
*I *469:B0 I *C 79.53 77.56 *L 0.00319 *D AOI21XL

*CAP
1 *599:Y 3.72982e-05
2 *564:B 0.000139838
3 *501:A1N 7.96989e-05
4 *469:B0 6.33012e-05
5 *313:4 0.000267553
6 *313:5 5.83841e-05
7 *313:6 0.000245726
8 *313:7 0.000149444
9 *313:8 0.000204197
10 *313:9 0.00061849
11 *313:10 0.00061849
12 *313:11 0.000700151
13 *313:12 7.99933e-05
14 *313:13 0.00071451
15 *313:14 0.000191572
16 *313:15 0.000160281
17 *313:16 0.000145355

*RES
1 *313:16 *469:B0 6.4000001
2 *313:15 *313:16 0.467969
3 *313:7 *313:15 0.183887
4 *313:8 *564:B 3.2
5 *313:8 *313:7 0.624023
6 *313:14 *501:A1N 0.447656
7 *313:9 *313:8 3.2
8 *313:5 *313:14 3.2
9 *313:10 *313:9 2.20625
10 *313:5 *313:4 0.155957
11 *313:4 *313:10 3.2
12 *313:12 *599:Y 0.189941
13 *313:4 *313:6 0.77998
14 *313:13 *313:12 3.2
15 *313:11 *313:6 0.367676
16 *313:11 *313:13 2.80801
*END

*D_NET *314 0.00528684

*CONN
*I *515:Y O *C 84.81 72.52 *L 0 *D NAND2X1
*I *507:A0 I *C 82.17 77 *L 0.00465 *D AOI21X1
*I *503:A0N I *C 86.79 72.52 *L 0.00247 *D AOI2BB1XL
*I *502:A0N I *C 74.91 72.52 *L 0.00247 *D AOI2BB1XL
*I *501:A0N I *C 71.61 72.52 *L 0.00247 *D AOI2BB1XL
*I *500:A0N I *C 90.09 72.52 *L 0.00247 *D AOI2BB1XL

*CAP
1 *515:Y 7.99837e-05
2 *507:A0 6.33049e-05
3 *503:A0N 3.98586e-05
4 *502:A0N 6.33049e-05
5 *501:A0N 0.000139838
6 *500:A0N 6.33049e-05
7 *314:6 0.000120602
8 *314:7 0.000213667
9 *314:8 0.000120602
10 *314:9 0.00087304
11 *314:10 6.58493e-05
12 *314:11 0.000283606
13 *314:12 0.000162432
14 *314:13 7.85183e-05
15 *314:14 0.000197854
16 *314:15 0.000790845
17 *314:16 0.00026429
18 *314:17 7.85183e-05
19 *314:18 7.71595e-05
20 *314:19 0.000120602
21 *314:20 0.000233317
22 *314:20 *356:17 0.00022166
23 *314:15 *356:18 0.00022166
24 *314:15 *356:17 0.00027847
25 *314:9 *356:18 0.00027847
26 *314:15 *356:11 3.552e-05
27 *314:9 *356:12 3.552e-05
28 *314:9 *356:11 2.747e-05
29 *314:7 *356:12 2.747e-05
30 *314:15 *356:19 1.506e-05
31 *314:9 *356:20 1.50600289e-05

*RES
1 *314:10 *507:A0 6.4000001
2 *314:18 *503:A0N 0.223828
3 *314:10 *314:12 0.183887
4 *314:17 *314:18 0.189941
5 *314:11 *314:12 0.467969
6 *314:13 *314:17 0.223828
7 *314:19 *500:A0N 6.4000001
8 *314:11 *314:16 0.735449
9 *314:13 *515:Y 0.189941
10 *314:20 *314:19 3.2
11 *314:14 *314:16 0.77998
12 *314:14 *515:Y 3.2
13 *314:8 *502:A0N 6.4000001
14 *314:15 *314:20 1.28701
15 *314:15 *314:14 3.2
16 *314:9 *314:8 3.2
17 *314:9 *314:15 2.9417
18 *314:7 *314:9 0.919238
19 *314:6 *314:7 3.2
20 *501:A0N *314:6 3.2
*END

*D_NET *315 0.00096035

*CONN
*I *501:Y O *C 74.25 71.96 *L 0 *D AOI2BB1XL
*I *499:C0 I *C 76.23 68.04 *L 0.00329 *D OAI221XL

*CAP
1 *501:Y 0.000139838
2 *499:C0 3.98423e-05
3 *315:2 0.000171029
4 *315:3 0.00018596
5 *315:4 0.000141328
6 *315:5 0.000141328
7 *315:6 7.517e-05
8 *315:7 6.58514e-05

*RES
1 *315:6 *499:C0 0.223828
2 *315:7 *315:6 6.4000001
3 *315:4 *315:7 0.183887
4 *315:4 *315:5 0.467969
5 *315:2 *501:Y 3.2
6 *315:3 *315:5 0.183887
7 *315:3 *315:2 0.624023
*END

*D_NET *316 0.00388216

*CONN
*I *604:Y O *C 105.27 84.28 *L 0 *D AOI2BB1X1
*I *566:A I *C 94.71 73.08 *L 0.00403 *D NAND2X1
*I *500:A1N I *C 90.75 73.08 *L 0.00223 *D AOI2BB1XL
*I *480:B0 I *C 98.67 83.72 *L 0.00319 *D AOI21XL

*CAP
1 *604:Y 6.33016e-05
2 *566:A 0.000139845
3 *500:A1N 0.000139845
4 *480:B0 6.33016e-05
5 *316:4 0.00064188
6 *316:5 0.000479468
7 *316:6 0.000379898
8 *316:7 0.000379898
9 *316:8 0.000120599
10 *316:9 0.000334207
11 *316:10 0.000120599
12 *316:11 0.000457646
13 *316:12 0.000276194
14 *316:13 0.000143655
15 *316:14 7.09119e-05
16 *316:15 7.09119e-05

*RES
1 *316:15 *604:Y 6.4000001
2 *316:14 *316:15 0.312012
3 *316:6 *316:14 6.4000001
4 *316:13 *480:B0 6.4000001
5 *316:7 *316:6 2.02246
6 *316:4 *316:13 0.624023
7 *316:4 *316:7 3.2
8 *316:5 *316:4 2.34004
9 *316:10 *566:A 3.2
10 *316:12 *316:5 3.2
11 *316:11 *316:10 3.2
12 *316:11 *316:12 1.10312
13 *316:9 *316:11 1.10312
14 *316:8 *316:9 3.2
15 *500:A1N *316:8 3.2
*END

*D_NET *317 0.00133581

*CONN
*I *500:Y O *C 92.73 71.96 *L 0 *D AOI2BB1XL
*I *496:C0 I *C 92.07 63 *L 0.00329 *D OAI221XL

*CAP
1 *500:Y 0.000139837
2 *496:C0 0.000139837
3 *317:2 0.00043199
4 *317:3 0.00041706
5 *317:4 0.000111012
6 *317:5 9.60813e-05

*RES
1 *317:5 *500:Y 3.20000005
2 *317:4 *317:5 0.468018
3 *317:2 *317:4 0.183838
4 *317:3 *317:2 2.02798
5 *496:C0 *317:3 3.20000005
*END

*D_NET *318 0.00270472

*CONN
*I *600:Y O *C 66.33 74.2 *L 0 *D AOI2BB1X1
*I *565:B I *C 70.95 63.56 *L 0.00375 *D NAND2X1
*I *499:B1 I *C 72.93 68.6 *L 0.00332 *D OAI221XL
*I *473:B0 I *C 69.63 73.64 *L 0.00319 *D AOI21XL

*CAP
1 *600:Y 4.12127e-05
2 *565:B 0.00013984
3 *499:B1 0.00013984
4 *473:B0 4.16973e-05
5 *318:4 7.65401e-05
6 *318:5 0.000182624
7 *318:6 8.43906e-05
8 *318:7 7.67478e-05
9 *318:8 0.00011044
10 *318:9 0.000290763
11 *318:10 0.000129193
12 *318:11 0.000280713
13 *318:12 0.000306746
14 *318:13 0.000195757
15 *318:14 0.00025918
16 *318:15 0.00034904

*RES
1 *318:11 *565:B 3.2
2 *318:11 *318:12 0.77998
3 *318:12 *318:13 0.551562
4 *318:14 *499:B1 3.2
5 *318:13 *318:14 0.624023
6 *318:14 *318:15 0.77998
7 *318:9 *318:15 0.919238
8 *318:6 *473:B0 0.223828
9 *318:9 *318:10 0.624023
10 *318:7 *318:6 6.4000001
11 *318:7 *318:10 0.183887
12 *318:7 *318:8 0.155957
13 *318:5 *318:8 0.367676
14 *318:4 *318:5 3.2
15 *600:Y *318:4 0.223828
*END

*D_NET *319 0.00460415

*CONN
*I *597:Y O *C 67.65 54.04 *L 0 *D AOI2BB1X1
*I *567:B I *C 69.63 53.48 *L 0.00375 *D NAND2X1
*I *499:A1 I *C 74.91 68.6 *L 0.00348 *D OAI221XL
*I *472:B0 I *C 68.31 63.56 *L 0.00319 *D AOI21XL

*CAP
1 *597:Y 7.99872e-05
2 *567:B 3.98583e-05
3 *499:A1 6.33011e-05
4 *472:B0 6.33011e-05
5 *319:4 0.000492073
6 *319:5 0.000218035
7 *319:6 0.000451694
8 *319:7 0.000436773
9 *319:8 0.000113045
10 *319:9 0.000119737
11 *319:10 0.00070962
12 *319:11 0.000639941
13 *319:12 0.000173499
14 *319:13 0.000187857
15 *319:14 0.000153001
16 *319:15 0.000357685
17 *319:16 0.000114453
18 *319:17 0.000190293

*RES
1 *319:16 *567:B 0.223828
2 *319:16 *319:17 0.379785
3 *319:14 *319:17 0.447656
4 *597:Y *319:14 0.189941
5 *319:9 *499:A1 6.4000001
6 *319:7 *597:Y 3.2
7 *319:9 *319:8 0.312012
8 *319:7 *319:6 1.87197
9 *319:10 *319:8 3.2
10 *319:6 *319:5 0.183887
11 *319:11 *319:10 2.39014
12 *319:4 *472:B0 6.4000001
13 *319:5 *319:4 0.77998
14 *319:13 *319:11 3.2
15 *319:4 *319:15 1.24805
16 *319:12 *319:13 0.467969
17 *319:12 *319:15 0.367676
*END

*D_NET *320 0.00206675

*CONN
*I *499:Y O *C 74.25 69.16 *L 0 *D OAI221XL
*I *495:A0 I *C 80.85 63.56 *L 0.00465 *D AOI22X1

*CAP
1 *499:Y 8.55912e-05
2 *495:A0 6.33027e-05
3 *320:2 8.7201e-05
4 *320:3 8.7201e-05
5 *320:4 0.000222619
6 *320:5 0.000222619
7 *320:6 0.00036254
8 *320:7 0.00036254
9 *320:8 0.000197459
10 *320:9 0.000120598
11 *320:10 9.26998e-05
12 *320:11 0.000162381

*RES
1 *320:10 *495:A0 6.4000001
2 *320:10 *320:11 0.312012
3 *320:4 *320:11 3.2
4 *320:5 *320:4 0.551562
5 *320:7 *320:5 3.2
6 *320:7 *320:6 1.24805
7 *320:2 *320:6 3.2
8 *320:3 *320:2 0.183887
9 *320:9 *320:3 3.2
10 *320:8 *320:9 3.2
11 *499:Y *320:8 0.447656
*END

*D_NET *321 0.00488466

*CONN
*I *605:Y O *C 57.09 64.12 *L 0 *D AOI2BB1X1
*I *565:A I *C 71.61 63 *L 0.00403 *D NAND2X1
*I *498:B1 I *C 73.59 62.44 *L 0.00332 *D OAI221XL
*I *484:B0 I *C 70.95 67.48 *L 0.00319 *D AOI21XL

*CAP
1 *605:Y 6.33019e-05
2 *565:A 0.000139836
3 *498:B1 0.000139836
4 *484:B0 6.33019e-05
5 *321:4 0.000311011
6 *321:5 0.00032427
7 *321:6 0.000166019
8 *321:7 0.000545655
9 *321:8 0.000475966
10 *321:9 0.000320372
11 *321:10 0.000320372
12 *321:11 0.00057658
13 *321:12 0.000449844
14 *321:13 5.09231e-05
15 *321:14 0.000120604
16 *321:15 0.000120604
17 *321:16 9.42183e-05
18 *321:17 0.000117243
19 *321:18 0.000120604
20 *321:19 8.49627e-05
21 *321:7 *342:9 1.506e-05
22 *321:8 *342:8 1.506e-05
23 *321:7 *342:8 3.821e-05
24 *321:8 *342:4 3.821e-05
25 *321:7 *342:4 1.463e-05
26 *321:8 *342:5 1.463e-05
27 *321:9 *342:4 5.705e-05
28 *321:10 *342:5 5.705e-05
29 *321:11 *342:4 1.463e-05
30 *321:12 *342:5 1.46299963e-05

*RES
1 *321:18 *498:B1 3.2
2 *321:19 *321:18 3.2
3 *321:16 *321:19 0.183887
4 *321:15 *565:A 3.2
5 *321:16 *321:17 0.155957
6 *321:14 *484:B0 6.4000001
7 *321:11 *321:15 3.2
8 *321:11 *321:17 0.367676
9 *321:7 *321:14 3.2
10 *321:12 *321:11 2.20625
11 *321:8 *321:7 2.02246
12 *321:6 *321:12 3.2
13 *321:4 *321:8 3.2
14 *321:6 *321:5 0.312012
15 *321:5 *321:4 0.936035
16 *321:9 *321:5 6.4000001
17 *321:10 *321:9 1.65469
18 *321:13 *321:10 6.4000001
19 *605:Y *321:13 6.4000001
*END

*D_NET *322 0.00542836

*CONN
*I *596:Y O *C 57.09 46.76 *L 0 *D AOI2BB1X1
*I *567:A I *C 70.29 52.92 *L 0.00403 *D NAND2X1
*I *498:A1 I *C 75.57 62.44 *L 0.00348 *D OAI221XL
*I *477:B0 I *C 70.95 57.4 *L 0.00319 *D AOI21XL

*CAP
1 *596:Y 0.000139842
2 *567:A 0.000139842
3 *498:A1 0.000139842
4 *477:B0 6.32996e-05
5 *322:4 0.00021814
6 *322:5 0.000275877
7 *322:6 0.000155751
8 *322:7 6.6473e-05
9 *322:8 0.000137628
10 *322:9 6.73297e-05
11 *322:10 0.00034197
12 *322:11 0.00034197
13 *322:12 0.00012269
14 *322:13 0.000113429
15 *322:14 0.000395381172
16 *322:15 0.000325699
17 *322:16 0.000116681
18 *322:17 0.000116681
19 *322:18 0.000120602
20 *322:19 0.000227328
21 *322:20 0.000297011
22 *322:21 0.000127082
23 *322:22 0.000117821
24 *322:23 0.000224668
25 *322:24 0.00029435
26 *322:20 *351:4 3.972e-05
27 *322:19 *351:5 3.972e-05
28 *322:10 *351:6 7.923e-05
29 *322:11 *351:7 7.923e-05
30 *322:22 *351:6 2.216e-05
31 *322:21 *351:7 2.21600072e-05
32 *322:10 *126:6 0.00015794
33 *322:11 *126:4 0.00015794
34 *322:12 *126:6 6.262e-05
35 *322:13 *126:4 6.262e-05
36 *322:7 *126:7 4.41e-06
37 *322:8 *126:5 4.41e-06
38 *322:8 *126:7 4.41e-06
39 *322:9 *126:5 4.4100078e-06

*RES
1 *322:24 *498:A1 3.2
2 *322:23 *322:24 0.936035
3 *322:14 *322:23 3.2
4 *322:15 *322:14 1.4709
5 *322:4 *322:15 3.2
6 *322:5 *477:B0 6.4000001
7 *322:5 *322:4 0.467969
8 *322:6 *322:5 0.77998
9 *322:9 *567:A 3.2
10 *322:7 *322:6 0.183887
11 *322:9 *322:8 0.312012
12 *322:8 *322:7 0.155957
13 *322:22 *322:8 3.2
14 *322:21 *322:22 0.551562
15 *322:21 *322:10 0.155957
16 *322:11 *322:10 2.39014
17 *322:12 *322:11 0.155957
18 *322:13 *322:12 0.551562
19 *322:20 *322:13 3.2
20 *322:19 *322:20 1.24805
21 *322:18 *322:19 3.2
22 *322:16 *322:18 3.2
23 *322:17 *322:16 0.312012
24 *596:Y *322:17 3.2
*END

*D_NET *323 0.000872874

*CONN
*I *498:Y O *C 74.91 61.88 *L 0 *D OAI221XL
*I *495:B0 I *C 80.19 63 *L 0.00433 *D AOI22X1

*CAP
1 *498:Y 3.98411e-05
2 *495:B0 0.000139841
3 *323:2 7.51714e-05
4 *323:3 0.000120601
5 *323:4 0.00018841
6 *323:5 0.000120601
7 *323:6 0.00018841

*RES
1 *323:5 *495:B0 3.20000005
2 *323:6 *323:5 3.20000005
3 *323:4 *323:6 0.551562
4 *323:3 *323:4 3.20000005
5 *323:2 *323:3 3.20000005
6 *498:Y *323:2 0.223828
*END

*D_NET *324 0.00823582

*CONN
*I *616:Y O *C 101.31 77 *L 0 *D AOI2BB1X1
*I *569:B I *C 98.01 53.48 *L 0.00375 *D NAND2X1
*I *497:B1 I *C 86.13 68.6 *L 0.00332 *D OAI221XL
*I *474:B0 I *C 98.01 73.64 *L 0.00319 *D AOI21XL

*CAP
1 *616:Y 0.000140238
2 *569:B 6.32955e-05
3 *497:B1 0.000139841
4 *474:B0 6.32955e-05
5 *324:4 0.000236616
6 *324:5 0.00016693
7 *324:6 0.000226201
8 *324:7 0.000156539
9 *324:8 0.000423548
10 *324:9 0.000423548
11 *324:10 0.00018513
12 *324:11 0.00018513
13 *324:12 0.000231956
14 *324:13 0.0003637
15 *324:14 0.00078726
16 *324:15 0.000175567
17 *324:16 0.000131096
18 *324:17 0.000200782
19 *324:18 0.000655515
20 *324:19 0.000336299
21 *324:20 0.000321679
22 *324:21 0.000136021
23 *324:22 0.000190896
24 *324:23 0.000341729
25 *324:24 0.000341729
26 *324:25 0.000353789
27 *324:26 0.000313523
28 *324:14 *356:21 0.00018955
29 *324:18 *356:17 0.00018955
30 *324:14 *356:17 0.00028242
31 *324:18 *356:18 0.000282420004

*RES
1 *324:7 *569:B 6.4000001
2 *324:7 *324:6 0.467969
3 *324:11 *324:6 3.2
4 *324:11 *324:10 0.735449
5 *324:19 *324:10 3.2
6 *324:19 *324:20 1.09199
7 *324:20 *324:25 0.367676
8 *324:25 *324:26 1.404
9 *324:23 *324:26 0.183887
10 *616:Y *324:15 0.671484
11 *324:23 *324:24 1.55996
12 *324:8 *324:15 3.2
13 *324:21 *324:24 0.183887
14 *324:9 *324:8 1.55996
15 *324:16 *474:B0 6.4000001
16 *324:21 *324:22 0.467969
17 *324:12 *324:9 3.2
18 *324:17 *324:16 0.624023
19 *324:13 *324:22 3.2
20 *324:13 *324:12 0.919238
21 *324:14 *324:17 3.2
22 *324:14 *324:13 0.735449
23 *324:18 *324:14 3.30947
24 *324:4 *324:18 3.2
25 *324:5 *324:4 0.77998
26 *497:B1 *324:5 3.2
*END

*D_NET *325 0.0052534

*CONN
*I *516:Y O *C 83.49 66.36 *L 0 *D OR2X2
*I *508:A0 I *C 78.87 66.92 *L 0.00465 *D AOI21X1
*I *499:B0 I *C 73.59 67.48 *L 0.00352 *D OAI221XL
*I *498:B0 I *C 74.25 63.56 *L 0.00352 *D OAI221XL
*I *497:B0 I *C 86.79 67.48 *L 0.00352 *D OAI221XL
*I *496:B0 I *C 89.43 63.56 *L 0.00352 *D OAI221XL

*CAP
1 *516:Y 0.000139836
2 *508:A0 0.000139836
3 *499:B0 3.98652e-05
4 *498:B0 0.000139836
5 *497:B0 7.97303e-05
6 *496:B0 7.97303e-05
7 *325:6 0.000287643
8 *325:7 0.000315596
9 *325:8 0.000328739
10 *325:9 0.000328739
11 *325:10 0.000404854
12 *325:11 7.51964e-05
13 *325:12 0.000124801
14 *325:13 0.000120603
15 *325:14 0.00073366
16 *325:15 0.000120603
17 *325:16 0.000517486
18 *325:17 0.000160412
19 *325:18 9.21679e-05
20 *325:19 0.000115062
21 *325:20 0.000120603
22 *325:21 0.000336598
23 *325:22 0.000115062
24 *325:23 0.000336766

*RES
1 *325:22 *496:B0 0.447656
2 *325:9 *325:22 3.20000005
3 *325:19 *497:B0 0.447656
4 *325:9 *325:8 1.09199
5 *325:20 *325:19 3.20000005
6 *325:23 *325:8 3.20000005
7 *325:21 *325:20 3.20000005
8 *325:21 *325:23 0.735449
9 *325:18 *325:21 0.183838
10 *325:17 *325:18 0.156006
11 *325:15 *516:Y 3.20000005
12 *325:13 *508:A0 3.20000005
13 *325:16 *325:17 0.367725
14 *325:16 *325:15 3.20000005
15 *325:14 *325:13 3.20000005
16 *325:14 *325:16 1.28701
17 *325:7 *498:B0 3.20000005
18 *325:10 *325:14 1.28701
19 *325:7 *325:6 0.935986
20 *325:6 *325:10 3.20000005
21 *325:6 *325:12 0.156006
22 *325:11 *325:12 3.20000005
23 *499:B0 *325:11 0.223828
*END

*D_NET *326 0.00524049

*CONN
*I *618:Y O *C 103.95 56.84 *L 0 *D AOI2BB1X1
*I *568:B I *C 98.67 57.4 *L 0.00375 *D NAND2X1
*I *497:A1 I *C 88.11 68.6 *L 0.00348 *D OAI221XL
*I *471:B0 I *C 96.03 63.56 *L 0.00319 *D AOI21XL

*CAP
1 *618:Y 3.73018e-05
2 *568:B 0.000139838
3 *497:A1 0.000139838
4 *471:B0 6.33038e-05
5 *326:4 0.000112073
6 *326:5 0.000181749
7 *326:6 0.000562709
8 *326:7 0.000577640313
9 *326:8 0.000219589
10 *326:9 0.000149912
11 *326:10 0.000561792
12 *326:11 5.72396e-05
13 *326:12 0.000408187
14 *326:13 0.000401876
15 *326:14 0.000492107
16 *326:15 7.25499e-05
17 *326:16 0.000197474
18 *326:17 0.00021356
19 *326:18 0.000171772
20 *326:19 9.75999e-05
21 *326:20 0.000120605
22 *326:21 0.000169577
23 *326:22 9.22144e-05

*RES
1 *326:22 *618:Y 0.189941
2 *326:19 *326:22 0.223828
3 *326:20 *326:19 6.4000001
4 *326:21 *326:20 3.2
5 *326:17 *326:21 0.735449
6 *326:17 *326:18 0.312012
7 *326:16 *326:18 0.551562
8 *326:15 *568:B 3.2
9 *326:15 *326:16 3.2
10 *326:7 *326:15 0.183887
11 *326:7 *326:6 1.87197
12 *326:8 *326:6 3.2
13 *326:11 *471:B0 6.4000001
14 *326:9 *326:8 0.551562
15 *326:11 *326:12 0.155957
16 *326:12 *326:9 3.2
17 *326:12 *326:13 1.55996
18 *326:14 *326:13 3.2
19 *326:10 *326:14 2.02246
20 *326:4 *326:10 3.2
21 *326:5 *326:4 0.312012
22 *497:A1 *326:5 3.2
*END

*D_NET *327 0.00597695

*CONN
*I *517:Y O *C 92.73 66.36 *L 0 *D OR2X2
*I *504:A0 I *C 94.05 66.92 *L 0.00465 *D AOI21X1
*I *499:A0 I *C 74.25 68.6 *L 0.00361 *D OAI221XL
*I *498:A0 I *C 74.91 62.44 *L 0.00361 *D OAI221XL
*I *497:A0 I *C 87.45 68.6 *L 0.00361 *D OAI221XL
*I *496:A0 I *C 90.09 62.44 *L 0.00361 *D OAI221XL

*CAP
1 *517:Y 6.3304e-05
2 *504:A0 0.000139842
3 *499:A0 0.000139842
4 *498:A0 0.000139842
5 *497:A0 6.3304e-05
6 *496:A0 6.3304e-05
7 *327:6 0.000195367
8 *327:7 0.000140617
9 *327:8 0.000295323
10 *327:9 0.000295323
11 *327:10 0.000209951
12 *327:11 0.000237905
13 *327:12 6.18184e-05
14 *327:13 0.000138628
15 *327:14 0.000124276
16 *327:15 0.000332078
17 *327:16 0.000269102
18 *327:17 0.000359961
19 *327:18 0.000369217
20 *327:19 0.000410062
21 *327:20 0.00052342
22 *327:21 0.000136025
23 *327:22 5.09163e-05
24 *327:23 0.00014223
25 *327:24 0.000271562
26 *327:25 0.000404799
27 *327:26 0.000112942
28 *327:27 0.000286002

*RES
1 *327:13 *504:A0 3.2
2 *327:14 *327:13 0.155957
3 *327:16 *496:A0 6.4000001
4 *327:26 *327:14 0.367676
5 *327:26 *517:Y 6.4000001
6 *327:16 *327:15 1.09199
7 *327:27 *327:26 3.2
8 *327:25 *327:15 3.2
9 *327:25 *327:27 0.735449
10 *327:24 *327:25 0.735449
11 *327:23 *498:A0 3.2
12 *327:11 *327:24 3.2
13 *327:12 *497:A0 6.4000001
14 *327:23 *327:9 0.183887
15 *327:11 *327:10 0.467969
16 *327:10 *327:12 0.155957
17 *327:9 *327:8 1.24805
18 *327:17 *327:10 6.4000001
19 *327:8 *327:7 0.183887
20 *327:18 *327:17 1.10312
21 *327:7 *327:6 0.467969
22 *327:18 *327:19 0.155957
23 *327:20 *327:6 3.2
24 *327:20 *327:19 2.02246
25 *327:21 *327:20 0.551562
26 *327:22 *327:21 6.4000001
27 *499:A0 *327:22 3.2
*END

*D_NET *328 0.00111536

*CONN
*I *497:Y O *C 87.45 69.16 *L 0 *D OAI221XL
*I *494:A0 I *C 85.47 63.56 *L 0.00465 *D AOI22X1

*CAP
1 *497:Y 6.33003e-05
2 *494:A0 6.33003e-05
3 *328:2 0.000190948
4 *328:3 0.000246269
5 *328:4 0.000263038789
6 *328:5 0.000222653
7 *328:6 6.5849e-05

*RES
1 *328:6 *497:Y 6.4000001
2 *328:5 *328:6 0.183887
3 *328:4 *328:5 0.77998
4 *328:3 *328:4 0.367676
5 *328:2 *328:3 0.77998
6 *494:A0 *328:2 6.4000001
*END

*D_NET *329 0.00354296

*CONN
*I *603:Y O *C 103.95 54.04 *L 0 *D AOI2BB1X1
*I *569:A I *C 98.67 52.92 *L 0.00403 *D NAND2X1
*I *496:B1 I *C 88.77 62.44 *L 0.00332 *D OAI221XL
*I *481:B0 I *C 97.35 57.4 *L 0.00319 *D AOI21XL

*CAP
1 *603:Y 7.96992e-05
2 *569:A 0.000139834
3 *496:B1 0.000139834
4 *481:B0 6.33014e-05
5 *329:4 0.000147497
6 *329:5 0.000217176
7 *329:6 5.7241e-05
8 *329:7 0.000112555
9 *329:8 0.000185945
10 *329:9 0.000185945
11 *329:10 0.00049522
12 *329:11 0.000323625
13 *329:12 0.000459561
14 *329:13 0.000274341
15 *329:14 0.00049522
16 *329:15 0.000115026
17 *329:16 5.09162e-05

*RES
1 *329:15 *603:Y 0.447656
2 *329:16 *329:15 6.4000001
3 *329:8 *329:16 6.4000001
4 *329:9 *329:8 0.919238
5 *329:6 *569:A 3.2
6 *329:6 *329:9 6.4000001
7 *329:7 *329:6 0.155957
8 *329:11 *329:7 0.367676
9 *329:12 *481:B0 6.4000001
10 *329:11 *329:12 1.404
11 *329:12 *329:13 0.624023
12 *329:14 *329:13 3.2
13 *329:4 *496:B1 3.2
14 *329:10 *329:14 2.39014
15 *329:5 *329:4 0.77998
16 *329:5 *329:10 3.2
*END

*D_NET *330 0.00556833

*CONN
*I *621:Y O *C 113.19 66.92 *L 0 *D AOI2BB1X1
*I *568:A I *C 99.33 57.96 *L 0.00403 *D NAND2X1
*I *496:A1 I *C 90.75 62.44 *L 0.00348 *D OAI221XL
*I *479:B0 I *C 98.01 67.48 *L 0.00319 *D AOI21XL

*CAP
1 *621:Y 0.00013984
2 *568:A 0.00013984
3 *496:A1 0.00013984
4 *479:B0 6.33038e-05
5 *330:4 0.000216079
6 *330:5 0.000245171
7 *330:6 0.000502213
8 *330:7 0.000455025
9 *330:8 0.000497295
10 *330:9 0.000522991
11 *330:10 5.51247e-05
12 *330:11 0.000124802
13 *330:12 0.00013864
14 *330:13 6.58505e-05
15 *330:14 0.000142333
16 *330:15 0.00088306
17 *330:16 0.00016435
18 *330:17 6.89093e-05
19 *330:18 0.000120598
20 *330:19 0.00088306

*RES
1 *330:18 *621:Y 3.2
2 *330:19 *330:18 3.2
3 *330:15 *330:19 4.22871
4 *330:13 *479:B0 6.4000001
5 *330:14 *330:15 3.2
6 *330:13 *330:6 0.183887
7 *330:6 *330:14 0.312012
8 *330:7 *330:6 1.71602
9 *330:5 *568:A 3.2
10 *330:7 *330:17 0.183887
11 *330:5 *330:4 0.77998
12 *330:4 *330:17 0.155957
13 *330:16 *330:4 3.2
14 *330:12 *330:16 0.367676
15 *330:12 *330:8 0.312012
16 *330:11 *496:A1 3.2
17 *330:9 *330:8 1.83857
18 *330:10 *330:11 0.155957
19 *330:10 *330:9 3.2
*END

*D_NET *331 0.00145782

*CONN
*I *496:Y O *C 90.09 61.88 *L 0 *D OAI221XL
*I *494:B0 I *C 84.81 63 *L 0.00433 *D AOI22X1

*CAP
1 *496:Y 6.33004e-05
2 *494:B0 0.000139839
3 *331:2 7.33085e-05
4 *331:3 5.83832e-05
5 *331:4 0.00040491
6 *331:5 0.00047459
7 *331:6 6.89128e-05
8 *331:7 0.000123661
9 *331:8 5.09242e-05

*RES
1 *331:7 *494:B0 3.2
2 *331:8 *496:Y 6.4000001
3 *331:6 *331:7 0.155957
4 *331:4 *331:8 6.4000001
5 *331:2 *331:6 0.183887
6 *331:5 *331:4 1.65469
7 *331:3 *331:2 0.155957
8 *331:3 *331:5 3.2
*END

*D_NET *332 0.00137342

*CONN
*I *495:Y O *C 81.51 62.44 *L 0 *D AOI22X1
*I *493:A0 I *C 86.13 57.96 *L 0.00456 *D OAI22X1

*CAP
1 *495:Y 0.000139839
2 *493:A0 0.000139839
3 *332:2 0.00021384
4 *332:3 0.000144159
5 *332:4 0.00019375
6 *332:5 0.00019375
7 *332:6 7.25526e-05
8 *332:7 0.000165221
9 *332:8 0.000110468

*RES
1 *332:3 *493:A0 3.20000005
2 *332:3 *332:2 0.77998
3 *332:4 *332:2 3.20000005
4 *332:5 *332:4 0.919287
5 *332:7 *332:5 3.20000005
6 *332:7 *332:8 0.468018
7 *332:6 *332:8 0.183838
8 *495:Y *332:6 3.20000005
*END

*D_NET *333 0.0097233

*CONN
*I *677:QN O *C 68.31 33.88 *L 0 *D DFFX1
*I *676:B I *C 82.17 33.32 *L 0.002 *D MXI2XL
*I *570:C I *C 75.57 27.16 *L 0.00437 *D NAND3X1
*I *495:A1 I *C 81.51 63 *L 0.00472 *D AOI22X1
*I *494:A1 I *C 86.13 63 *L 0.00472 *D AOI22X1
*I *492:A I *C 83.49 57.4 *L 0.00377 *D MXI2X1

*CAP
1 *677:QN 4.12163e-05
2 *676:B 0.000139829
3 *570:C 0.000168277
4 *495:A1 6.32919e-05
5 *494:A1 6.32919e-05
6 *492:A 0.000139829
7 *333:6 0.000390614
8 *333:7 0.000706923
9 *333:8 0.000399394
10 *333:9 0.000191281
11 *333:10 0.000191281
12 *333:11 0.000203598
13 *333:12 0.000164188
14 *333:13 0.000123799
15 *333:14 0.000326921
16 *333:15 0.000257232
17 *333:16 0.000176731
18 *333:17 0.000238768
19 *333:18 0.00038793
20 *333:19 0.000457593
21 *333:20 7.65624e-05
22 *333:21 0.000142112
23 *333:22 0.000442893
24 *333:23 0.000358253
25 *333:24 0.000303139
26 *333:25 0.00164401
27 *333:26 0.00158912
28 *333:27 0.000142112
29 *333:28 0.000142238
30 *333:29 5.09246e-05

*RES
1 *333:29 *494:A1 6.39998
2 *333:18 *333:29 6.39998
3 *333:28 *492:A 3.20005
4 *333:19 *333:18 1.28695
5 *333:13 *333:28 0.183884
6 *333:16 *495:A1 6.39998
7 *333:16 *333:19 3.20005
8 *333:13 *333:12 0.624014
9 *333:17 *333:16 0.935962
10 *333:17 *333:12 0.367767
11 *333:14 *333:17 3.20005
12 *333:15 *333:14 1.10318
13 *333:27 *333:15 3.20005
14 *333:9 *676:B 3.20005
15 *333:26 *333:27 0.183884
16 *333:10 *333:9 0.467981
17 *333:11 *570:C 0.895258
18 *333:25 *333:26 7.80000019
19 *333:6 *333:10 3.20005
20 *333:24 *333:11 3.20005
21 *333:7 *333:25 3.20005
22 *333:7 *333:6 1.47083
23 *333:22 *333:24 0.919299
24 *333:8 *333:7 2.02248
25 *333:22 *333:23 1.24803
26 *333:23 *333:8 3.20005
27 *333:21 *333:23 0.183884
28 *333:20 *333:21 3.20005
29 *677:QN *333:20 0.223874
*END

*D_NET *334 0.0010234

*CONN
*I *494:Y O *C 86.13 62.44 *L 0 *D AOI22X1
*I *493:B0 I *C 84.81 57.4 *L 0.00457 *D OAI22X1

*CAP
1 *494:Y 6.32986e-05
2 *493:B0 0.000139842
3 *334:2 0.00033004
4 *334:3 0.000315677
5 *334:4 0.00011158
6 *334:5 6.29612e-05

*RES
1 *334:5 *494:Y 6.4000001
2 *334:4 *334:5 0.155957
3 *334:3 *334:4 0.367676
4 *334:2 *334:3 1.24805
5 *493:B0 *334:2 3.2
*END

*D_NET *335 0.00147153

*CONN
*I *493:Y O *C 85.47 59.08 *L 0 *D OAI22X1
*I *492:S0 I *C 80.19 57.96 *L 0.00672 *D MXI2X1

*CAP
1 *493:Y 8.55886e-05
2 *492:S0 0.000139842
3 *335:2 5.69496e-05
4 *335:3 0.000100931
5 *335:4 0.00015472
6 *335:5 0.000180421
7 *335:6 0.0001206
8 *335:7 0.00019746
9 *335:8 0.0001206
10 *335:2 *341:6 5.82e-06
11 *335:3 *341:4 5.82e-06
12 *335:4 *341:6 0.00015139
13 *335:5 *341:4 0.000151389994

*RES
1 *335:7 *493:Y 0.447656
2 *335:8 *335:7 3.20000005
3 *335:2 *335:8 3.20000005
4 *335:3 *335:2 0.183838
5 *335:4 *335:3 0.312012
6 *335:5 *335:4 0.919287
7 *335:6 *335:5 3.20000005
8 *492:S0 *335:6 3.20000005
*END

*D_NET *336 0.00634618

*CONN
*I *541:Y O *C 91.41 42.84 *L 0 *D INVX1
*I *537:A0 I *C 88.77 43.4 *L 0.00465 *D AOI22X1
*I *536:B0 I *C 86.13 47.32 *L 0.00457 *D OAI22X1
*I *535:B0 I *C 87.45 53.48 *L 0.00457 *D OAI22X1
*I *493:B1 I *C 84.15 57.96 *L 0.00419 *D OAI22X1
*I *490:A1 I *C 92.73 57.4 *L 0.00324 *D OAI21XL
*I *487:A1 I *C 89.43 57.4 *L 0.00324 *D OAI21XL

*CAP
1 *541:Y 0.000139845
2 *537:A0 6.33035e-05
3 *536:B0 0.000139845
4 *535:B0 0.000130173
5 *493:B1 0.000139845
6 *490:A1 4.22729e-05
7 *487:A1 0.000139845
8 *336:7 0.000346433
9 *336:8 0.000256831
10 *336:9 0.00020397
11 *336:10 0.000259295
12 *336:11 0.000185218
13 *336:12 0.000185218
14 *336:13 0.000446826
15 *336:14 0.00055507
16 *336:15 0.000183423
17 *336:16 0.000444463
18 *336:17 0.000274439
19 *336:18 0.000212855
20 *336:19 0.0001655
21 *336:20 0.000166906
22 *336:21 0.000268866
23 *336:22 0.000275185
24 *336:23 7.21714e-05
25 *336:24 6.78094e-05
26 *336:25 0.000164924
27 *336:26 0.000164924
28 *336:27 0.000262878
29 *336:28 0.000155125
30 *336:29 7.76005e-05
31 *336:30 0.000155125

*RES
1 *336:24 *537:A0 6.4000001
2 *336:27 *541:Y 3.2
3 *336:24 *336:14 0.155957
4 *336:14 *336:27 0.735449
5 *336:14 *336:13 1.71602
6 *336:29 *490:A1 0.223828
7 *336:11 *336:13 3.2
8 *336:30 *336:29 3.2
9 *336:21 *536:B0 3.2
10 *336:12 *336:11 0.735449
11 *336:26 *487:A1 3.2
12 *336:28 *336:30 0.312012
13 *336:21 *336:22 0.77998
14 *336:22 *336:12 3.2
15 *336:25 *336:26 0.312012
16 *336:15 *336:28 3.2
17 *336:22 *336:23 0.155957
18 *336:16 *336:25 3.2
19 *336:16 *336:15 0.735449
20 *336:19 *535:B0 0.671484
21 *336:8 *336:23 0.183887
22 *336:17 *336:16 1.10312
23 *336:7 *336:19 3.2
24 *336:8 *336:7 0.77998
25 *336:20 *336:17 3.2
26 *336:9 *493:B1 3.2
27 *336:7 *336:18 0.467969
28 *336:18 *336:20 0.312012
29 *336:10 *336:9 0.77998
30 *336:10 *336:18 0.367676
*END

*D_NET *337 0.00937758

*CONN
*I *681:AN I *C 93.39 37.8 *L 0.00218 *D NOR2BX1
*I *543:Y O *C 98.01 31.64 *L 0 *D OAI22X1
*I *540:A I *C 97.35 37.24 *L 0.0043 *D NOR2X1
*I *538:B1 I *C 111.87 22.68 *L 0.00335 *D OAI2BB2XL
*I *538:A1N I *C 110.55 22.68 *L 0.00224 *D OAI2BB2XL
*I *521:B1 I *C 101.97 42.84 *L 0.00444 *D OAI2BB2X1
*I *521:A1N I *C 100.65 42.84 *L 0.00219 *D OAI2BB2X1
*I *513:B1 I *C 113.19 37.8 *L 0.00444 *D OAI2BB2X1
*I *513:A1N I *C 114.51 37.8 *L 0.00219 *D OAI2BB2X1
*I *489:B1 I *C 107.91 42.84 *L 0.00444 *D OAI2BB2X1
*I *489:A1N I *C 106.59 42.84 *L 0.00219 *D OAI2BB2X1

*CAP
1 *681:AN 0.000139831
2 *543:Y 6.32909e-05
3 *540:A 6.32909e-05
4 *538:B1 0.000139831
5 *538:A1N 6.32909e-05
6 *521:B1 0.000139831
7 *521:A1N 0.000113015
8 *513:B1 6.32909e-05
9 *513:A1N 6.32909e-05
10 *489:B1 0.000139831
11 *489:A1N 6.32909e-05
12 *337:11 0.000354596
13 *337:12 0.000416358
14 *337:13 0.00099229
15 *337:14 0.000930528
16 *337:15 0.000255253
17 *337:16 0.000255253
18 *337:17 0.000209996
19 *337:18 0.000201895
20 *337:19 0.000359184
21 *337:20 0.000333353
22 *337:21 0.000196777
23 *337:22 0.000167736
24 *337:23 0.000341271
25 *337:24 0.000271591
26 *337:25 0.000740671
27 *337:26 0.000384288
28 *337:27 0.000439448
29 *337:28 0.000120601
30 *337:29 0.000246774
31 *337:30 0.000209496
32 *337:31 0.000152277
33 *337:32 0.000112682
34 *337:33 0.000112682
35 *337:34 0.000112682
36 *337:35 0.000182363
37 *337:36 0.000112682
38 *337:37 0.000112682

*RES
1 *337:36 *538:A1N 6.4000001
2 *337:37 *538:B1 3.2
3 *337:36 *337:37 0.367676
4 *337:16 *337:37 6.4000001
5 *337:16 *337:15 0.735449
6 *337:14 *337:15 6.4000001
7 *337:13 *513:A1N 6.4000001
8 *337:14 *337:13 4.21201
9 *337:12 *513:B1 6.4000001
10 *337:12 *337:13 0.367676
11 *337:35 *489:B1 3.2
12 *337:12 *337:11 1.404
13 *337:34 *489:A1N 6.4000001
14 *337:34 *337:35 0.367676
15 *337:27 *337:11 6.4000001
16 *337:25 *337:34 3.2
17 *337:25 *337:27 1.83857
18 *337:26 *337:25 1.28701
19 *337:33 *521:B1 3.2
20 *337:33 *337:26 3.2
21 *337:32 *337:33 0.367676
22 *521:A1N *337:32 6.4000001
23 *337:18 *543:Y 6.4000001
24 *337:31 *521:A1N 0.447656
25 *337:18 *337:17 0.77998
26 *337:30 *337:31 0.379785
27 *337:22 *337:17 0.183887
28 *337:29 *337:30 0.671484
29 *337:21 *540:A 6.4000001
30 *337:22 *337:21 0.77998
31 *337:19 *337:29 3.2
32 *337:21 *337:20 0.155957
33 *337:20 *337:19 1.09199
34 *337:23 *337:20 3.2
35 *337:24 *337:23 1.10312
36 *337:28 *337:24 3.2
37 *681:AN *337:28 3.2
*END

*D_NET *338 0.00877098

*CONN
*I *492:Y O *C 82.17 56.84 *L 0 *D MXI2X1
*I *491:A I *C 88.11 57.4 *L 0.00346 *D INVX1
*I *490:A0 I *C 93.39 57.4 *L 0.00336 *D OAI21XL
*I *489:B0 I *C 108.57 43.4 *L 0.00464 *D OAI2BB2X1
*I *488:A0 I *C 76.89 57.4 *L 0.00336 *D OAI21XL

*CAP
1 *492:Y 0.000139836
2 *491:A 0.000139836
3 *490:A0 0.000139836
4 *489:B0 0.000139836
5 *488:A0 0.000139836
6 *338:5 0.000228034
7 *338:6 0.000228034
8 *338:7 0.000716627
9 *338:8 0.00092511
10 *338:9 0.000412421
11 *338:10 0.000203938
12 *338:11 0.000191812
13 *338:12 0.000510501
14 *338:13 0.000623064
15 *338:14 8.50788e-05
16 *338:15 7.01438e-05
17 *338:16 0.000288438
18 *338:17 0.000140753
19 *338:18 0.000140753
20 *338:19 0.000242983
21 *338:20 0.000182566
22 *338:21 0.000120609
23 *338:22 0.000142236
24 *338:23 0.000691796
25 *338:24 0.000691796
26 *338:25 0.000120609
27 *338:11 *341:6 6.364e-05
28 *338:12 *341:4 6.364e-05
29 *338:12 *341:6 0.0002462
30 *338:13 *341:4 0.0002462
31 *338:13 *341:6 0.00024741
32 *338:16 *341:4 0.000247409972

*RES
1 *338:6 *489:B0 3.2
2 *338:6 *338:5 0.624023
3 *338:7 *338:5 3.2
4 *338:8 *338:7 3.30947
5 *338:9 *338:8 1.10312
6 *338:10 *338:9 0.551562
7 *338:25 *490:A0 3.2
8 *338:22 *491:A 3.2
9 *338:23 *338:10 3.2
10 *338:19 *338:25 3.2
11 *338:14 *338:22 0.183887
12 *338:23 *338:24 3.12002
13 *338:20 *338:19 0.735449
14 *338:15 *338:14 0.155957
15 *338:11 *338:24 3.2
16 *338:11 *338:20 0.155957
17 *338:12 *338:15 6.4000001
18 *338:12 *338:11 0.919238
19 *338:21 *492:Y 3.2
20 *338:13 *338:12 1.4709
21 *338:13 *338:21 3.2
22 *338:17 *488:A0 3.2
23 *338:16 *338:13 1.4709
24 *338:18 *338:17 0.155957
25 *338:18 *338:16 3.2
*END

*D_NET *339 0.00110965

*CONN
*I *489:Y O *C 109.89 43.4 *L 0 *D OAI2BB2X1
*I *485:D I *C 112.53 43.4 *L 0.00207 *D DFFHQX1

*CAP
1 *489:Y 3.98587e-05
2 *485:D 0.000139838
3 *339:2 0.00018863
4 *339:3 0.000114449
5 *339:4 0.000149369
6 *339:5 6.57214e-05
7 *339:6 0.000178451
8 *339:7 0.000233330859

*RES
1 *339:7 *485:D 3.2
2 *339:6 *339:7 0.467969
3 *339:5 *339:6 0.183887
4 *339:4 *339:5 6.4000001
5 *339:2 *339:4 0.447656
6 *339:2 *339:3 0.379785
7 *489:Y *339:3 0.223828
*END

*D_NET *340 0.0121313

*CONN
*I *542:Y O *C 92.73 31.64 *L 0 *D OAI21XL
*I *541:A I *C 90.75 43.4 *L 0.00346 *D INVX1
*I *538:B0 I *C 112.53 23.24 *L 0.00348 *D OAI2BB2XL
*I *537:B0 I *C 88.11 42.84 *L 0.00433 *D AOI22X1
*I *536:A0 I *C 87.45 47.88 *L 0.00456 *D OAI22X1
*I *535:A0 I *C 88.77 52.92 *L 0.00456 *D OAI22X1
*I *493:A1 I *C 86.79 57.96 *L 0.00456 *D OAI22X1
*I *488:A1 I *C 76.23 57.4 *L 0.00324 *D OAI21XL
*I *486:A1 I *C 72.93 57.4 *L 0.00324 *D OAI21XL

*CAP
1 *542:Y 0.000203136
2 *541:A 6.33071e-05
3 *538:B0 0.000139846
4 *537:B0 0.000139846
5 *536:A0 0.000139846
6 *535:A0 0.000139846
7 *493:A1 0.000139846
8 *488:A1 0.000139846
9 *486:A1 0.000139846
10 *340:9 0.000120647
11 *340:10 0.000135574
12 *340:11 0.00015896
13 *340:12 6.66281e-05
14 *340:13 0.00032534
15 *340:14 0.000388318
16 *340:15 0.000383613
17 *340:16 0.000292302
18 *340:17 0.000114108
19 *340:18 0.000114108
20 *340:19 0.000287822
21 *340:20 0.000287822
22 *340:21 0.00113356
23 *340:22 0.00113356
24 *340:23 0.000297353
25 *340:24 0.000463041
26 *340:25 0.00020535
27 *340:26 0.000196079
28 *340:27 0.000111116
29 *340:28 0.000151505
30 *340:29 0.000352236
31 *340:30 0.000291801
32 *340:31 0.000127237
33 *340:32 0.00020881
34 *340:33 0.00021348
35 *340:34 0.000165429
36 *340:35 0.000331082
37 *340:36 0.000400772
38 *340:37 0.000120595
39 *340:38 0.000142233
40 *340:39 6.89113e-05
41 *340:40 6.89113e-05
42 *340:41 0.000353101
43 *340:42 0.000142233
44 *340:43 0.000422774
45 *340:44 9.40612e-05
46 *340:45 0.000238439
47 *340:46 0.000198172
48 *340:47 0.000112673
49 *340:25 *259:2 5.016e-05
50 *340:26 *259:3 5.016e-05
51 *340:29 *259:2 0.00015486
52 *340:30 *259:3 0.00015486
53 *340:29 *259:4 2.81e-05
54 *340:30 *259:5 2.81000042e-05

*RES
1 *340:20 *538:B0 3.2
2 *340:20 *340:19 0.77998
3 *340:21 *340:19 3.2
4 *340:22 *340:21 5.33184
5 *340:14 *340:22 3.2
6 *340:14 *340:13 1.55996
7 *542:Y *340:13 6.4000001
8 *340:47 *542:Y 3.2
9 *340:45 *340:47 0.367676
10 *340:45 *340:46 0.77998
11 *340:18 *340:46 0.183887
12 *340:18 *340:17 0.467969
13 *340:16 *340:17 0.183887
14 *340:44 *541:A 6.4000001
15 *340:16 *340:15 0.936035
16 *340:15 *340:44 0.312012
17 *340:43 *340:15 3.2
18 *340:41 *340:43 0.735449
19 *340:12 *340:41 6.4000001
20 *340:11 *537:B0 3.2
21 *340:12 *340:11 0.155957
22 *340:11 *340:31 0.624023
23 *340:32 *340:31 0.183887
24 *340:24 *536:A0 3.2
25 *340:32 *340:24 0.77998
26 *340:24 *340:23 1.404
27 *340:42 *535:A0 3.2
28 *340:23 *340:28 0.183887
29 *340:28 *340:42 0.183887
30 *340:28 *340:27 0.467969
31 *340:39 *340:27 0.183887
32 *340:33 *493:A1 3.2
33 *340:39 *340:40 0.155957
34 *340:34 *340:33 0.77998
35 *340:34 *340:40 0.183887
36 *340:29 *340:34 3.2
37 *340:30 *340:29 1.83857
38 *340:30 *340:25 0.155957
39 *340:26 *340:25 0.919238
40 *340:38 *340:26 3.2
41 *340:10 *340:38 0.183887
42 *340:9 *488:A1 3.2
43 *340:10 *340:9 0.624023
44 *340:35 *340:9 6.4000001
45 *340:36 *340:35 0.919238
46 *340:37 *340:36 3.2
47 *486:A1 *340:37 3.2
*END

*D_NET *341 0.00378622

*CONN
*I *491:Y O *C 88.77 57.96 *L 0 *D INVX1
*I *487:A0 I *C 90.09 57.4 *L 0.00336 *D OAI21XL
*I *486:A0 I *C 73.59 57.4 *L 0.00336 *D OAI21XL

*CAP
1 *491:Y 0.000219577
2 *487:A0 7.45916e-05
3 *486:A0 6.3294e-05
4 *341:3 0.000120602
5 *341:4 0.00080216
6 *341:5 0.000120602
7 *341:6 0.00080216
8 *341:7 0.000154312
9 *341:6 *335:2 5.82e-06
10 *341:4 *335:3 5.82e-06
11 *341:6 *335:4 0.00015139
12 *341:4 *335:5 0.000151389994
13 *341:6 *338:11 6.364e-05
14 *341:4 *338:12 6.364e-05
15 *341:6 *338:12 0.0002462
16 *341:4 *338:13 0.0002462
17 *341:6 *338:13 0.00024741
18 *341:4 *338:16 0.000247409972

*RES
1 *487:A0 *341:7 0.379785
2 *491:Y *341:7 0.447656
3 *341:5 *491:Y 3.2
4 *341:6 *341:5 3.2
5 *341:4 *341:6 4.22871
6 *341:3 *341:4 3.2
7 *486:A0 *341:3 6.4000001
*END

*D_NET *342 0.00357636

*CONN
*I *484:Y O *C 71.61 66.92 *L 0 *D AOI21XL
*I *467:D I *C 48.51 67.48 *L 0.00207 *D DFFHQX1

*CAP
1 *484:Y 3.7303e-05
2 *467:D 0.000139843
3 *342:2 0.000141708
4 *342:3 7.20324e-05
5 *342:4 0.00094754
6 *342:5 0.000839275
7 *342:6 0.000120801
8 *342:7 0.000120801
9 *342:8 0.000260413
10 *342:9 0.000152118
11 *342:10 0.00016889
12 *342:11 9.4313e-05
13 *342:9 *321:7 1.506e-05
14 *342:8 *321:8 1.506e-05
15 *342:8 *321:7 3.821e-05
16 *342:4 *321:8 3.821e-05
17 *342:4 *321:7 1.463e-05
18 *342:5 *321:8 1.463e-05
19 *342:4 *321:9 5.705e-05
20 *342:5 *321:10 5.705e-05
21 *342:4 *321:11 1.463e-05
22 *342:5 *321:12 1.46299963e-05
23 *342:4 *129:7 6.849e-05
24 *342:5 *129:8 6.849e-05
25 *342:4 *129:5 3.259e-05
26 *342:5 *129:6 3.25899988e-05

*RES
1 *342:11 *484:Y 0.189928
2 *342:10 *342:11 0.223804
3 *342:2 *342:10 3.20002
4 *342:3 *342:2 0.155982
5 *342:9 *342:3 3.20002
6 *342:8 *342:9 0.367723
7 *342:4 *342:8 1.10317
8 *342:7 *467:D 3.20002
9 *342:5 *342:4 4.59642839
10 *342:6 *342:7 0.468017
11 *342:6 *342:5 3.20002
*END

*D_NET *343 0.00536679

*CONN
*I *483:Y O *C 75.57 84.28 *L 0 *D AOI21XL
*I *464:D I *C 50.49 93.8 *L 0.00207 *D DFFHQX1

*CAP
1 *483:Y 0.000139845
2 *464:D 6.33035e-05
3 *343:2 0.000187165
4 *343:3 0.000187165
5 *343:4 0.00049154
6 *343:5 0.000412838
7 *343:6 0.000357928
8 *343:7 0.000349827
9 *343:8 0.000114599
10 *343:9 0.000201401
11 *343:10 0.000199159
12 *343:11 0.000199159
13 *343:12 0.000331594
14 *343:13 0.000331594
15 *343:14 5.09203e-05
16 *343:15 5.09203e-05
17 *343:4 *131:11 2.216e-05
18 *343:5 *131:9 2.216e-05
19 *343:4 *131:8 0.00012621
20 *343:5 *131:7 0.000126210002
21 *343:4 *167:3 0.00021638
22 *343:5 *167:4 0.000216380005
23 *343:6 *26:12 8.769e-05
24 *343:7 *26:10 8.769e-05
25 *343:6 *26:15 6.338e-05
26 *343:7 *26:11 6.338e-05
27 *343:10 *26:10 3.777e-05
28 *343:11 *26:9 3.7769994e-05
29 *343:10 *238:2 6.992e-05
30 *343:11 *238:3 6.992e-05
31 *343:8 *238:2 9.52e-05
32 *343:9 *238:3 9.51999973e-05
33 *343:8 *302:19 3.182e-05
34 *343:9 *302:18 3.182e-05
35 *343:10 *302:14 8.333e-05
36 *343:11 *302:15 8.333e-05
37 *343:8 *302:14 1.506e-05
38 *343:9 *302:15 1.506e-05

*RES
1 *343:3 *483:Y 3.2
2 *343:3 *343:2 0.467969
3 *343:6 *343:2 3.2
4 *343:7 *343:6 1.65469
5 *343:10 *343:7 0.0780273
6 *343:14 *464:D 6.4000001
7 *343:11 *343:10 1.65469
8 *343:15 *343:14 6.4000001
9 *343:11 *343:8 0.0780273
10 *343:12 *343:15 6.4000001
11 *343:9 *343:8 0.919238
12 *343:13 *343:12 1.55996
13 *343:9 *343:4 0.467969
14 *343:5 *343:13 6.4000001
15 *343:5 *343:4 2.75781
*END

*D_NET *344 0.000914801

*CONN
*I *482:Y O *C 95.37 84.28 *L 0 *D AOI21XL
*I *463:D I *C 94.71 87.64 *L 0.00207 *D DFFHQX1

*CAP
1 *482:Y 0.000139839
2 *463:D 0.000139839
3 *344:2 0.00025391
4 *344:3 0.000238978
5 *344:4 0.00014223

*RES
1 *344:3 *463:D 3.20000005
2 *344:4 *482:Y 3.20000005
3 *344:2 *344:3 0.935986
4 *344:2 *344:4 0.183838
*END

*D_NET *345 0.00232686

*CONN
*I *481:Y O *C 98.01 56.84 *L 0 *D AOI21XL
*I *462:D I *C 99.99 47.32 *L 0.00207 *D DFFHQX1

*CAP
1 *481:Y 3.98576e-05
2 *462:D 0.000139842
3 *345:2 7.71605e-05
4 *345:3 0.000123726
5 *345:4 0.000193888
6 *345:5 0.000139008
7 *345:6 0.000178973
8 *345:7 0.000198301
9 *345:8 0.000233722
10 *345:9 0.00050113
11 *345:10 0.00050126

*RES
1 *345:4 *462:D 3.20000005
2 *345:4 *345:5 0.468018
3 *345:5 *345:9 0.183838
4 *345:9 *345:10 1.87202
5 *345:6 *345:10 0.183838
6 *345:6 *345:8 0.77998
7 *345:7 *345:8 3.20000005
8 *345:3 *345:7 0.447656
9 *345:2 *345:3 0.189893
10 *481:Y *345:2 0.223828
*END

*D_NET *346 0.00545381

*CONN
*I *490:Y O *C 94.05 59.08 *L 0 *D OAI21XL
*I *482:A0 I *C 94.05 83.16 *L 0.00314 *D AOI21XL
*I *481:A0 I *C 96.69 57.96 *L 0.00314 *D AOI21XL
*I *480:A0 I *C 98.01 83.16 *L 0.00314 *D AOI21XL
*I *479:A0 I *C 97.35 68.04 *L 0.00314 *D AOI21XL

*CAP
1 *490:Y 3.87839e-05
2 *482:A0 0.000139839
3 *481:A0 0.000139839
4 *480:A0 0.000139839
5 *479:A0 0.000139839
6 *346:5 0.000286034
7 *346:6 0.000280677
8 *346:7 7.54325e-05
9 *346:8 0.00016972
10 *346:9 0.00052829
11 *346:10 0.000496973
12 *346:11 0.000253132
13 *346:12 0.000322808
14 *346:13 0.00081832
15 *346:14 0.00081832
16 *346:15 0.000120597
17 *346:16 0.00015064
18 *346:17 0.000142237
19 *346:18 0.000142237
20 *346:19 6.48188e-05
21 *346:20 6.48188e-05
22 *346:21 0.000120597

*RES
1 *346:18 *481:A0 3.2
2 *490:Y *346:16 0.223812
3 *346:7 *346:18 0.183846
4 *346:17 *346:16 3.2
5 *346:7 *346:6 0.155979
6 *346:17 *346:6 0.183846
7 *346:6 *346:5 0.935981
8 *346:5 *346:10 0.367691
9 *346:9 *479:A0 3.2
10 *346:10 *346:9 1.71598
11 *346:9 *346:8 0.624024
12 *346:19 *346:8 3.2
13 *346:19 *346:20 0.183846
14 *346:14 *346:20 3.2
15 *346:21 *480:A0 3.2
16 *346:14 *346:13 3.58800006
17 *346:11 *346:21 3.2
18 *346:11 *346:13 3.2
19 *346:12 *346:11 1.10313
20 *346:15 *346:12 3.2
21 *482:A0 *346:15 3.2
*END

*D_NET *347 0.00217885

*CONN
*I *480:Y O *C 99.33 84.28 *L 0 *D AOI21XL
*I *461:D I *C 105.93 93.8 *L 0.00207 *D DFFHQX1

*CAP
1 *480:Y 0.000222896
2 *461:D 6.33029e-05
3 *347:2 0.000293615
4 *347:3 0.000348683
5 *347:4 0.000402818
6 *347:5 0.00044308
7 *347:6 0.000258222
8 *347:7 0.00014624

*RES
1 *347:2 *461:D 6.4000001
2 *347:3 *347:2 0.936035
3 *347:4 *347:3 0.367676
4 *347:5 *347:4 1.55996
5 *347:7 *347:5 0.551562
6 *347:6 *347:7 6.4000001
7 *480:Y *347:6 1.11914
*END

*D_NET *348 0.00076289

*CONN
*I *479:Y O *C 98.67 66.92 *L 0 *D AOI21XL
*I *466:D I *C 101.31 67.48 *L 0.00207 *D DFFHQX1

*CAP
1 *479:Y 4.12112e-05
2 *466:D 0.000139841
3 *348:2 0.000153079
4 *348:3 0.00022291
5 *348:4 0.000150729
6 *348:5 5.51195e-05

*RES
1 *348:5 *466:D 3.20000005
2 *348:4 *348:5 0.156006
3 *348:3 *348:4 0.551562
4 *348:2 *348:3 3.20000005
5 *479:Y *348:2 0.223828
*END

*D_NET *349 0.00741149

*CONN
*I *488:Y O *C 77.55 59.08 *L 0 *D OAI21XL
*I *484:A0 I *C 70.29 68.04 *L 0.00314 *D AOI21XL
*I *483:A0 I *C 74.25 83.16 *L 0.00314 *D AOI21XL
*I *478:A0 I *C 78.21 83.16 *L 0.00314 *D AOI21XL
*I *477:A0 I *C 70.29 57.96 *L 0.00314 *D AOI21XL

*CAP
1 *488:Y 0.000139831
2 *484:A0 0.000139831
3 *483:A0 0.000139831
4 *478:A0 6.33103e-05
5 *477:A0 0.000139831
6 *349:5 0.000138511
7 *349:6 0.000138511
8 *349:7 0.000100403
9 *349:8 0.000386509
10 *349:9 0.000282266
11 *349:10 0.000250129
12 *349:11 0.000209738
13 *349:12 0.000461406
14 *349:13 0.000461406
15 *349:14 0.000152855
16 *349:15 0.000415923
17 *349:16 0.000276465
18 *349:17 5.99274e-05
19 *349:18 0.000129614
20 *349:19 7.01437e-05
21 *349:20 7.01437e-05
22 *349:21 0.000270697
23 *349:22 0.00020101
24 *349:23 0.00110038
25 *349:24 0.00110848
26 *349:25 0.000182624
27 *349:26 0.000188273
28 *349:27 0.000133403

*RES
1 *349:17 *483:A0 3.2
2 *349:19 *478:A0 6.4000001
3 *349:18 *349:17 0.155957
4 *349:20 *349:19 0.155957
5 *349:16 *349:18 3.2
6 *349:14 *349:20 6.4000001
7 *349:16 *349:15 0.735449
8 *349:15 *349:14 0.367676
9 *349:23 *349:15 6.4000001
10 *349:24 *349:23 5.304
11 *349:24 *349:27 0.183887
12 *349:22 *488:Y 3.2
13 *349:26 *349:27 0.467969
14 *349:22 *349:21 0.77998
15 *349:12 *349:26 3.2
16 *349:12 *349:21 3.2
17 *349:9 *477:A0 3.2
18 *349:13 *349:12 2.02246
19 *349:9 *349:8 1.09199
20 *349:8 *349:13 3.2
21 *349:8 *349:7 0.467969
22 *349:25 *484:A0 3.2
23 *349:6 *349:7 0.183887
24 *349:10 *349:25 0.367676
25 *349:6 *349:5 0.467969
26 *349:11 *349:10 0.77998
27 *349:11 *349:5 0.183887
*END

*D_NET *350 0.00213375

*CONN
*I *478:Y O *C 79.53 84.28 *L 0 *D AOI21XL
*I *465:D I *C 74.25 93.8 *L 0.00207 *D DFFHQX1

*CAP
1 *478:Y 3.7303e-05
2 *465:D 0.000139832
3 *350:2 0.000303801
4 *350:3 0.000621473
5 *350:4 0.00078304
6 *350:5 9.02465e-05
7 *350:6 6.58478e-05
8 *350:7 9.22179e-05

*RES
1 *478:Y *350:7 0.189941
2 *350:5 *350:7 0.223828
3 *350:6 *350:5 6.4000001
4 *350:3 *350:6 0.183887
5 *350:3 *350:4 2.34004
6 *350:2 *350:4 0.919238
7 *465:D *350:2 3.2
*END

*D_NET *351 0.00435612

*CONN
*I *477:Y O *C 71.61 56.84 *L 0 *D AOI21XL
*I *468:D I *C 60.39 37.24 *L 0.00207 *D DFFHQX1

*CAP
1 *477:Y 3.72991e-05
2 *468:D 0.000139846
3 *351:2 0.000456379
4 *351:3 0.000526054
5 *351:4 0.00061217
6 *351:5 0.000542495
7 *351:6 0.000357186
8 *351:7 0.000357186
9 *351:8 0.000120603
10 *351:9 0.000166776
11 *351:10 0.000120603
12 *351:11 9.22155e-05
13 *351:4 *83:187 1.947e-05
14 *351:5 *83:188 1.947e-05
15 *351:2 *83:88 0.00011917
16 *351:3 *83:89 0.00011917
17 *351:4 *322:20 3.972e-05
18 *351:5 *322:19 3.972e-05
19 *351:6 *322:10 7.923e-05
20 *351:7 *322:11 7.923e-05
21 *351:6 *322:22 2.216e-05
22 *351:7 *322:21 2.21600072e-05
23 *351:6 *170:3 0.00013391
24 *351:7 *170:4 0.000133910002

*RES
1 *351:11 *477:Y 0.189893
2 *351:9 *351:11 0.223828
3 *351:10 *351:9 3.20000005
4 *351:6 *351:10 3.20000005
5 *351:7 *351:6 2.75786
6 *351:4 *351:7 3.20000005
7 *351:5 *351:4 2.80801
8 *351:8 *351:5 3.20000005
9 *351:2 *351:8 3.20000005
10 *351:3 *351:2 2.33999
11 *468:D *351:3 3.20000005
*END

*D_NET *352 0.00609881

*CONN
*I *505:Y O *C 86.13 77 *L 0 *D AOI21X1
*I *483:A1 I *C 73.59 83.72 *L 0.00314 *D AOI21XL
*I *482:A1 I *C 93.39 83.72 *L 0.00314 *D AOI21XL
*I *476:A1 I *C 86.79 83.72 *L 0.00314 *D AOI21XL
*I *470:A1 I *C 68.31 77.56 *L 0.00314 *D AOI21XL

*CAP
1 *505:Y 0.000139838
2 *483:A1 8.3427e-05
3 *482:A1 6.32955e-05
4 *476:A1 3.9857e-05
5 *470:A1 6.32955e-05
6 *352:5 0.000442566
7 *352:6 0.000379599
8 *352:7 5.51152e-05
9 *352:8 0.00015616
10 *352:9 0.000277993
11 *352:10 0.000159718
12 *352:11 0.00126736
13 *352:12 0.00025761
14 *352:13 0.000156527
15 *352:14 0.000120596
16 *352:15 0.000120731
17 *352:16 0.000384395
18 *352:17 0.000990991
19 *352:18 7.51888e-05
20 *352:19 7.25394e-05
21 *352:20 0.000235274
22 *352:21 0.000384395
23 *352:22 0.000172308

*RES
1 *352:22 *482:A1 6.4000001
2 *352:20 *352:22 0.624023
3 *352:21 *352:20 3.2
4 *352:19 *505:Y 3.2
5 *352:16 *352:21 2.02246
6 *352:10 *352:19 0.183887
7 *352:18 *476:A1 0.223828
8 *352:15 *483:A1 0.447656
9 *352:9 *352:16 3.2
10 *352:10 *352:9 0.624023
11 *352:7 *352:18 6.4000001
12 *352:13 *352:15 0.189941
13 *352:9 *352:8 0.467969
14 *352:8 *352:7 0.155957
15 *352:14 *352:13 3.2
16 *352:17 *352:8 6.4000001
17 *352:11 *352:14 3.2
18 *352:11 *352:17 3.86104
19 *352:12 *352:11 1.10312
20 *352:5 *352:12 3.2
21 *352:6 *352:5 1.55996
22 *470:A1 *352:6 6.4000001
*END

*D_NET *353 0.00137778

*CONN
*I *476:Y O *C 88.77 84.28 *L 0 *D AOI21XL
*I *453:D I *C 84.15 87.64 *L 0.00207 *D DFFHQX1

*CAP
1 *476:Y 3.73009e-05
2 *453:D 0.000139841
3 *353:2 0.000182621
4 *353:3 0.0002882
5 *353:4 0.000247803
6 *353:5 0.000166781
7 *353:6 0.000223022
8 *353:7 9.22099e-05

*RES
1 *476:Y *353:7 0.189893
2 *353:5 *353:7 0.223828
3 *353:6 *353:5 3.20000005
4 *353:3 *353:6 0.551562
5 *353:3 *353:4 0.77998
6 *353:2 *353:4 0.367725
7 *453:D *353:2 3.20000005
*END

*D_NET *354 0.00540423

*CONN
*I *507:Y O *C 82.83 77 *L 0 *D AOI21X1
*I *480:A1 I *C 97.35 83.72 *L 0.00314 *D AOI21XL
*I *478:A1 I *C 77.55 83.72 *L 0.00314 *D AOI21XL
*I *475:A1 I *C 90.75 83.72 *L 0.00314 *D AOI21XL
*I *469:A1 I *C 78.21 77.56 *L 0.00314 *D AOI21XL

*CAP
1 *507:Y 0.000139843
2 *480:A1 0.000139843
3 *478:A1 0.000139843
4 *475:A1 3.98597e-05
5 *469:A1 0.000139843
6 *354:5 0.000152783
7 *354:6 0.000111064
8 *354:7 0.000398669
9 *354:8 0.000417669
10 *354:9 0.0004211
11 *354:10 0.000465078
12 *354:11 0.000124799
13 *354:12 0.00027378
14 *354:13 0.000301738
15 *354:14 7.0048e-05
16 *354:15 0.000231835
17 *354:16 0.000246771
18 *354:17 0.0001206
19 *354:18 0.000151727
20 *354:19 0.000522122
21 *354:20 0.000136547
22 *354:21 6.68693e-05
23 *354:22 0.0005918

*RES
1 *354:20 *480:A1 3.20000005
2 *354:20 *354:21 0.156006
3 *354:22 *354:21 3.20000005
4 *354:19 *354:22 2.02241
5 *354:18 *475:A1 0.223828
6 *354:11 *354:19 3.20000005
7 *354:12 *354:18 3.20000005
8 *354:12 *354:11 0.156006
9 *354:13 *354:12 0.935986
10 *354:9 *354:13 3.20000005
11 *354:10 *354:9 1.83857
12 *354:17 *507:Y 3.20000005
13 *354:7 *354:10 0.312012
14 *354:7 *354:17 3.20000005
15 *354:6 *469:A1 3.20000005
16 *354:8 *354:7 1.47085
17 *354:6 *354:5 0.468018
18 *354:5 *354:8 3.20000005
19 *354:15 *478:A1 3.20000005
20 *354:5 *354:14 0.156006
21 *354:16 *354:15 1.09199
22 *354:16 *354:14 0.183838
*END

*D_NET *355 0.00342352

*CONN
*I *475:Y O *C 92.73 84.28 *L 0 *D AOI21XL
*I *455:D I *C 92.73 103.88 *L 0.00207 *D DFFHQX1

*CAP
1 *475:Y 6.33001e-05
2 *455:D 0.000139838
3 *355:2 0.00057038
4 *355:3 0.000489595
5 *355:4 6.58502e-05
6 *355:5 0.000262879
7 *355:6 0.000240929
8 *355:7 0.000160143
9 *355:8 0.000271225
10 *355:9 0.000391872
11 *355:10 0.000383761
12 *355:11 0.000383761

*RES
1 *355:5 *455:D 3.2
2 *355:5 *355:9 0.735449
3 *355:8 *355:9 1.09199
4 *355:8 *355:11 0.183887
5 *355:10 *355:11 1.404
6 *355:7 *355:10 0.183887
7 *355:6 *355:7 0.77998
8 *355:2 *355:6 0.551562
9 *355:3 *355:2 2.02803
10 *355:4 *355:3 0.183887
11 *475:Y *355:4 6.4000001
*END

*D_NET *356 0.00987415

*CONN
*I *508:Y O *C 79.53 66.92 *L 0 *D AOI21X1
*I *484:A1 I *C 69.63 67.48 *L 0.00314 *D AOI21XL
*I *481:A1 I *C 96.03 57.4 *L 0.00314 *D AOI21XL
*I *474:A1 I *C 96.69 73.64 *L 0.00314 *D AOI21XL
*I *473:A1 I *C 68.31 73.64 *L 0.00314 *D AOI21XL

*CAP
1 *508:Y 0.000139836
2 *484:A1 3.98594e-05
3 *481:A1 3.98594e-05
4 *474:A1 3.98594e-05
5 *473:A1 6.33012e-05
6 *356:5 0.000199394
7 *356:6 0.000207621
8 *356:7 0.000213418
9 *356:8 0.000213418
10 *356:9 0.000138657
11 *356:10 7.82363e-05
12 *356:11 0.00041342
13 *356:12 0.00041342
14 *356:13 0.000195992
15 *356:14 0.000186732
16 *356:15 0.000217355
17 *356:16 0.000132751
18 *356:17 0.000637714
19 *356:18 0.000559563
20 *356:19 0.000201266
21 *356:20 9.71088e-05
22 *356:21 0.000170253
23 *356:22 7.01307e-05
24 *356:23 7.01307e-05
25 *356:24 0.00079639875
26 *356:25 0.00079639875
27 *356:26 0.000162099
28 *356:27 0.000162099
29 *356:28 0.000285724
30 *356:29 0.000230966
31 *356:30 0.00011445
32 *356:31 0.000117282
33 *356:32 0.000151733
34 *356:33 0.00014223
35 *356:34 7.51982e-05
36 *356:17 *314:20 0.00022166
37 *356:18 *314:15 0.00022166
38 *356:17 *314:15 0.00027847
39 *356:18 *314:9 0.00027847
40 *356:11 *314:15 3.552e-05
41 *356:12 *314:9 3.552e-05
42 *356:11 *314:9 2.747e-05
43 *356:12 *314:7 2.747e-05
44 *356:19 *314:15 1.506e-05
45 *356:20 *314:9 1.50600289e-05
46 *356:21 *324:14 0.00018955
47 *356:17 *324:18 0.00018955
48 *356:17 *324:14 0.00028242
49 *356:18 *324:18 0.000282420004

*RES
1 *356:32 *481:A1 0.223828
2 *356:33 *356:32 3.2
3 *356:29 *356:33 0.183887
4 *356:29 *356:28 0.936035
5 *356:7 *356:28 3.2
6 *356:34 *474:A1 0.223828
7 *356:8 *356:7 0.735449
8 *356:26 *356:34 3.2
9 *356:23 *508:Y 3.2
10 *356:25 *356:8 3.2
11 *356:27 *356:26 0.467969
12 *356:23 *356:22 0.155957
13 *356:25 *356:24 3.12002
14 *356:21 *356:27 3.2
15 *356:9 *356:22 3.2
16 *356:17 *356:24 3.2
17 *356:17 *356:21 1.10312
18 *356:10 *356:9 0.183887
19 *356:18 *356:17 3.49326
20 *356:10 *356:19 0.155957
21 *356:19 *356:18 0.467969
22 *356:20 *356:19 0.367676
23 *356:20 *356:11 0.155957
24 *356:30 *484:A1 0.223828
25 *356:12 *356:11 2.02246
26 *356:30 *356:31 0.379785
27 *356:13 *356:12 0.155957
28 *356:16 *356:31 6.4000001
29 *356:14 *356:13 0.551562
30 *356:5 *473:A1 6.4000001
31 *356:16 *356:15 0.467969
32 *356:15 *356:14 3.2
33 *356:6 *356:5 0.936035
34 *356:6 *356:15 0.183887
*END

*D_NET *357 0.00706222

*CONN
*I *487:Y O *C 90.75 59.08 *L 0 *D OAI21XL
*I *476:A0 I *C 87.45 83.16 *L 0.00314 *D AOI21XL
*I *475:A0 I *C 91.41 83.16 *L 0.00314 *D AOI21XL
*I *474:A0 I *C 97.35 73.08 *L 0.00314 *D AOI21XL
*I *471:A0 I *C 95.37 63 *L 0.00314 *D AOI21XL

*CAP
1 *487:Y 6.33045e-05
2 *476:A0 0.00013984
3 *475:A0 0.00013984
4 *474:A0 0.00013984
5 *471:A0 0.00013984
6 *357:5 0.000137362
7 *357:6 0.000129131
8 *357:7 0.000205776
9 *357:8 0.000205776
10 *357:9 0.000156668
11 *357:10 0.000223101
12 *357:11 0.000415639
13 *357:12 0.000415639
14 *357:13 6.68791e-05
15 *357:14 0.000280382
16 *357:15 0.000296581
17 *357:16 0.0001206
18 *357:17 0.000251822
19 *357:18 0.000251822
20 *357:19 0.000271288
21 *357:20 0.000271288
22 *357:21 0.00047906
23 *357:22 0.000424184
24 *357:23 0.000120783
25 *357:24 0.000246215
26 *357:25 0.00013628
27 *357:26 0.000119606
28 *357:27 0.000174489
29 *357:28 0.0001206
30 *357:29 6.89112e-05
31 *357:30 6.89112e-05
32 *357:31 7.00516e-05
33 *357:32 7.00516e-05
34 *357:33 0.000182611
35 *357:34 8.68865e-05
36 *357:35 0.000185579
37 *357:36 0.000185579

*RES
1 *357:6 *487:Y 6.4000001
2 *357:6 *357:5 0.467969
3 *357:5 *357:29 0.183887
4 *357:29 *357:30 0.155957
5 *357:30 *357:31 0.183887
6 *357:34 *471:A0 3.2
7 *357:31 *357:32 0.155957
8 *357:33 *357:34 0.312012
9 *357:32 *357:10 0.183887
10 *357:10 *357:33 0.551562
11 *357:10 *357:9 0.312012
12 *357:7 *357:9 3.2
13 *357:8 *357:7 0.735449
14 *357:21 *357:8 3.2
15 *357:35 *474:A0 3.2
16 *357:21 *357:22 1.71602
17 *357:35 *357:36 0.624023
18 *357:17 *357:22 0.183887
19 *357:11 *357:36 3.2
20 *357:17 *357:18 1.24805
21 *357:12 *357:11 1.83857
22 *357:18 *357:23 0.183887
23 *357:24 *357:12 3.2
24 *357:23 *357:24 0.467969
25 *357:24 *357:25 0.467969
26 *357:19 *357:25 0.183887
27 *357:19 *357:20 1.24805
28 *357:28 *475:A0 3.2
29 *357:20 *357:26 0.183887
30 *357:13 *357:28 3.2
31 *357:26 *357:27 0.467969
32 *357:14 *357:13 0.183887
33 *357:14 *357:27 3.2
34 *357:15 *357:14 0.919238
35 *357:16 *357:15 3.2
36 *476:A0 *357:16 3.2
*END

*D_NET *358 0.000765169

*CONN
*I *474:Y O *C 98.67 74.2 *L 0 *D AOI21XL
*I *454:D I *C 101.31 73.64 *L 0.00207 *D DFFHQX1

*CAP
1 *474:Y 4.12112e-05
2 *454:D 0.000139841
3 *358:2 0.000153079
4 *358:3 0.00022291
5 *358:4 5.6259e-05
6 *358:5 0.000151869

*RES
1 *358:4 *454:D 3.20000005
2 *358:4 *358:5 0.156006
3 *358:3 *358:5 0.551562
4 *358:2 *358:3 3.20000005
5 *474:Y *358:2 0.223828
*END

*D_NET *359 0.00256867

*CONN
*I *473:Y O *C 70.29 74.2 *L 0 *D AOI21XL
*I *458:D I *C 59.73 67.48 *L 0.00207 *D DFFHQX1

*CAP
1 *473:Y 0.000139842
2 *458:D 0.000139842
3 *359:2 0.00075447
4 *359:3 0.000675771
5 *359:4 0.000235442
6 *359:5 0.000235442
7 *359:6 0.000138138
8 *359:7 0.000120605
9 *359:8 0.000129124

*RES
1 *359:7 *473:Y 3.20000005
2 *359:8 *359:7 3.20000005
3 *359:6 *359:8 0.183838
4 *359:2 *359:6 0.468018
5 *359:3 *359:2 2.75786
6 *359:4 *359:3 3.20000005
7 *359:5 *359:4 0.77998
8 *458:D *359:5 3.20000005
*END

*D_NET *360 0.00605332

*CONN
*I *504:Y O *C 94.71 66.92 *L 0 *D AOI21X1
*I *479:A1 I *C 96.69 67.48 *L 0.00314 *D AOI21XL
*I *477:A1 I *C 69.63 57.4 *L 0.00314 *D AOI21XL
*I *472:A1 I *C 66.99 63.56 *L 0.00314 *D AOI21XL
*I *471:A1 I *C 94.71 63.56 *L 0.00314 *D AOI21XL

*CAP
1 *504:Y 0.000146736
2 *479:A1 8.34358e-05
3 *477:A1 6.33007e-05
4 *472:A1 3.98491e-05
5 *471:A1 7.97246e-05
6 *360:5 7.30655e-05
7 *360:6 7.30655e-05
8 *360:7 0.000106229
9 *360:8 0.000160976
10 *360:9 0.00149621
11 *360:10 0.00172491
12 *360:11 0.000242122
13 *360:12 0.000109546
14 *360:13 0.000117784
15 *360:14 6.48272e-05
16 *360:15 6.48272e-05
17 *360:16 0.000437104
18 *360:17 0.000437104
19 *360:18 7.71715e-05
20 *360:19 7.99878e-05
21 *360:20 5.09037e-05
22 *360:21 5.09037e-05
23 *360:22 0.000117021
24 *360:23 0.000156528

*RES
1 *504:Y *479:A1 0.44765
2 *360:12 *504:Y 6.40004
3 *360:13 *360:12 0.312049
4 *360:21 *477:A1 6.40004
5 *360:5 *360:13 0.183812
6 *360:15 *360:21 6.40004
7 *360:22 *471:A1 0.44765
8 *360:6 *360:5 0.156024
9 *360:15 *360:14 0.183812
10 *360:22 *360:23 0.1899
11 *360:7 *360:6 0.183812
12 *360:17 *360:14 6.40004
13 *360:8 *360:23 3.20002
14 *360:8 *360:7 0.312049
15 *360:17 *360:16 1.872
16 *360:9 *360:8 3.20002
17 *360:10 *360:16 6.40004
18 *360:10 *360:9 6.43499994
19 *360:11 *360:10 1.10317
20 *360:20 *360:11 6.40004
21 *360:19 *360:20 6.40004
22 *360:18 *472:A1 0.223874
23 *360:18 *360:19 0.1899
*END

*D_NET *361 0.00231943

*CONN
*I *472:Y O *C 68.97 64.12 *L 0 *D AOI21XL
*I *460:D I *C 59.73 57.4 *L 0.00207 *D DFFHQX1

*CAP
1 *472:Y 0.000139836
2 *460:D 0.000139836
3 *361:2 0.000142236
4 *361:3 0.000138506
5 *361:4 0.000193253
6 *361:5 0.00051571
7 *361:6 0.000302021
8 *361:7 0.00051571
9 *361:8 0.000232339

*RES
1 *361:8 *472:Y 3.20000005
2 *361:6 *361:8 0.77998
3 *361:7 *361:6 3.20000005
4 *361:5 *361:7 2.39014
5 *361:4 *361:5 3.20000005
6 *361:3 *361:4 0.468018
7 *361:2 *361:3 0.183838
8 *460:D *361:2 3.20000005
*END

*D_NET *362 0.000997972

*CONN
*I *471:Y O *C 96.69 64.12 *L 0 *D AOI21XL
*I *456:D I *C 100.65 63.56 *L 0.00207 *D DFFHQX1

*CAP
1 *471:Y 0.000132911
2 *456:D 0.00013984
3 *362:2 7.85093e-05
4 *362:3 0.00017021
5 *362:4 7.65406e-05
6 *362:5 0.00010624
7 *362:6 0.000139679
8 *362:7 0.00015404

*RES
1 *362:7 *456:D 3.2
2 *362:6 *362:7 0.312012
3 *362:5 *362:6 0.367676
4 *362:4 *362:5 6.4000001
5 *362:2 *362:4 0.223828
6 *362:2 *362:3 0.189941
7 *471:Y *362:3 0.671484
*END

*D_NET *363 0.00657019

*CONN
*I *486:Y O *C 74.25 59.08 *L 0 *D OAI21XL
*I *473:A0 I *C 68.97 73.08 *L 0.00314 *D AOI21XL
*I *472:A0 I *C 67.65 63 *L 0.00314 *D AOI21XL
*I *470:A0 I *C 68.97 78.12 *L 0.00314 *D AOI21XL
*I *469:A0 I *C 78.87 78.12 *L 0.00314 *D AOI21XL

*CAP
1 *486:Y 6.32989e-05
2 *473:A0 6.32989e-05
3 *472:A0 0.000139839
4 *470:A0 6.32989e-05
5 *469:A0 0.000139839
6 *363:5 0.00017297
7 *363:6 0.000158043
8 *363:7 0.000197031
9 *363:8 0.000127348
10 *363:9 7.33024e-05
11 *363:10 0.000128059
12 *363:11 0.000520857
13 *363:12 0.000234149
14 *363:13 0.000567939
15 *363:14 0.000567939
16 *363:15 0.000208811
17 *363:16 0.000154068
18 *363:17 0.00036979
19 *363:18 0.00086261
20 *363:19 0.000798205
21 *363:20 0.000142235
22 *363:21 5.0926e-05
23 *363:22 0.000120596
24 *363:23 0.000285391
25 *363:24 5.0926e-05
26 *363:25 0.000120596
27 *363:26 0.000188817

*RES
1 *363:15 *469:A0 3.2
2 *363:16 *363:15 0.467969
3 *363:9 *363:16 0.183887
4 *363:10 *363:9 0.155957
5 *363:24 *470:A0 6.4000001
6 *363:13 *363:10 3.2
7 *363:25 *363:24 6.4000001
8 *363:21 *473:A0 6.4000001
9 *363:14 *363:13 2.57402
10 *363:26 *363:25 3.2
11 *363:22 *363:21 6.4000001
12 *363:23 *363:14 3.2
13 *363:23 *363:26 0.624023
14 *363:8 *486:Y 6.4000001
15 *363:18 *363:22 3.2
16 *363:18 *363:23 0.77998
17 *363:8 *363:7 0.467969
18 *363:19 *363:18 3.43203
19 *363:17 *363:7 3.2
20 *363:20 *472:A0 3.2
21 *363:11 *363:19 3.2
22 *363:11 *363:17 1.65469
23 *363:5 *363:20 0.183887
24 *363:12 *363:11 0.551562
25 *363:6 *363:5 0.624023
26 *363:6 *363:12 3.2
*END

*D_NET *364 0.00196537

*CONN
*I *470:Y O *C 70.29 77 *L 0 *D AOI21XL
*I *457:D I *C 62.37 83.72 *L 0.00207 *D DFFHQX1

*CAP
1 *470:Y 0.000139841
2 *457:D 6.33004e-05
3 *364:2 0.00020884
4 *364:3 0.000223195
5 *364:4 0.000156053
6 *364:5 0.000156053
7 *364:6 0.00010624
8 *364:7 0.000421079
9 *364:8 0.00049076

*RES
1 *364:5 *470:Y 3.2
2 *364:5 *364:4 0.624023
3 *364:8 *364:4 3.2
4 *364:7 *364:8 1.83857
5 *364:3 *364:7 3.2
6 *364:3 *364:2 0.624023
7 *364:6 *364:2 0.367676
8 *457:D *364:6 6.4000001
*END

*D_NET *365 0.0022534

*CONN
*I *469:Y O *C 80.19 77 *L 0 *D AOI21XL
*I *459:D I *C 72.93 87.64 *L 0.00207 *D DFFHQX1

*CAP
1 *469:Y 6.33025e-05
2 *459:D 0.000139838
3 *365:2 0.000307056
4 *365:3 0.000376742
5 *365:4 0.000470568086
6 *365:5 0.000470568086
7 *365:6 0.000212662
8 *365:7 0.000212662

*RES
1 *365:6 *469:Y 6.4000001
2 *365:6 *365:7 0.77998
3 *365:4 *365:7 6.4000001
4 *365:2 *459:D 3.2
5 *365:5 *365:4 2.02246
6 *365:3 *365:2 1.71602
7 *365:3 *365:5 3.2
*END

*D_NET *366 0.000980738

*CONN
*I *676:Y O *C 83.49 33.88 *L 0 *D MXI2XL
*I *622:A I *C 86.13 33.32 *L 0.00553 *D XOR2X1

*CAP
1 *676:Y 0.000139839
2 *622:A 6.33006e-05
3 *366:2 6.68696e-05
4 *366:3 6.68696e-05
5 *366:4 0.00026163
6 *366:5 0.00026163
7 *366:6 0.000120601

*RES
1 *366:3 *622:A 6.4000001
2 *366:3 *366:2 0.155957
3 *366:4 *366:2 3.2
4 *366:5 *366:4 0.919238
5 *366:6 *366:5 3.2
6 *676:Y *366:6 3.2
*END

*D_NET *367 0.0183226

*CONN
*I *681:Y O *C 94.71 36.68 *L 0 *D NOR2BX1
*I *532:B0 I *C 71.61 37.8 *L 0.00433 *D AOI22X1
*I *531:B0 I *C 86.79 22.68 *L 0.00433 *D AOI22X1
*I *530:B0 I *C 71.61 22.68 *L 0.00433 *D AOI22X1
*I *529:B0 I *C 71.61 32.76 *L 0.00433 *D AOI22X1
*I *508:B0 I *C 79.53 67.48 *L 0.00441 *D AOI21X1
*I *507:B0 I *C 82.83 77.56 *L 0.00441 *D AOI21X1
*I *505:B0 I *C 86.13 77.56 *L 0.00441 *D AOI21X1
*I *504:B0 I *C 94.71 67.48 *L 0.00441 *D AOI21X1

*CAP
1 *681:Y 0.000139868
2 *532:B0 0.000139868
3 *531:B0 0.000139868
4 *530:B0 0.000139868
5 *529:B0 0.000139868
6 *508:B0 6.33339e-05
7 *507:B0 6.33339e-05
8 *505:B0 6.33339e-05
9 *504:B0 6.33339e-05
10 *367:9 0.00038783
11 *367:10 0.000190651
12 *367:11 0.000276707
13 *367:12 0.00022138
14 *367:13 0.00012692
15 *367:14 6.3911e-05
16 *367:15 0.000167929
17 *367:16 0.000167929
18 *367:17 0.000259792
19 *367:18 0.000196782
20 *367:19 0.000940667
21 *367:20 0.000678423
22 *367:21 9.83912e-05
23 *367:22 4.8366e-05
24 *367:23 0.000118048
25 *367:24 0.000150148
26 *367:25 0.000158263
27 *367:26 0.000214852
28 *367:27 0.000206737
29 *367:28 0.000786083
30 *367:29 0.000786083
31 *367:30 0.000354396
32 *367:31 0.000354396
33 *367:32 0.000162014
34 *367:33 0.000121618
35 *367:34 0.000231767
36 *367:35 0.000313964
37 *367:36 7.21703e-05
38 *367:37 0.000503425
39 *367:38 0.000503425
40 *367:39 0.000360599
41 *367:40 0.000280242
42 *367:41 0.000150472
43 *367:42 0.000150472
44 *367:43 0.000165873
45 *367:44 0.00164473
46 *367:45 0.00236366
47 *367:46 0.000106254
48 *367:47 0.000871671
49 *367:48 0.000120609
50 *367:49 0.000120609
51 *367:44 *251:12 0.00017166
52 *367:45 *251:13 0.00017166
53 *367:44 *251:10 3.428e-05
54 *367:45 *251:11 3.428e-05
55 *367:44 *251:14 2.518e-05
56 *367:45 *251:15 2.51800091e-05
57 *367:44 *249:7 0.00021146
58 *367:45 *249:8 0.000211459993
59 *367:37 *286:19 2.379e-05
60 *367:38 *286:18 2.379e-05
61 *367:37 *286:16 4.985e-05
62 *367:38 *286:15 4.985e-05
63 *367:39 *286:12 9.572e-05
64 *367:19 *286:13 9.572e-05
65 *367:39 *286:13 1.263e-05
66 *367:19 *286:14 1.263e-05
67 *367:19 *286:26 8.983e-05
68 *367:20 *286:25 8.983e-05
69 *367:19 *286:13 6.124e-05
70 *367:20 *286:14 6.124e-05
71 *367:19 *286:10 2.527e-05
72 *367:20 *286:11 2.527e-05
73 *367:20 *286:10 2.377e-05
74 *367:21 *286:11 2.377e-05
75 *367:40 *286:24 0.00013974
76 *367:9 *286:21 0.000139739983
77 *367:19 *263:6 0.00010069
78 *367:20 *263:3 0.00010069
79 *367:20 *263:6 1.188e-05
80 *367:21 *263:3 1.188e-05
81 *367:22 *263:4 8.86e-06
82 *367:23 *263:2 8.86000355e-06

*RES
1 *367:15 *505:B0 6.39995
2 *367:46 *507:B0 6.39995
3 *367:16 *367:15 0.623936
4 *367:32 *367:46 0.367653
5 *367:30 *367:16 3.19998
6 *367:33 *367:32 0.467988
7 *367:12 *508:B0 6.39995
8 *367:31 *367:30 1.4709
9 *367:36 *367:33 0.183827
10 *367:12 *367:11 1.24802
11 *367:34 *367:31 3.19998
12 *367:34 *367:36 0.155948
13 *367:11 *367:35 0.367653
14 *367:35 *367:34 0.935976
15 *367:43 *367:35 0.31204
16 *367:25 *367:43 3.19998
17 *367:25 *367:24 0.551625
18 *367:29 *367:24 0.0779738
19 *367:18 *504:B0 6.39995
20 *367:29 *367:28 2.75783
21 *367:40 *532:B0 3.19998
22 *367:18 *367:17 0.935976
23 *367:28 *367:27 0.0779738
24 *367:9 *529:B0 3.19998
25 *367:9 *367:40 1.40396
26 *367:26 *367:17 3.19998
27 *367:27 *367:26 0.551625
28 *367:48 *681:Y 3.19998
29 *367:10 *367:9 0.623936
30 *367:44 *367:26 3.19998
31 *367:49 *367:48 3.19998
32 *367:42 *367:10 3.19998
33 *367:45 *367:44 9.51599979
34 *367:45 *367:49 3.19998
35 *367:42 *367:41 0.551625
36 *367:13 *531:B0 3.19998
37 *367:47 *367:45 4.05595
38 *367:37 *367:41 3.19998
39 *367:14 *367:13 0.155948
40 *367:39 *367:47 3.19998
41 *367:38 *367:37 2.33994
42 *367:19 *367:14 6.39995
43 *367:19 *367:39 2.20635
44 *367:20 *367:38 3.19998
45 *367:20 *367:19 3.67711
46 *367:22 *530:B0 3.19998
47 *367:21 *367:20 0.551625
48 *367:23 *367:22 0.155948
49 *367:23 *367:21 3.19998
*END

*D_NET *368 0.00143233

*CONN
*I *419:A I *C 103.95 33.32 *L 0.00446 *D BUFX3
*I *679:Q O *C 107.25 26.04 *L 0 *D DFFX1

*CAP
1 *419:A 3.98616e-05
2 *679:Q 6.32977e-05
3 *368:2 0.000209353
4 *368:3 0.000285912
5 *368:4 0.000151754
6 *368:5 0.00034108
7 *368:6 0.00034108

*RES
1 *368:5 *679:Q 6.4000001
2 *368:5 *368:6 1.55996
3 *368:4 *419:A 0.223828
4 *368:2 *368:6 6.4000001
5 *368:3 *368:4 0.569727
6 *368:3 *368:2 1.34297
*END

