*SPEF "IEEE 1481-1998"
*DESIGN "aer_pending_gray_rank_reuse_sync_core_reset"
*DATE "Wed Aug 26 16:52:55 2026"
*VENDOR "Cadence Design Systems, Inc."
*PROGRAM "Innovus"
*VERSION "23.14-s088_1"
*DESIGN_FLOW "COUPLING C" "PIN_CAP NONE" "NAME_SCOPE LOCAL"
*DIVIDER /
*DELIMITER :
*BUS_DELIMITER []
*T_UNIT 1 NS
*C_UNIT 1 PF
*R_UNIT 1 OHM
*L_UNIT 1 HENRY

// MMMC spef file for corner 'rc_45nm'

*NAME_MAP

*1 FE_PHN9_rst_n
*2 FE_OFN9_n_103
*3 FE_OFN8_n_103
*4 FE_OFN7_n_95
*5 FE_OFN4_n_163
*6 FE_OFN1_n_91
*7 FE_OFN0_n_90
*8 clk
*9 rst_n
*10 src_req_async[15]
*11 src_req_async[14]
*12 src_req_async[13]
*13 src_req_async[12]
*14 src_req_async[11]
*15 src_req_async[10]
*16 src_req_async[9]
*17 src_req_async[8]
*18 src_req_async[7]
*19 src_req_async[6]
*20 src_req_async[5]
*21 src_req_async[4]
*22 src_req_async[3]
*23 src_req_async[2]
*24 src_req_async[1]
*25 src_req_async[0]
*26 src_ack_async[15]
*27 src_ack_async[14]
*28 src_ack_async[13]
*29 src_ack_async[12]
*30 src_ack_async[11]
*31 src_ack_async[10]
*32 src_ack_async[9]
*33 src_ack_async[8]
*34 src_ack_async[7]
*35 src_ack_async[6]
*36 src_ack_async[5]
*37 src_ack_async[4]
*38 src_ack_async[3]
*39 src_ack_async[2]
*40 src_ack_async[1]
*41 src_ack_async[0]
*42 out_addr[3]
*43 out_addr[2]
*44 out_addr[1]
*45 out_addr[0]
*46 out_valid
*47 out_ready
*48 pending_rank_q[15]
*49 pending_rank_q[14]
*50 pending_rank_q[13]
*51 pending_rank_q[12]
*52 pending_rank_q[11]
*53 pending_rank_q[10]
*54 pending_rank_q[9]
*55 pending_rank_q[8]
*56 pending_rank_q[7]
*57 pending_rank_q[6]
*58 pending_rank_q[5]
*59 pending_rank_q[4]
*60 pending_rank_q[3]
*61 pending_rank_q[2]
*62 pending_rank_q[1]
*63 pending_rank_q[0]
*64 out_rank_q[2]
*65 out_rank_q[1]
*66 out_rank_q[0]
*67 ack_rank_q[15]
*68 ack_rank_q[14]
*69 ack_rank_q[13]
*70 ack_rank_q[12]
*71 ack_rank_q[11]
*72 ack_rank_q[10]
*73 ack_rank_q[9]
*74 ack_rank_q[8]
*75 ack_rank_q[7]
*76 ack_rank_q[6]
*77 ack_rank_q[5]
*78 ack_rank_q[4]
*79 ack_rank_q[3]
*80 ack_rank_q[2]
*81 ack_rank_q[1]
*82 ack_rank_q[0]
*83 req_sync_q[15]
*84 req_sync_q[14]
*85 req_sync_q[13]
*86 req_sync_q[12]
*87 req_sync_q[11]
*88 req_sync_q[10]
*89 req_sync_q[9]
*90 req_sync_q[8]
*91 req_sync_q[7]
*92 req_sync_q[6]
*93 req_sync_q[5]
*94 req_sync_q[4]
*95 req_sync_q[3]
*96 req_sync_q[2]
*97 req_sync_q[1]
*98 req_sync_q[0]
*99 reset_release_q[1]
*100 reset_release_q[0]
*101 req_meta_q[15]
*102 req_meta_q[14]
*103 req_meta_q[13]
*104 req_meta_q[12]
*105 req_meta_q[11]
*106 req_meta_q[10]
*107 req_meta_q[9]
*108 req_meta_q[8]
*109 req_meta_q[7]
*110 req_meta_q[6]
*111 req_meta_q[5]
*112 req_meta_q[4]
*113 req_meta_q[3]
*114 req_meta_q[2]
*115 req_meta_q[1]
*116 req_meta_q[0]
*117 n_0
*118 n_1
*119 n_2
*120 n_5
*121 n_6
*122 n_7
*123 n_8
*124 n_9
*125 n_10
*126 n_11
*127 n_12
*128 n_13
*129 n_14
*130 n_15
*131 n_16
*132 n_17
*133 n_18
*134 n_19
*135 n_20
*136 n_26
*137 n_30
*138 n_33
*139 n_35
*140 n_38
*141 n_39
*142 n_40
*143 n_41
*144 n_42
*145 n_43
*146 n_44
*147 n_46
*148 n_48
*149 n_50
*150 n_52
*151 n_54
*152 n_55
*153 n_57
*154 n_59
*155 n_60
*156 n_61
*157 n_62
*158 n_63
*159 n_64
*160 n_65
*161 n_66
*162 n_67
*163 n_68
*164 n_69
*165 n_70
*166 n_71
*167 n_72
*168 n_74
*169 n_75
*170 n_76
*171 n_77
*172 n_78
*173 n_79
*174 n_80
*175 n_81
*176 n_82
*177 n_83
*178 n_84
*179 n_85
*180 n_86
*181 n_87
*182 n_88
*183 n_89
*184 n_90
*185 n_91
*186 n_92
*187 n_93
*188 n_94
*189 n_95
*190 n_96
*191 n_97
*192 n_99
*193 n_100
*194 n_101
*195 n_102
*196 n_103
*197 n_104
*198 n_105
*199 n_106
*200 n_107
*201 n_108
*202 n_109
*203 n_110
*204 n_111
*205 n_112
*206 n_113
*207 n_116
*208 n_117
*209 n_118
*210 n_119
*211 n_120
*212 n_121
*213 n_122
*214 n_123
*215 n_124
*216 n_125
*217 n_126
*218 n_127
*219 n_128
*220 n_129
*221 n_130
*222 n_131
*223 n_132
*224 n_133
*225 n_134
*226 n_135
*227 n_136
*228 n_137
*229 n_138
*230 n_139
*231 n_140
*232 n_141
*233 n_142
*234 n_143
*235 n_144
*236 n_145
*237 n_146
*238 n_147
*239 n_148
*240 n_149
*241 n_150
*242 n_151
*243 n_152
*244 n_153
*245 n_154
*246 n_155
*247 n_156
*248 n_158
*249 n_159
*250 n_160
*251 n_161
*252 n_162
*253 n_163
*254 n_164
*255 n_165
*256 n_166
*257 n_167
*258 n_168
*259 n_169
*260 n_170
*261 n_171
*262 n_172
*263 n_173
*264 n_174
*265 n_175
*266 n_176
*267 n_177
*268 n_178
*269 n_179
*270 n_180
*271 n_181
*272 n_182
*273 n_183
*274 n_184
*275 n_185
*276 n_186
*277 n_187
*278 n_188
*279 n_189
*280 n_235
*281 n_236
*282 out_valid_q
*283 FE_PHC9_rst_n
*284 FE_OFC9_n_103
*285 FE_OFC8_n_103
*286 FE_OFC7_n_95
*287 FE_OFC4_n_163
*288 FE_OFC1_n_91
*289 FE_OFC0_n_90
*290 pending_rank_q_reg\[0\]
*291 pending_rank_q_reg\[1\]
*292 pending_rank_q_reg\[2\]
*293 pending_rank_q_reg\[3\]
*294 pending_rank_q_reg\[4\]
*295 pending_rank_q_reg\[5\]
*296 pending_rank_q_reg\[6\]
*297 pending_rank_q_reg\[7\]
*298 pending_rank_q_reg\[8\]
*299 pending_rank_q_reg\[9\]
*300 pending_rank_q_reg\[10\]
*301 pending_rank_q_reg\[11\]
*302 pending_rank_q_reg\[12\]
*303 pending_rank_q_reg\[13\]
*304 pending_rank_q_reg\[14\]
*305 pending_rank_q_reg\[15\]
*306 out_rank_q_reg\[0\]
*307 g6831__2398
*308 g6843__5107
*309 g6844__6260
*310 g6832__4319
*311 g6842__8428
*312 g6833__5526
*313 g6834__6783
*314 g6829__3680
*315 g6828__1617
*316 g6837__2802
*317 g6838__1705
*318 g6839__5122
*319 g6836__8246
*320 g6840__7098
*321 g6830__6131
*322 g6841__1881
*323 g6845__5115
*324 out_rank_q_reg\[1\]
*325 g6846__7482
*326 g6847__4733
*327 g6849__6161
*328 g6851__9315
*329 g6850__9945
*330 g6852__2883
*331 g6853__2346
*332 g6854__1666
*333 g6856__7410
*334 g6855__6417
*335 g6857__5477
*336 g6859__5107
*337 g6860__6260
*338 g6861__4319
*339 g6862__8428
*340 g6864__5526
*341 g6865__6783
*342 out_rank_q_reg\[2\]
*343 g6867__3680
*344 out_rank_q_reg\[3\]
*345 g6866__1617
*346 g6869__2802
*347 g6870
*348 g6871__1705
*349 g6872__5122
*350 g6873__8246
*351 g6874__7098
*352 g6875__6131
*353 g6876__1881
*354 g6879__5115
*355 g6880__7482
*356 g6878
*357 g6877__4733
*358 g6882__6161
*359 g6881__9315
*360 g6883
*361 out_valid_q_reg
*362 g6884__9945
*363 g6887__2883
*364 g6886
*365 g6888__2346
*366 g6893__7410
*367 g6890__6417
*368 g6892__5477
*369 g6897
*370 g6896
*371 g6895__2398
*372 g6898__5107
*373 g6899__6260
*374 g6894__4319
*375 g6900__8428
*376 g6901__5526
*377 g6902__6783
*378 g6903__3680
*379 g6904__1617
*380 g6905__2802
*381 g6906__1705
*382 g6907__5122
*383 g6910__8246
*384 g6908__7098
*385 g6909__6131
*386 g6912__1881
*387 g6911__5115
*388 ack_rank_q_reg\[2\]
*389 ack_rank_q_reg\[1\]
*390 ack_rank_q_reg\[8\]
*391 ack_rank_q_reg\[6\]
*392 ack_rank_q_reg\[13\]
*393 ack_rank_q_reg\[0\]
*394 ack_rank_q_reg\[5\]
*395 ack_rank_q_reg\[12\]
*396 ack_rank_q_reg\[4\]
*397 ack_rank_q_reg\[11\]
*398 ack_rank_q_reg\[9\]
*399 ack_rank_q_reg\[14\]
*400 ack_rank_q_reg\[10\]
*401 ack_rank_q_reg\[3\]
*402 ack_rank_q_reg\[15\]
*403 ack_rank_q_reg\[7\]
*404 g6919__7482
*405 g6922__4733
*406 g6921__6161
*407 g6914__9315
*408 g6913__9945
*409 g6917__2883
*410 g6920__2346
*411 g6918__1666
*412 g6915__7410
*413 g6916__6417
*414 g6959__5477
*415 g6956__2398
*416 g6957__5107
*417 g6958__6260
*418 g6955__4319
*419 g6960__8428
*420 g6961__5526
*421 g6962__6783
*422 g6967__3680
*423 g6964__1617
*424 g6965__2802
*425 g6966__1705
*426 g6963__5122
*427 g6968__8246
*428 g6969__7098
*429 g6970__6131
*430 g6971__1881
*431 g6987__5115
*432 g6975__7482
*433 g6986__4733
*434 g6978__6161
*435 g6979__9315
*436 g6982__9945
*437 g6942__2883
*438 g6939__2346
*439 g6940__1666
*440 g6944__7410
*441 g6945__6417
*442 g6946__5477
*443 g6943__2398
*444 g6941__5107
*445 g6948__6260
*446 g6949__4319
*447 g6947__8428
*448 g6981__5526
*449 g6976__6783
*450 g6984__3680
*451 g6974__1617
*452 g6985__2802
*453 g6977__1705
*454 g6980
*455 g6972__5122
*456 g6983__8246
*457 g6973__7098
*458 g6988__6131
*459 g6951__1881
*460 g6952__5115
*461 g6953__7482
*462 g6950__4733
*463 g6954__6161
*464 g6989__9315
*465 g6997
*466 g7016
*467 g7015
*468 g6990
*469 g6991
*470 g6993
*471 g6994
*472 g6995
*473 g7020
*474 g6992
*475 g7014
*476 g7018
*477 g7017
*478 g7019
*479 g6996
*480 g6998
*481 g7030__9945
*482 g7003
*483 g7022__2883
*484 req_sync_q_reg\[2\]
*485 req_sync_q_reg\[1\]
*486 reset_release_q_reg\[1\]
*487 req_sync_q_reg\[7\]
*488 req_sync_q_reg\[14\]
*489 req_sync_q_reg\[8\]
*490 req_sync_q_reg\[10\]
*491 req_sync_q_reg\[3\]
*492 g7021__2346
*493 req_sync_q_reg\[4\]
*494 req_sync_q_reg\[9\]
*495 req_sync_q_reg\[12\]
*496 req_sync_q_reg\[15\]
*497 req_sync_q_reg\[13\]
*498 req_sync_q_reg\[6\]
*499 req_sync_q_reg\[0\]
*500 req_sync_q_reg\[11\]
*501 req_sync_q_reg\[5\]
*502 g7048__1666
*503 g7049__7410
*504 g7050__6417
*505 req_meta_q_reg\[7\]
*506 req_meta_q_reg\[0\]
*507 req_meta_q_reg\[10\]
*508 req_meta_q_reg\[8\]
*509 req_meta_q_reg\[2\]
*510 req_meta_q_reg\[15\]
*511 req_meta_q_reg\[12\]
*512 req_meta_q_reg\[4\]
*513 g7051__5477
*514 req_meta_q_reg\[5\]
*515 req_meta_q_reg\[14\]
*516 req_meta_q_reg\[13\]
*517 req_meta_q_reg\[9\]
*518 req_meta_q_reg\[11\]
*519 req_meta_q_reg\[6\]
*520 reset_release_q_reg\[0\]
*521 req_meta_q_reg\[3\]
*522 req_meta_q_reg\[1\]
*523 g7059
*524 g7070
*525 g7056
*526 g7053
*527 g7060
*528 g7062
*529 g7071
*530 g7054
*531 g7068
*532 g7069
*533 g7066
*534 g7072
*535 g7063
*536 g7057
*537 g7058
*538 g7061
*539 g7055
*540 g7067
*541 g7052
*542 g7064
*543 g7065
*544 g2
*545 g7168


*PORTS

*8 I *C 0 0.095
*9 I *C 0 2.375
*10 I *C 0 42.655
*11 I *C 0 40.185
*12 I *C 0 37.905
*13 I *C 0 35.435
*14 I *C 0 33.155
*15 I *C 0 30.685
*16 I *C 0 28.405
*17 I *C 0 25.935
*18 I *C 0 23.655
*19 I *C 0 21.375
*20 I *C 0 18.905
*21 I *C 0 16.625
*22 I *C 0 14.155
*23 I *C 0 11.875
*24 I *C 0 9.405
*25 I *C 0 7.125
*26 O *C 43.8 8.645
*27 O *C 43.8 10.925
*28 O *C 43.8 13.015
*29 O *C 43.8 15.105
*30 O *C 43.8 17.195
*31 O *C 43.8 19.285
*32 O *C 43.8 21.375
*33 O *C 43.8 23.655
*34 O *C 43.8 25.745
*35 O *C 43.8 27.835
*36 O *C 43.8 29.925
*37 O *C 43.8 32.015
*38 O *C 43.8 34.295
*39 O *C 43.8 36.385
*40 O *C 43.8 38.475
*41 O *C 43.8 40.565
*42 O *C 43.8 0.285
*43 O *C 43.8 2.375
*44 O *C 43.8 4.465
*45 O *C 43.8 6.555
*46 O *C 43.8 42.655
*47 I *C 0 4.655


*D_NET *1 0.000487208

*CONN
*I *283:Y O *C 11.89 5.55 *L 0 *D DLY3X1
*I *486:RN I *C 6.9 7.695 *L 0.000617 *D DFFRHQX1
*I *520:RN I *C 6.7 5.985 *L 0.000617 *D DFFRHQX1

*CAP
1 *283:Y 8.16592e-05
2 *486:RN 6.55661e-05
3 *520:RN 7.98688e-06
4 *1:3 0.000170052051
5 *1:4 0.000161946

*RES
1 *520:RN *1:4 3.34676
2 *1:4 *1:3 5.56917
3 *486:RN *1:4 4.77079
4 *1:3 *283:Y 8.83090496
*END

*D_NET *2 0.000189424

*CONN
*I *285:A I *C 32.1 17.955 *L 0.00021 *D BUFX2
*I *284:Y O *C 30.735 18.42 *L 0 *D BUFX2

*CAP
1 *284:Y 9.47117773e-05
2 *285:A 9.47117773e-05

*RES
1 *285:A *284:Y 14.8907
*END

*D_NET *3 0.00143385

*CONN
*I *285:Y O *C 31.735 18.42 *L 0 *D BUFX2
*I *368:A0N I *C 25.045 12.56 *L 0.000209 *D OAI2BB1X1
*I *384:B I *C 24.165 9.53 *L 0.000212 *D NAND2BXL
*I *375:B I *C 24.565 10.995 *L 0.000392 *D NOR2BX1
*I *377:A I *C 25.1 9.595 *L 0.000392 *D NOR2X1

*CAP
1 *285:Y 1.26375e-05
2 *377:A 5.931e-05
3 *384:B 4.14229e-05
4 *3:5 0.000452277
5 *3:6 0.000522851953
6 *3:7 0.000101092
7 *3:8 0.000118612
8 *3:5 *284:A 0.000125646592

*RES
1 *384:B *3:8 4.26864
2 *375:B *3:7 3.29984
3 *3:8 *3:7 0.431065
4 *3:7 *3:6 1.65339
5 *3:6 *3:5 23.9409218
6 *368:A0N *3:6 6.60005
7 *377:A *3:8 4.58646
8 *3:5 *285:Y 3.57236
*END

*D_NET *4 0.000747561

*CONN
*I *286:Y O *C 23.735 18.42 *L 0 *D BUFX2
*I *374:B0 I *C 26.665 12.785 *L 0.00039 *D OAI2BB1X1
*I *381:AN I *C 23.5 12.825 *L 0.00021 *D NAND2BX1

*CAP
1 *374:B0 0.000145674
2 *286:Y 0.000181913
3 *381:AN 3.96382e-05
4 *4:3 0.000188471
5 *4:4 0.000191867344

*RES
1 *381:AN *4:4 10.3087
2 *4:4 *4:3 3.34671
3 *4:3 *286:Y 14.1686201
4 *374:B0 *4:4 12.206
*END

*D_NET *5 0.0028044

*CONN
*I *358:A I *C 28.5 9.595 *L 0.000211 *D NAND2XL
*I *363:A1 I *C 31.12 9.55 *L 0.000392 *D AOI21X1
*I *334:A0 I *C 33.1 16.625 *L 0.000391 *D AOI21X1
*I *369:A I *C 33.9 9.595 *L 0.000395 *D INVX1
*I *544:A0 I *C 34.7 16.435 *L 0.000211 *D AO21X1
*I *333:A0 I *C 33.1 20.045 *L 0.000391 *D AOI21X1
*I *327:A0 I *C 33.9 10.925 *L 0.000391 *D AOI22X1
*I *331:A0 I *C 32.5 17.575 *L 0.000391 *D AOI21X1
*I *325:B0 I *C 30.995 21.55 *L 0.000393 *D OAI21X1
*I *329:B0 I *C 29.865 21.415 *L 0.00039 *D OAI2BB1X1
*I *328:B0 I *C 31.065 19.625 *L 0.00039 *D OAI2BB1X1
*I *330:A0 I *C 33.5 17.575 *L 0.000391 *D AOI21X1
*I *326:B0 I *C 32.595 19.49 *L 0.000393 *D OAI21X1
*I *287:Y O *C 27.135 8.16 *L 0 *D BUFX2

*CAP
1 *544:A0 2.40229e-05
2 *327:A0 1.1921e-05
3 *369:A 5.28671e-05
4 *330:A0 5.72151e-06
5 *333:A0 2.62874e-05
6 *334:A0 7.6593e-05
7 *363:A1 2.41992e-05
8 *325:B0 8.49966e-05
9 *358:A 5.20365e-05
10 *287:Y 5.55538e-05
11 *5:14 0.000304102891
12 *5:15 0.000254633
13 *5:16 0.000128091
14 *5:17 0.000105502
15 *5:18 7.08112e-05
16 *5:19 0.000160931
17 *5:20 0.000129641
18 *5:21 0.000141919
19 *5:22 9.9776e-05
20 *5:23 0.00016862
21 *5:24 0.000183701
22 *5:25 5.3823e-05
23 *5:26 0.000136138
24 *363:A1 *348:B 8.2969668e-05
25 *5:16 *357:B 9.73939941e-05
26 *5:14 *327:A1 8.58306836e-05
27 *369:A *137:4 9.8109248e-05
28 *544:A0 *544:B0 8.8214873e-05

*RES
1 *5:26 *287:Y 4.36597
2 *5:25 *5:26 3.3492
3 *358:A *5:25 1.75695
4 *5:24 *5:23 2.28124
5 *329:B0 *5:24 6.60005
6 *5:23 *5:22 7.9636
7 *325:B0 *5:24 8.45206
8 *328:B0 *5:23 6.60005
9 *5:21 *5:26 6.77463
10 *363:A1 *5:21 6.98413
11 *5:20 *5:19 1.2365
12 *5:18 *5:20 1.39847
13 *5:22 *5:18 0.0793381
14 *331:A0 *5:20 3.30002
15 *326:B0 *5:18 6.60005
16 *334:A0 *5:17 8.05903
17 *333:A0 *5:22 3.82962
18 *5:16 *5:21 1.73483
19 *5:15 *5:16 4.05867
20 *5:19 *5:14 8.58899
21 *330:A0 *5:19 3.35724
22 *369:A *5:16 7.43968
23 *327:A0 *5:15 3.57588
24 *5:17 *5:14 3.33622
25 *5:14 *5:15 11.9804144
26 *544:A0 *5:17 6.84995
*END

*D_NET *6 0.000983834

*CONN
*I *387:A I *C 22.3 13.015 *L 0.000392 *D NOR2X1
*I *385:B I *C 25.775 12.595 *L 0.000392 *D NOR2X1
*I *288:Y O *C 26.135 21.84 *L 0 *D BUFX2

*CAP
1 *288:Y 3.40929e-05
2 *385:B 1.49604e-05
3 *387:A 0.00011867
4 *6:3 0.000315371
5 *6:4 0.00041490793
6 *6:4 *153:7 8.58306836e-05

*RES
1 *387:A *6:4 9.59146
2 *6:4 *6:3 16.6046619
3 *385:B *6:4 6.78872
4 *6:3 *288:Y 4.00117
*END

*D_NET *7 0.000631452

*CONN
*I *380:A I *C 22.9 9.215 *L 0.000211 *D AND2XL
*I *387:B I *C 22.575 12.595 *L 0.000392 *D NOR2X1
*I *289:Y O *C 21.535 15 *L 0 *D BUFX2

*CAP
1 *380:A 0.000185249
2 *289:Y 0.000130477
3 *7:3 0.000315725801

*RES
1 *7:3 *289:Y 12.1762753
2 *387:B *7:3 3.29991
3 *380:A *7:3 7.46525
*END

*D_NET *8 0.0162207

*CONN
*P *8 I *C 0 0.095 *L 0
*I *522:CK I *C 5.485 9.075 *L 0.00021 *D DFFQXL
*I *521:CK I *C 5.885 14.865 *L 0.00021 *D DFFQXL
*I *520:CK I *C 5.7 5.985 *L 0.00021 *D DFFRHQX1
*I *519:CK I *C 5.685 21.705 *L 0.00021 *D DFFQXL
*I *518:CK I *C 18.085 33.015 *L 0.00021 *D DFFQXL
*I *517:CK I *C 5.485 26.175 *L 0.00021 *D DFFQXL
*I *516:CK I *C 8.685 29.595 *L 0.00021 *D DFFQXL
*I *515:CK I *C 5.485 33.015 *L 0.00021 *D DFFQXL
*I *514:CK I *C 5.685 19.335 *L 0.00021 *D DFFQXL
*I *512:CK I *C 5.685 15.915 *L 0.00021 *D DFFQXL
*I *511:CK I *C 8.685 31.965 *L 0.00021 *D DFFQXL
*I *510:CK I *C 5.485 31.965 *L 0.00021 *D DFFQXL
*I *509:CK I *C 5.685 12.495 *L 0.00021 *D DFFQXL
*I *508:CK I *C 6.885 25.125 *L 0.00021 *D DFFQXL
*I *507:CK I *C 5.485 28.545 *L 0.00021 *D DFFQXL
*I *506:CK I *C 7.485 11.445 *L 0.00021 *D DFFQXL
*I *505:CK I *C 5.685 22.755 *L 0.00021 *D DFFQXL
*I *501:CK I *C 9.075 19.41 *L 0.00021 *D DFFHQX1
*I *500:CK I *C 18.475 31.89 *L 0.00021 *D DFFHQX1
*I *499:CK I *C 10.675 11.37 *L 0.00021 *D DFFHQX1
*I *498:CK I *C 9.475 22.83 *L 0.00021 *D DFFHQX1
*I *497:CK I *C 14.675 29.67 *L 0.00021 *D DFFHQX1
*I *496:CK I *C 15.075 31.89 *L 0.00021 *D DFFHQX1
*I *495:CK I *C 11.875 31.89 *L 0.00021 *D DFFHQX1
*I *494:CK I *C 13.475 26.25 *L 0.00021 *D DFFHQX1
*I *493:CK I *C 9.275 21.63 *L 0.00021 *D DFFHQX1
*I *491:CK I *C 9.075 15.99 *L 0.00021 *D DFFHQX1
*I *490:CK I *C 11.875 28.47 *L 0.00021 *D DFFHQX1
*I *489:CK I *C 9.075 26.25 *L 0.00021 *D DFFHQX1
*I *488:CK I *C 14.675 33.09 *L 0.00021 *D DFFHQX1
*I *487:CK I *C 10.275 25.05 *L 0.00021 *D DFFHQX1
*I *486:CK I *C 5.9 7.695 *L 0.00021 *D DFFRHQX1
*I *485:CK I *C 13.875 11.37 *L 0.00021 *D DFFHQX1
*I *484:CK I *C 11.475 12.57 *L 0.00021 *D DFFHQX1
*I *403:CK I *C 30.485 33.015 *L 0.00021 *D DFFQXL
*I *402:CK I *C 35.285 26.175 *L 0.00021 *D DFFQXL
*I *401:CK I *C 16.685 22.755 *L 0.00021 *D DFFQXL
*I *400:CK I *C 19.685 8.025 *L 0.00021 *D DFFQXL
*I *399:CK I *C 35.485 18.285 *L 0.00021 *D DFFQXL
*I *398:CK I *C 15.485 9.075 *L 0.00021 *D DFFQXL
*I *397:CK I *C 16.885 12.495 *L 0.00021 *D DFFQXL
*I *396:CK I *C 21.685 26.175 *L 0.00021 *D DFFQXL
*I *395:CK I *C 28.885 28.545 *L 0.00021 *D DFFQXL
*I *394:CK I *C 28.885 26.175 *L 0.00021 *D DFFQXL
*I *393:CK I *C 17.285 28.545 *L 0.00021 *D DFFQXL
*I *392:CK I *C 25.085 33.015 *L 0.00021 *D DFFQXL
*I *391:CK I *C 35.485 28.545 *L 0.00021 *D DFFQXL
*I *390:CK I *C 12.285 18.285 *L 0.00021 *D DFFQXL
*I *389:CK I *C 21.685 31.965 *L 0.00021 *D DFFQXL
*I *388:CK I *C 13.485 25.125 *L 0.00021 *D DFFQXL
*I *361:CK I *C 23.075 7.95 *L 0.00021 *D DFFHQX1
*I *344:CK I *C 31.075 7.95 *L 0.00021 *D DFFHQX1
*I *342:CK I *C 34.475 7.95 *L 0.00021 *D DFFHQX1
*I *324:CK I *C 35.875 14.79 *L 0.00021 *D DFFHQX1
*I *306:CK I *C 35.475 9.15 *L 0.00021 *D DFFHQX1
*I *305:CK I *C 34.885 22.755 *L 0.00021 *D DFFQXL
*I *304:CK I *C 34.485 21.705 *L 0.00021 *D DFFQXL
*I *303:CK I *C 24.885 29.595 *L 0.00021 *D DFFQXL
*I *302:CK I *C 25.485 26.175 *L 0.00021 *D DFFQXL
*I *301:CK I *C 16.685 15.915 *L 0.00021 *D DFFQXL
*I *300:CK I *C 19.485 11.445 *L 0.00021 *D DFFQXL
*I *299:CK I *C 11.285 14.865 *L 0.00021 *D DFFQXL
*I *298:CK I *C 18.485 18.285 *L 0.00021 *D DFFQXL
*I *297:CK I *C 30.285 29.595 *L 0.00021 *D DFFQXL
*I *296:CK I *C 32.085 26.175 *L 0.00021 *D DFFQXL
*I *295:CK I *C 25.085 25.125 *L 0.00021 *D DFFQXL
*I *294:CK I *C 21.885 22.755 *L 0.00021 *D DFFQXL
*I *293:CK I *C 19.685 19.335 *L 0.00021 *D DFFQXL
*I *292:CK I *C 12.485 19.335 *L 0.00021 *D DFFQXL
*I *291:CK I *C 21.485 29.595 *L 0.00021 *D DFFQXL
*I *290:CK I *C 17.485 25.125 *L 0.00021 *D DFFQXL

*CAP
1 *324:CK 0.000130057
2 *391:CK 0.000176666
3 *399:CK 1.7346e-05
4 *306:CK 3.72503e-05
5 *402:CK 1.49012e-05
6 *305:CK 3.80274e-05
7 *304:CK 3.20097e-05
8 *342:CK 1.44856e-05
9 *296:CK 1.6272e-05
10 *344:CK 1.38272e-05
11 *403:CK 0.000140905
12 *297:CK 3.46921e-05
13 *395:CK 3.03367e-05
14 *394:CK 1.52574e-05
15 *302:CK 1.40646e-05
16 *392:CK 1.47824e-05
17 *295:CK 2.46158e-05
18 *303:CK 8.768e-05
19 *361:CK 1.37678e-05
20 *294:CK 3.42117e-05
21 *389:CK 3.31971e-05
22 *396:CK 2.8669e-05
23 *291:CK 3.13513e-05
24 *293:CK 3.55826e-05
25 *400:CK 1.8895e-05
26 *300:CK 1.9548e-05
27 *298:CK 1.39459e-05
28 *500:CK 3.00992e-05
29 *518:CK 4.39264e-05
30 *290:CK 4.38076e-05
31 *393:CK 8.47603e-05
32 *397:CK 2.95055e-05
33 *401:CK 9.38758e-05
34 *301:CK 3.63597e-05
35 *398:CK 7.18236e-05
36 *496:CK 1.62127e-05
37 *488:CK 4.29765e-05
38 *497:CK 5.48338e-05
39 *485:CK 1.63314e-05
40 *388:CK 6.26055e-06
41 *494:CK 3.99973e-05
42 *292:CK 5.72084e-06
43 *390:CK 4.19619e-05
44 *495:CK 7.44789e-06
45 *490:CK 7.26979e-06
46 *484:CK 3.82649e-05
47 *299:CK 0.000156703
48 *499:CK 1.62127e-05
49 *487:CK 1.50199e-05
50 *498:CK 4.58369e-05
51 *493:CK 3.06389e-05
52 *489:CK 3.95764e-05
53 *501:CK 1.60939e-05
54 *491:CK 7.00372e-05
55 *511:CK 8.31465e-05
56 *516:CK 0.000118135
57 *506:CK 1.91918e-05
58 *508:CK 6.53256e-05
59 *486:CK 3.147e-05
60 *521:CK 3.64191e-05
61 *520:CK 1.7346e-05
62 *8 0.000269948
63 *512:CK 2.86096e-05
64 *509:CK 3.30784e-05
65 *515:CK 3.9517e-05
66 *510:CK 8.04696e-06
67 *507:CK 6.14181e-06
68 *517:CK 6.67612e-06
69 *522:CK 4.25555e-05
70 *8:72 0.000284671
71 *8:73 7.97518e-05
72 *8:74 0.000243605
73 *8:75 0.00031972
74 *8:76 4.57182e-05
75 *8:77 7.49808e-05
76 *8:78 0.000126301
77 *8:79 0.000173746
78 *8:80 0.000188351
79 *8:81 0.000232936
80 *8:82 4.31546e-05
81 *8:83 0.000168921
82 *8:84 0.000154436
83 *8:85 0.000112177
84 *8:86 0.000110326
85 *8:87 0.000259338
86 *8:88 0.000111162
87 *8:89 3.21878e-05
88 *8:90 0.000194012
89 *8:91 0.000136318
90 *8:92 0.000156643
91 *8:93 0.000266554
92 *8:94 0.000190974
93 *8:95 0.000120937
94 *8:96 0.000123025
95 *8:97 0.000197531
96 *8:98 4.41692e-05
97 *8:99 0.000192285
98 *8:100 0.000183645
99 *8:101 0.000164928
100 *8:102 0.000101092
101 *8:103 5.13203e-05
102 *8:104 0.000154376
103 *8:105 7.78413e-05
104 *8:106 0.000135838
105 *8:107 0.000238478
106 *8:108 0.000207661
107 *8:109 0.000121233
108 *8:110 9.73947e-05
109 *8:111 9.18519e-05
110 *8:112 5.10828e-05
111 *8:113 0.000135244
112 *8:114 6.15099e-05
113 *8:115 0.000154614
114 *8:116 0.000108896
115 *8:117 5.1439e-05
116 *8:118 0.00012404
117 *8:119 0.000161706
118 *8:120 0.000177681
119 *8:121 0.000249801
120 *8:122 8.41612e-05
121 *8:123 4.61931e-05
122 *8:124 0.00010359
123 *8:125 7.33132e-05
124 *8:126 0.000110207
125 *8:127 0.000141861
126 *8:128 0.000154495
127 *8:129 0.000130117
128 *8:130 9.42968e-05
129 *8:131 0.000184476
130 *8:132 0.000129998
131 *8:133 0.000112593
132 *8:134 8.18944e-05
133 *8:135 0.000122669
134 *8:136 0.000128924
135 *8:137 0.00019759
136 *8:138 0.000353693945
137 *8:139 0.000102937
138 *8:140 0.000109673
139 *8:141 9.13716e-05
140 *8:142 0.000174524
141 *8:143 0.000136615
142 *8:144 0.000121476
143 *8:145 0.000173984
144 *8:146 0.000100018
145 *8:147 0.000169574
146 *8:148 9.99583e-05
147 *8:149 0.00012493
148 *8:150 0.000101863
149 *8:151 4.7564e-05
150 *8:147 *106:2 3.15905e-06
151 *8:113 *490:D 0.000116765494
152 *515:CK *101:3 1.37091e-05
153 *511:CK *101:2 5.04255e-05
154 *511:CK *101:3 2.38419e-06
155 *8:111 *101:2 4.54783e-05
156 *8:110 *101:2 6.02007e-06
157 *8:102 *496:D 1.71065e-05
158 *8:102 *101:2 2.85506e-05
159 *518:CK *496:D 3.63597617e-06
160 *8:146 *501:D 1.18613e-05
161 *8:144 *501:D 7.92742e-06
162 *8:130 *501:D 5.29885e-05
163 *8:128 *501:D 5.42402e-06
164 *8:118 *501:D 3.8087424e-05
165 *512:CK *491:D 1.75834e-05
166 *521:CK *491:D 6.55651e-07
167 *491:CK *491:D 7.55787e-05
168 *299:CK *491:D 1.1384453e-05
169 *486:CK *99:9 4.47035e-06
170 *8:90 *99:6 4.52995e-05
171 *8:90 *99:8 3.09944e-06
172 *8:80 *99:5 7.30753e-05
173 *8:80 *99:6 0.000128031
174 *8:78 *99:5 6.56245194e-05
175 *508:CK *489:D 1.93119e-05
176 *8:125 *489:D 2.06232e-05
177 *8:121 *489:D 1.15037e-05
178 *8:119 *489:D 3.08752143e-05
179 *8:132 *499:D 8.46386e-06
180 *506:CK *499:D 1.07288e-06
181 *8:124 *499:D 6.181e-05
182 *8:122 *499:D 1.26362e-05
183 *8:115 *499:D 3.42726713e-05
184 *8:125 *92:3 1.25766e-05
185 *8:119 *92:3 3.14713e-05
186 *8:116 *92:3 2.19941e-05
187 *8:108 *92:3 4.61936e-05
188 *290:CK *92:3 1.3232177e-05
189 *8:120 *88:5 5.66244e-06
190 *8:113 *88:3 4.05312e-05
191 *8:113 *88:5 7.03335e-06
192 *393:CK *88:3 4.20809e-05
193 *291:CK *88:3 7.03335e-06
194 *303:CK *88:3 4.22001e-05
195 *303:CK *88:4 2.97946817e-07
196 *518:CK *87:3 1.12653e-05
197 *500:CK *87:3 1.16825e-05
198 *389:CK *87:3 7.15256e-06
199 *8:87 *87:3 8.04663e-06
200 *403:CK *87:3 5.12003733e-05
201 *8:101 *216:5 1.56164e-05
202 *298:CK *216:5 3.27826e-06
203 *8:97 *216:5 2.92659e-05
204 *8:93 *310:B0 3.48687e-05
205 *8:93 *216:5 2.01463819e-05
206 *8:93 *143:6 5.80549e-05
207 *8:92 *143:6 5.40614e-05
208 *8:91 *143:6 2.49743819e-05
209 *8:90 *282:3 1.18613e-05
210 *8:80 *464:B 2.69413e-05
211 *8:80 *282:3 8.01086667e-05
212 *8:89 *142:5 1.13249e-06
213 *8:88 *142:5 1.09077e-05
214 *295:CK *142:7 4.21405e-05
215 *8:86 *142:5 8.52346e-06
216 *302:CK *142:5 1.13249e-06
217 *302:CK *142:7 1.2517e-06
218 *8:85 *142:4 3.39746e-05
219 *8:85 *142:5 3.15905e-05
220 *8:79 *142:4 7.12275e-05
221 *8:75 *142:4 7.51019e-06
222 *8:74 *142:4 8.14795376e-05
223 *8:80 *136:5 5.82933e-05
224 *8:78 *136:5 4.41074823e-05

*RES
1 *8:151 *8:150 0.500035
2 *522:CK *8:149 10.6285
3 *517:CK *8:148 3.35204
4 *507:CK *8:147 3.35204
5 *510:CK *8:151 3.34669
6 *515:CK *8:151 4.28772
7 *8:146 *8:145 3.84114
8 *8:144 *8:146 1.64054
9 *8:143 *8:144 1.06592
10 *8:142 *8:143 1.99188
11 *8:148 *8:142 0.555676
12 *8:147 *8:148 1.64054
13 *8:150 *8:147 2.56651
14 *8:141 *8:150 3.35714
15 *509:CK *8:140 10.4774
16 *512:CK *8:139 7.15138
17 *514:CK *8:146 3.30004
18 *519:CK *8:144 3.30004
19 *505:CK *8:143 3.30004
20 *8:138 *8 15.435
21 *520:CK *8:138 10.0724
22 *521:CK *8:137 7.01677
23 *8:136 *8:138 4.83902
24 *8:149 *8:136 0.986464
25 *8:135 *8:149 1.62524
26 *8:140 *8:135 0.763416
27 *8:137 *8:134 3.33624
28 *8:134 *8:140 1.62524
29 *8:139 *8:133 3.33624
30 *8:133 *8:134 0.763416
31 *8:145 *8:133 5.84419
32 *486:CK *8:136 13.647
33 *508:CK *8:142 11.3759
34 *8:132 *8:135 4.45513
35 *506:CK *8:132 6.80515
36 *516:CK *8:131 13.144
37 *511:CK *8:141 9.1333
38 *8:130 *8:145 2.3284
39 *491:CK *8:139 12.4066
40 *501:CK *8:130 10.0887
41 *489:CK *8:131 13.7962
42 *493:CK *8:129 13.645
43 *8:128 *8:130 0.362756
44 *8:129 *8:128 4.97217
45 *8:127 *8:129 0.994725
46 *8:126 *8:127 1.70469
47 *8:131 *8:126 0.763416
48 *498:CK *8:127 13.647
49 *8:125 *8:126 4.0015
50 *487:CK *8:125 10.0887
51 *8:124 *8:132 2.47952
52 *499:CK *8:124 10.0877
53 *299:CK *8:137 10.7964
54 *8:123 *8:122 3.34669
55 *8:122 *8:124 0.665256
56 *484:CK *8:123 7.588
57 *490:CK *8:121 6.73979
58 *495:CK *8:120 6.73979
59 *8:119 *8:125 1.42114
60 *8:121 *8:119 5.69015
61 *8:120 *8:121 2.48706
62 *390:CK *8:118 4.38466
63 *8:118 *8:128 5.66464
64 *292:CK *8:118 3.43149
65 *8:117 *8:116 3.33624
66 *8:116 *8:119 1.11888
67 *494:CK *8:117 7.4444
68 *388:CK *8:117 3.43149
69 *8:115 *8:122 1.87477
70 *485:CK *8:115 10.0724
71 *8:114 *8:113 3.35714
72 *8:113 *8:121 5.36238
73 *8:112 *8:111 3.34669
74 *8:111 *8:120 5.38303
75 *497:CK *8:114 7.588
76 *488:CK *8:112 7.588
77 *8:110 *8:111 0.362756
78 *496:CK *8:110 10.0969
79 *398:CK *8:109 8.07491
80 *8:108 *8:116 2.3284
81 *301:CK *8:107 10.4801
82 *401:CK *8:108 15.1466
83 *397:CK *8:106 10.3263
84 *8:109 *8:105 4.82857
85 *8:104 *8:115 2.47952
86 *8:105 *8:104 3.33624
87 *8:106 *8:105 0.763416
88 *8:107 *8:106 2.48706
89 *393:CK *8:113 8.8308
90 *290:CK *8:108 7.59821
91 *8:103 *8:102 3.34669
92 *8:102 *8:110 2.3284
93 *518:CK *8:103 4.28772
94 *8:101 *8:107 6.24485
95 *500:CK *8:102 10.4599
96 *298:CK *8:101 6.78862
97 *8:100 *8:104 1.87477
98 *300:CK *8:100 6.80515
99 *8:99 *8:100 9.3391
100 *8:98 *8:97 3.35714
101 *8:97 *8:101 0.967513
102 *400:CK *8:99 6.85082
103 *293:CK *8:98 4.14436
104 *291:CK *8:96 7.15138
105 *396:CK *8:95 6.9898
106 *389:CK *8:94 10.353
107 *8:93 *8:97 8.35773
108 *8:95 *8:92 3.33624
109 *8:92 *8:93 2.56651
110 *8:96 *8:91 3.33624
111 *8:91 *8:92 2.48706
112 *8:94 *8:91 1.62524
113 *294:CK *8:93 10.309
114 *8:90 *8:99 2.55485
115 *361:CK *8:90 10.0887
116 *303:CK *8:96 9.10657
117 *8:89 *8:88 3.35714
118 *8:88 *8:95 2.47952
119 *8:87 *8:94 6.60008
120 *295:CK *8:89 4.14436
121 *392:CK *8:87 6.77818
122 *8:86 *8:88 0.362756
123 *302:CK *8:86 6.77818
124 *8:85 *8:86 2.63065
125 *394:CK *8:85 6.78085
126 *395:CK *8:84 7.00025
127 *8:83 *8:85 0.211628
128 *8:84 *8:83 8.4729
129 *8:82 *8:81 3.34669
130 *8:81 *8:84 0.967513
131 *297:CK *8:82 4.14436
132 *403:CK *8:87 10.9233
133 *8:80 *8:90 6.10806
134 *344:CK *8:80 10.0887
135 *8:79 *8:83 2.3284
136 *296:CK *8:79 6.78862
137 *8:78 *8:80 2.63065
138 *342:CK *8:78 10.0887
139 *304:CK *8:77 7.15138
140 *8:76 *8:77 3.34669
141 *8:77 *8:75 4.0015
142 *305:CK *8:76 4.14436
143 *8:74 *8:79 2.47952
144 *402:CK *8:74 6.78862
145 *8:73 *8:78 4.16307
146 *306:CK *8:73 7.4444
147 *399:CK *8:72 3.63267
148 *391:CK *8:81 10.7734
149 *8:72 *8:75 2.8537
150 *8:75 *8:74 6.92566
151 *324:CK *8:72 15.9233809
*END

*D_NET *9 0.000629902

*CONN
*I *283:A I *C 10.935 5.775 *L 0.00021 *D DLY3X1
*P *9 I *C 0 2.375 *L 0

*CAP
1 *283:A 9.05998e-05
2 *9 0.000224351
3 *9:2 0.000314950938

*RES
1 *9:2 *9 11.4656687
2 *283:A *9:2 5.84428
*END

*D_NET *10 0.000989199

*CONN
*P *10 I *C 0 42.655 *L 0
*I *510:D I *C 7.97 31.705 *L 0.00021 *D DFFQXL

*CAP
1 *10 0.000446081172
2 *510:D 0.000446081172
3 *510:D *515:D 9.70363574e-05

*RES
1 *510:D *10 21.2507
*END

*D_NET *11 0.000728846

*CONN
*P *11 I *C 0 40.185 *L 0
*I *515:D I *C 7.97 33.275 *L 0.00021 *D DFFQXL

*CAP
1 *11 0.000170054
2 *515:D 0.000145851
3 *11:2 0.000315904609
4 *515:D *510:D 9.70363574e-05

*RES
1 *515:D *11:2 8.45364
2 *11:2 *11 9.35935974
*END

*D_NET *12 0.00101948

*CONN
*P *12 I *C 0 37.905 *L 0
*I *516:D I *C 11.17 29.855 *L 0.00021 *D DFFQXL

*CAP
1 *12 0.000448525
2 *516:D 6.12138e-05
3 *12:2 0.000509738906

*RES
1 *516:D *12:2 4.50961
2 *12:2 *12 17.005682
*END

*D_NET *13 0.00069952

*CONN
*P *13 I *C 0 35.435 *L 0
*I *511:D I *C 11.17 31.705 *L 0.00021 *D DFFQXL

*CAP
1 *13 0.000245513
2 *511:D 0.000104248
3 *13:2 0.000349760039

*RES
1 *511:D *13:2 6.01067
2 *13:2 *13 11.7783546
*END

*D_NET *14 0.00113767

*CONN
*P *14 I *C 0 33.155 *L 0
*I *518:D I *C 20.57 33.275 *L 0.00021 *D DFFQXL

*CAP
1 *518:D 0.000114559
2 *14 0.000107229
3 *14:2 0.000120042
4 *14:3 0.000168264
5 *14:4 0.000270009043
6 *14:3 *102:2 0.000206887715
7 *518:D *496:D 0.000150680547

*RES
1 *14:4 *14 3.90834
2 *14:3 *14:4 9.25275
3 *14:2 *14:3 0.173884
4 *518:D *14:2 9.48059559
*END

*D_NET *15 0.000480294

*CONN
*P *15 I *C 0 30.685 *L 0
*I *507:D I *C 7.97 28.285 *L 0.00021 *D DFFQXL

*CAP
1 *15 0.000182451
2 *507:D 5.76961e-05
3 *15:2 0.000240147109

*RES
1 *507:D *15:2 4.8619
2 *15:2 *15 9.56356525
*END

*D_NET *16 0.000527263

*CONN
*P *16 I *C 0 28.405 *L 0
*I *517:D I *C 7.97 26.435 *L 0.00021 *D DFFQXL

*CAP
1 *16 0.000214397
2 *517:D 4.92345e-05
3 *16:2 0.000263631348

*RES
1 *517:D *16:2 4.29492
2 *16:2 *16 10.2286339
*END

*D_NET *17 0.000597477

*CONN
*P *17 I *C 0 25.935 *L 0
*I *508:D I *C 9.37 24.865 *L 0.00021 *D DFFQXL

*CAP
1 *17 0.000298738477
2 *508:D 0.000298738477

*RES
1 *508:D *17 14.8573
*END

*D_NET *18 0.000478983

*CONN
*P *18 I *C 0 23.655 *L 0
*I *505:D I *C 8.17 23.015 *L 0.00021 *D DFFQXL

*CAP
1 *18 0.000239491465
2 *505:D 0.000239491465

*RES
1 *505:D *18 13.2385
*END

*D_NET *19 0.000398397

*CONN
*P *19 I *C 0 21.375 *L 0
*I *519:D I *C 8.17 21.445 *L 0.00021 *D DFFQXL

*CAP
1 *519:D 0.00019919873
2 *19 0.00019919873

*RES
1 *519:D *19 13.0033
*END

*D_NET *20 0.00049293

*CONN
*P *20 I *C 0 18.905 *L 0
*I *514:D I *C 8.17 19.595 *L 0.00021 *D DFFQXL

*CAP
1 *20 0.000246465215
2 *514:D 0.000246465215

*RES
1 *514:D *20 13.8491
*END

*D_NET *21 0.000438333

*CONN
*P *21 I *C 0 16.625 *L 0
*I *512:D I *C 8.17 16.175 *L 0.00021 *D DFFQXL

*CAP
1 *21 0.00021916627
2 *512:D 0.00021916627

*RES
1 *512:D *21 13.4428
*END

*D_NET *22 0.000436783

*CONN
*P *22 I *C 0 14.155 *L 0
*I *521:D I *C 8.37 14.605 *L 0.00021 *D DFFQXL

*CAP
1 *22 0.000218391426
2 *521:D 0.000218391426

*RES
1 *521:D *22 13.2407
*END

*D_NET *23 0.000514746

*CONN
*P *23 I *C 0 11.875 *L 0
*I *509:D I *C 8.17 12.755 *L 0.00021 *D DFFQXL

*CAP
1 *23 0.000257372852
2 *509:D 0.000257372852

*RES
1 *509:D *23 14.1741
*END

*D_NET *24 0.000391483

*CONN
*P *24 I *C 0 9.405 *L 0
*I *522:D I *C 7.97 9.335 *L 0.00021 *D DFFQXL

*CAP
1 *522:D 0.00019574166
2 *24 0.00019574166

*RES
1 *522:D *24 12.7614
*END

*D_NET *25 0.000780106

*CONN
*P *25 I *C 0 7.125 *L 0
*I *506:D I *C 9.97 11.185 *L 0.00021 *D DFFQXL

*CAP
1 *25 0.000270725
2 *506:D 0.000119328
3 *25:2 0.000390052813

*RES
1 *506:D *25:2 6.44385
2 *25:2 *25 11.0951662
*END

*D_NET *26 0.000335217

*CONN
*P *26 O *C 43.8 8.645 *L 0
*I *451:Y O *C 38.725 9.115 *L 0 *D NOR2XL

*CAP
1 *451:Y 0.000167608262
2 *26 0.000167608262

*RES
1 *26 *451:Y 12.9168
*END

*D_NET *27 0.000286102

*CONN
*P *27 O *C 43.8 10.925 *L 0
*I *432:Y O *C 38.725 11.405 *L 0 *D NOR2XL

*CAP
1 *27 6.63992e-05
2 *432:Y 7.66519e-05
3 *27:2 0.000143051152

*RES
1 *27:2 *432:Y 9.25636292
2 *27 *27:2 2.22243
*END

*D_NET *28 0.000289917

*CONN
*P *28 O *C 43.8 13.015 *L 0
*I *430:Y O *C 38.725 12.535 *L 0 *D NOR2XL

*CAP
1 *28 6.11553e-05
2 *430:Y 8.38032e-05
3 *28:2 0.000144958496

*RES
1 *28:2 *430:Y 9.50205326
2 *28 *28:2 2.07132
*END

*D_NET *29 0.000335932

*CONN
*P *29 O *C 43.8 15.105 *L 0
*I *435:Y O *C 38.525 15.955 *L 0 *D NOR2XL

*CAP
1 *29 0.000123918
2 *435:Y 4.40476e-05
3 *29:2 0.000167965898

*RES
1 *29:2 *435:Y 7.35831261
2 *29 *29:2 4.03676
*END

*D_NET *30 0.000444531

*CONN
*P *30 O *C 43.8 17.195 *L 0
*I *434:Y O *C 38.125 19.375 *L 0 *D NOR2XL

*CAP
1 *434:Y 0.000222265723
2 *30 0.000222265723

*RES
1 *30 *434:Y 12.8174
*END

*D_NET *31 0.000357747

*CONN
*P *31 O *C 43.8 19.285 *L 0
*I *436:Y O *C 38.525 21.665 *L 0 *D NOR2XL

*CAP
1 *31 9.94797e-05
2 *436:Y 7.93938e-05
3 *31:2 0.000178873535

*RES
1 *31:2 *436:Y 8.77296925
2 *31 *31:2 3.43203
*END

*D_NET *32 0.000382543

*CONN
*P *32 O *C 43.8 21.375 *L 0
*I *433:Y O *C 38.725 19.375 *L 0 *D NOR2XL

*CAP
1 *32 3.0517e-05
2 *433:Y 0.000160754
3 *32:2 0.000191271309

*RES
1 *32:2 *433:Y 12.1718645
2 *32 *32:2 1.01296
*END

*D_NET *33 0.000445366

*CONN
*P *33 O *C 43.8 23.655 *L 0
*I *457:Y O *C 38.125 25.085 *L 0 *D NOR2XL

*CAP
1 *33 0.000139534
2 *457:Y 3.46907e-05
3 *33:2 0.000174224375
4 *33:2 *152:35 9.69171484e-05

*RES
1 *33:2 *457:Y 7.71260262
2 *33 *33:2 4.25973
*END

*D_NET *34 0.000341535

*CONN
*P *34 O *C 43.8 25.745 *L 0
*I *449:Y O *C 38.725 25.085 *L 0 *D NOR2XL

*CAP
1 *449:Y 0.000170767305
2 *34 0.000170767305

*RES
1 *34 *449:Y 13.0605
*END

*D_NET *35 0.000294805

*CONN
*P *35 O *C 43.8 27.835 *L 0
*I *453:Y O *C 38.725 26.215 *L 0 *D NOR2XL

*CAP
1 *35 0.000102818
2 *453:Y 4.45839e-05
3 *35:2 0.000147402285

*RES
1 *35:2 *453:Y 7.70699978
2 *35 *35:2 3.58314
*END

*D_NET *36 0.000240684

*CONN
*P *36 O *C 43.8 29.925 *L 0
*I *431:Y O *C 38.725 29.635 *L 0 *D NOR2XL

*CAP
1 *36 9.8466e-05
2 *431:Y 2.18758e-05
3 *36:2 0.000120341777

*RES
1 *36:2 *431:Y 6.98888302
2 *36 *36:2 3.58317
*END

*D_NET *37 0.000332117

*CONN
*P *37 O *C 43.8 32.015 *L 0
*I *456:Y O *C 37.125 31.925 *L 0 *D NOR2XL

*CAP
1 *37 0.000151514
2 *456:Y 1.45445e-05
3 *37:2 0.000166058535

*RES
1 *37:2 *456:Y 6.78861141
2 *37 *37:2 5.09508
*END

*D_NET *38 0.000626326

*CONN
*P *38 O *C 43.8 34.295 *L 0
*I *450:Y O *C 38.125 29.635 *L 0 *D NOR2XL

*CAP
1 *450:Y 0.000313162813
2 *38 0.000313162813

*RES
1 *38 *450:Y 15.2881
*END

*D_NET *39 0.000556827

*CONN
*P *39 O *C 43.8 36.385 *L 0
*I *452:Y O *C 37.725 31.925 *L 0 *D NOR2XL

*CAP
1 *39 0.000131429
2 *452:Y 2.21122e-05
3 *39:2 0.00025629998
4 *39:3 0.000146987

*RES
1 *39:3 *452:Y 3.79131
2 *39:2 *39:3 6.74760342
3 *39 *39:2 4.64155
*END

*D_NET *40 0.000757098

*CONN
*P *40 O *C 43.8 38.475 *L 0
*I *448:Y O *C 35.925 31.925 *L 0 *D NOR2XL

*CAP
1 *40 0.000165878
2 *448:Y 2.22936e-05
3 *40:2 0.000356256953
4 *40:3 0.000212667

*RES
1 *40:3 *448:Y 3.79131
2 *40:2 *40:3 8.32748413
3 *40 *40:2 6.00215
*END

*D_NET *41 0.00082612

*CONN
*P *41 O *C 43.8 40.565 *L 0
*I *455:Y O *C 36.525 31.925 *L 0 *D NOR2XL

*CAP
1 *41 0.000148652
2 *455:Y 0.000216009
3 *41:2 0.000364661211
4 *41:2 *455:B 9.67979395e-05

*RES
1 *41:2 *455:Y 13.2454634
2 *41 *41:2 5.54852
*END

*D_NET *42 0.0017184

*CONN
*P *42 O *C 43.8 0.285 *L 0
*I *534:A I *C 29.3 10.925 *L 0.000395 *D INVX1
*I *513:A I *C 29.5 12.825 *L 0.00039 *D NAND2X1
*I *504:A I *C 30.1 12.825 *L 0.00039 *D NAND2X1
*I *359:B0 I *C 31.965 12.945 *L 0.000389 *D AOI22X1
*I *348:A I *C 29.7 9.405 *L 0.000209 *D MX2XL
*I *344:Q O *C 30.74 7.57 *L 0 *D DFFHQX1

*CAP
1 *42 0.000276209
2 *359:B0 6.78298e-05
3 *344:Q 0.000189367
4 *504:A 1.2455e-05
5 *513:A 8.52513e-06
6 *534:A 3.6118e-05
7 *42:7 0.000459074961
8 *42:8 9.42317e-05
9 *42:9 9.26836e-05
10 *42:10 9.11985e-05
11 *42:11 0.000115751
12 *42:12 0.000134406
13 *359:B0 *64:10 0.000140547754

*RES
1 *534:A *42:12 4.24162
2 *42:12 *42:11 0.680319
3 *42:10 *42:12 2.07507
4 *513:A *42:10 3.35715
5 *42:11 *42:9 4.87749
6 *348:A *42:11 6.59996
7 *42:8 *42:10 0.287324
8 *504:A *42:8 3.40196
9 *42:9 *344:Q 0.239559
10 *42:7 *344:Q 12.0860338
11 *359:B0 *42:8 11.5566
12 *42 *42:7 9.93314
*END

*D_NET *43 0.00180352

*CONN
*P *43 O *C 43.8 2.375 *L 0
*I *481:Y O *C 28.955 12.78 *L 0 *D NAND2X1
*I *384:AN I *C 24.54 9.14 *L 0.00021 *D NAND2BXL
*I *379:B I *C 26.965 10.99 *L 0.000212 *D NAND2BXL
*I *378:A I *C 27.3 12.825 *L 0.00039 *D NAND2X1

*CAP
1 *43 0.000301186
2 *481:Y 4.42273e-05
3 *378:A 6.30003e-05
4 *379:B 1.10827e-05
5 *384:AN 0.000138942
6 *43:5 5.12027e-05
7 *43:6 0.000520646563
8 *43:7 0.000305476
9 *43:8 0.000179889
10 *43:9 0.000187873

*RES
1 *384:AN *43:9 12.7835
2 *379:B *43:9 3.61914
3 *43:9 *43:8 0.978857
4 *43:8 *43:7 4.45524
5 *378:A *43:8 4.29489
6 *43:6 *43:7 13.5595798
7 *43:5 *481:Y 4.00109
8 *43:7 *43:5 3.3572
9 *43 *43:6 11.4148
*END

*D_NET *44 0.00067389

*CONN
*P *44 O *C 43.8 4.465 *L 0
*I *483:Y O *C 36.995 10.77 *L 0 *D OAI22XL

*CAP
1 *44 0.000141858
2 *483:Y 0.000195087
3 *44:2 0.000336945039

*RES
1 *44:2 *483:Y 11.5571022
2 *44 *44:2 5.0952
*END

*D_NET *45 0.000747919

*CONN
*P *45 O *C 43.8 6.555 *L 0
*I *492:Y O *C 35.795 10.77 *L 0 *D OAI22XL

*CAP
1 *45 0.000202298
2 *492:Y 0.000171661
3 *45:2 0.000373959531

*RES
1 *45:2 *492:Y 10.2412701
2 *45 *45:2 6.15342
*END

*D_NET *46 0.000836849

*CONN
*P *46 O *C 43.8 42.655 *L 0
*I *454:Y O *C 34.1 33.725 *L 0 *D INVXL

*CAP
1 *46 0.000202001
2 *454:Y 0.000216424
3 *46:2 0.000418424609

*RES
1 *46:2 *454:Y 13.3891106
2 *46 *46:2 7.36303
*END

*D_NET *47 0.00154757

*CONN
*P *47 I *C 0 4.655 *L 0
*I *533:A I *C 25.1 6.175 *L 0.000395 *D INVX1
*I *366:A0 I *C 29.54 7.76 *L 0.000789 *D OAI21X2

*CAP
1 *366:A0 8.97676e-05
2 *533:A 3.02185e-05
3 *47 0.000488524
4 *47:3 0.000207898
5 *47:4 7.7367e-05
6 *47:5 0.000653803359

*RES
1 *47:5 *47 18.0972824
2 *47:4 *47:5 7.75464
3 *533:A *47:4 1.22248
4 *47:3 *47:5 7.33821
5 *366:A0 *47:3 5.55682
*END

*D_NET *48 0.000376821

*CONN
*I *439:B0 I *C 32.6 24.6 *L 0.000392 *D AOI21X1
*I *420:A0 I *C 33.76 24.93 *L 0.000212 *D AOI211XL
*I *305:Q O *C 34.5 23.275 *L 0 *D DFFQXL

*CAP
1 *305:Q 1.16234e-05
2 *439:B0 6.41939e-05
3 *48:3 6.10949e-05
4 *48:4 6.29425e-05
5 *48:5 7.76648535e-05
6 *48:4 *420:A1 9.93013379e-05

*RES
1 *439:B0 *48:5 7.72678852
2 *48:4 *48:3 4.6004
3 *48:5 *48:4 3.35713
4 *420:A0 *48:4 3.29994
5 *48:3 *305:Q 0.485282
*END

*D_NET *49 0.000307083

*CONN
*I *447:B0 I *C 35 19.86 *L 0.000392 *D AOI21X1
*I *419:A0 I *C 36.16 19.53 *L 0.000212 *D AOI211XL
*I *304:Q O *C 34.1 21.185 *L 0 *D DFFQXL

*CAP
1 *419:A0 6.83075e-05
2 *447:B0 2.68226e-05
3 *304:Q 3.72528e-05
4 *49:3 0.000116288662
5 *49:4 5.84132e-05

*RES
1 *49:4 *304:Q 4.07869
2 *49:3 *49:4 0.498867
3 *447:B0 *49:3 3.5915
4 *419:A0 *49:3 11.2543106
*END

*D_NET *50 0.000544548

*CONN
*I *462:B0 I *C 28.4 30.12 *L 0.000392 *D AOI21X1
*I *414:A0 I *C 26.36 31.77 *L 0.000212 *D AOI211XL
*I *303:Q O *C 24.5 30.115 *L 0 *D DFFQXL

*CAP
1 *462:B0 0.000175296
2 *414:A0 2.96246e-05
3 *303:Q 4.44646e-05
4 *50:3 5.25104e-05
5 *50:4 0.000242650508

*RES
1 *50:4 *303:Q 4.38859
2 *50:3 *50:4 3.76918
3 *414:A0 *50:3 1.22263
4 *462:B0 *50:4 13.9447451
*END

*D_NET *51 0.000230908

*CONN
*I *438:B0 I *C 25.6 28.02 *L 0.000392 *D AOI21X1
*I *417:A0 I *C 26.56 28.35 *L 0.000212 *D AOI211XL
*I *302:Q O *C 25.1 26.695 *L 0 *D DFFQXL

*CAP
1 *417:A0 4.822e-05
2 *438:B0 2.14577e-05
3 *302:Q 4.57765e-05
4 *51:3 0.000115454199

*RES
1 *51:3 *302:Q 4.3818
2 *438:B0 *51:3 3.60489
3 *417:A0 *51:3 4.41324711
*END

*D_NET *52 0.000359535

*CONN
*I *440:B0 I *C 18.8 14.34 *L 0.000392 *D AOI21X1
*I *416:A0 I *C 17.16 14.67 *L 0.000212 *D AOI211XL
*I *301:Q O *C 16.3 16.435 *L 0 *D DFFQXL

*CAP
1 *440:B0 8.27309e-05
2 *301:Q 2.6107e-05
3 *52:3 9.00626172e-05
4 *52:4 7.09301e-05
5 *52:5 8.97053e-05

*RES
1 *52:5 *301:Q 3.85802
2 *52:4 *52:5 7.61568
3 *52:3 *52:4 3.34685
4 *416:A0 *52:4 3.30001
5 *440:B0 *52:3 7.97247887
*END

*D_NET *53 0.000214219

*CONN
*I *459:B0 I *C 19.4 9.6 *L 0.000392 *D AOI21X1
*I *415:A0 I *C 20.16 9.27 *L 0.000212 *D AOI211XL
*I *300:Q O *C 19.1 10.925 *L 0 *D DFFQXL

*CAP
1 *415:A0 4.64313e-05
2 *459:B0 2.00866e-05
3 *300:Q 4.059e-05
4 *53:3 0.000107109551

*RES
1 *53:3 *300:Q 4.3205
2 *459:B0 *53:3 3.64766
3 *415:A0 *53:3 4.43208218
*END

*D_NET *54 0.000383615

*CONN
*I *445:B0 I *C 15.2 14.34 *L 0.000392 *D AOI21X1
*I *418:A0 I *C 15.96 14.67 *L 0.000212 *D AOI211XL
*I *299:Q O *C 10.9 14.345 *L 0 *D DFFQXL

*CAP
1 *418:A0 2.69997e-05
2 *299:Q 0.000164808
3 *54:3 0.000191807754

*RES
1 *54:3 *299:Q 13.8111115
2 *445:B0 *54:3 3.29999
3 *418:A0 *54:3 3.83864
*END

*D_NET *55 0.000309587

*CONN
*I *437:B0 I *C 17.2 17.76 *L 0.000392 *D AOI21X1
*I *428:A0 I *C 15.56 18.09 *L 0.000212 *D AOI211XL
*I *298:Q O *C 18.1 17.765 *L 0 *D DFFQXL

*CAP
1 *298:Q 1.2518e-05
2 *437:B0 2.04443e-05
3 *428:A0 7.86183e-05
4 *55:3 5.57295e-05
5 *55:4 0.000142276289

*RES
1 *428:A0 *55:4 8.07499886
2 *55:4 *55:3 7.31908
3 *437:B0 *55:4 6.75919
4 *55:3 *298:Q 0.41166
*END

*D_NET *56 0.000240684

*CONN
*I *444:B0 I *C 30.4 31.44 *L 0.000392 *D AOI21X1
*I *427:A0 I *C 31.56 31.77 *L 0.000212 *D AOI211XL
*I *297:Q O *C 29.9 30.115 *L 0 *D DFFQXL

*CAP
1 *427:A0 4.72075e-05
2 *444:B0 2.37819e-05
3 *297:Q 4.93523e-05
4 *56:3 0.000120341777

*RES
1 *56:3 *297:Q 4.41244
2 *444:B0 *56:3 3.62633
3 *427:A0 *56:3 4.6287775
*END

*D_NET *57 0.000342846

*CONN
*I *463:B0 I *C 32.8 28.02 *L 0.000392 *D AOI21X1
*I *425:A0 I *C 33.76 28.35 *L 0.000212 *D AOI211XL
*I *296:Q O *C 31.7 26.695 *L 0 *D DFFQXL

*CAP
1 *425:A0 8.01099e-05
2 *463:B0 1.99084e-05
3 *296:Q 7.14073e-05
4 *57:3 0.000171422949

*RES
1 *57:3 *296:Q 4.83522
2 *463:B0 *57:3 3.60488
3 *425:A0 *57:3 4.92525101
*END

*D_NET *58 0.000368953

*CONN
*I *461:B0 I *C 28.6 24.6 *L 0.000392 *D AOI21X1
*I *422:A0 I *C 29.16 24.93 *L 0.000212 *D AOI211XL
*I *295:Q O *C 24.7 24.605 *L 0 *D DFFQXL

*CAP
1 *422:A0 3.24843e-05
2 *461:B0 2.33048e-05
3 *295:Q 0.000128687
4 *58:3 0.000184476367

*RES
1 *58:3 *295:Q 9.71126556
2 *461:B0 *58:3 6.80423
3 *422:A0 *58:3 7.2959
*END

*D_NET *59 0.00031817

*CONN
*I *443:B0 I *C 21.4 24.6 *L 0.000392 *D AOI21X1
*I *424:A0 I *C 23.16 24.93 *L 0.000212 *D AOI211XL
*I *294:Q O *C 21.5 23.275 *L 0 *D DFFQXL

*CAP
1 *424:A0 3.46311e-05
2 *294:Q 1.37093e-05
3 *443:B0 5.63259e-05
4 *59:3 8.90485e-05
5 *59:4 0.000124454502

*RES
1 *443:B0 *59:4 4.29036
2 *59:4 *294:Q 3.59032
3 *59:3 *59:4 4.39655781
4 *424:A0 *59:3 1.22258
*END

*D_NET *60 0.000330925

*CONN
*I *442:B0 I *C 18.4 19.86 *L 0.000392 *D AOI21X1
*I *423:A0 I *C 17.76 21.51 *L 0.000212 *D AOI211XL
*I *293:Q O *C 19.3 19.855 *L 0 *D DFFQXL

*CAP
1 *293:Q 6.91358e-06
2 *442:B0 3.29018e-05
3 *423:A0 8.35056e-05
4 *60:3 8.19564e-05
5 *60:4 0.000125646592

*RES
1 *423:A0 *60:4 8.07499886
2 *442:B0 *60:3 3.99166
3 *60:3 *293:Q 3.34676
4 *60:4 *60:3 4.26421
*END

*D_NET *61 0.000499845

*CONN
*I *446:B0 I *C 16.2 21.18 *L 0.000392 *D AOI21X1
*I *426:A0 I *C 14.56 21.51 *L 0.000212 *D AOI211XL
*I *292:Q O *C 12.1 19.855 *L 0 *D DFFQXL

*CAP
1 *446:B0 8.21367e-05
2 *426:A0 3.42115e-05
3 *292:Q 0.000133574
4 *61:3 0.000249922285

*RES
1 *61:3 *292:Q 10.0525618
2 *426:A0 *61:3 6.84042
3 *446:B0 *61:3 7.9568
*END

*D_NET *62 0.000249982

*CONN
*I *460:B0 I *C 21.4 28.02 *L 0.000392 *D AOI21X1
*I *429:A0 I *C 23.16 28.35 *L 0.000212 *D AOI211XL
*I *291:Q O *C 21.1 30.115 *L 0 *D DFFQXL

*CAP
1 *429:A0 4.12462e-05
2 *291:Q 3.35577e-05
3 *62:3 5.96044e-05
4 *62:4 5.01869e-05
5 *62:5 6.53862939e-05

*RES
1 *62:5 *291:Q 4.04906273
2 *62:4 *62:5 0.559452
3 *460:B0 *62:4 3.29993
4 *62:3 *62:4 3.59903
5 *429:A0 *62:3 1.46829
*END

*D_NET *63 0.000405073

*CONN
*I *441:B0 I *C 20.2 26.7 *L 0.000392 *D AOI21X1
*I *421:A0 I *C 17.56 26.37 *L 0.000212 *D AOI211XL
*I *290:Q O *C 17.1 24.605 *L 0 *D DFFQXL

*CAP
1 *441:B0 0.00010389
2 *421:A0 3.09354e-05
3 *290:Q 2.0981e-05
4 *63:3 0.000155806543
5 *441:B0 *144:8 9.34600781e-05

*RES
1 *63:3 *290:Q 3.71498
2 *421:A0 *63:3 4.07312
3 *441:B0 *63:3 12.8817558
*END

*D_NET *64 0.0020535

*CONN
*I *543:A I *C 36.1 13.015 *L 0.000395 *D INVX1
*I *513:B I *C 29.7 13.205 *L 0.000392 *D NAND2X1
*I *503:A I *C 28.3 11.115 *L 0.00039 *D NAND2X1
*I *483:A0 I *C 36.3 10.925 *L 0.000212 *D OAI22XL
*I *385:A I *C 25.5 13.015 *L 0.000392 *D NOR2X1
*I *367:B0 I *C 23.7 11.115 *L 0.000392 *D OAI22X1
*I *342:Q O *C 34.14 7.57 *L 0 *D DFFHQX1

*CAP
1 *483:A0 7.86173e-05
2 *342:Q 2.01486e-05
3 *513:B 2.83702e-05
4 *503:A 2.12791e-05
5 *385:A 0.000107171
6 *367:B0 8.89283e-05
7 *64:7 0.000153127
8 *64:8 0.000181017
9 *64:9 0.000387907031
10 *64:10 0.000267625
11 *64:11 0.000204327
12 *64:12 0.00029242
13 *64:10 *173:6 8.20159961e-05
14 *64:10 *359:B0 0.000140547754

*RES
1 *367:B0 *64:12 8.22628
2 *64:12 *64:11 2.17705
3 *385:A *64:12 18.5896149
4 *64:11 *64:10 5.35257
5 *503:A *64:11 6.75922
6 *64:10 *64:9 7.5699
7 *513:B *64:10 3.84239
8 *64:8 *342:Q 3.71503
9 *64:9 *64:8 13.6217
10 *64:7 *64:9 4.90978
11 *543:A *64:7 3.30004
12 *483:A0 *64:7 4.84993
*END

*D_NET *65 0.000846386

*CONN
*I *542:A I *C 37.1 13.015 *L 0.000395 *D INVX1
*I *492:A0 I *C 35.1 10.925 *L 0.000212 *D OAI22XL
*I *483:B0 I *C 37.1 10.925 *L 0.000212 *D OAI22XL
*I *376:B1 I *C 32.9 13.015 *L 0.000209 *D AO22XL
*I *332:A0N I *C 35.045 14.8 *L 0.000209 *D OAI2BB1X1
*I *324:Q O *C 35.54 14.41 *L 0 *D DFFHQX1

*CAP
1 *542:A 3.08746e-05
2 *483:B0 2.88484e-05
3 *324:Q 2.31868e-05
4 *492:A0 3.70736e-05
5 *332:A0N 1.34698e-05
6 *376:B1 0.000116289
7 *65:6 0.000140548
8 *65:7 0.0001297
9 *65:8 0.000123977
10 *65:9 0.000202417383

*RES
1 *376:B1 *65:9 8.77046585
2 *332:A0N *65:8 6.80027
3 *492:A0 *65:7 3.83347
4 *65:7 *65:8 1.93139
5 *65:9 *65:7 3.3363
6 *65:8 *324:Q 3.70446
7 *483:B0 *65:6 3.82557
8 *65:6 *65:9 4.90863
9 *542:A *65:6 4.00115
*END

*D_NET *66 0.000720859

*CONN
*I *535:A I *C 35.5 13.015 *L 0.000395 *D INVX1
*I *492:B0 I *C 35.9 10.925 *L 0.000212 *D OAI22XL
*I *376:B0 I *C 33.34 12.45 *L 0.00021 *D AO22XL
*I *327:B0 I *C 34.765 10.995 *L 0.000389 *D AOI22X1
*I *306:Q O *C 35.14 9.53 *L 0 *D DFFHQX1

*CAP
1 *492:B0 6.77097e-05
2 *535:A 4.48817e-05
3 *306:Q 2.90882e-05
4 *376:B0 9.73933e-05
5 *66:5 0.000134886
6 *66:6 0.000121354
7 *66:7 0.000225543984

*RES
1 *376:B0 *66:7 7.87787
2 *327:B0 *66:6 3.29997
3 *66:6 *66:5 0.619861
4 *66:7 *66:6 4.77456
5 *66:5 *306:Q 4.00107
6 *535:A *66:7 7.446
7 *492:B0 *66:5 10.9319687
*END

*D_NET *67 0.00017488

*CONN
*I *529:A I *C 35.7 24.605 *L 0.000395 *D INVX1
*I *402:Q O *C 34.9 26.695 *L 0 *D DFFQXL

*CAP
1 *529:A 4.56567e-05
2 *402:Q 4.17833e-05
3 *67:2 8.74400098e-05

*RES
1 *67:2 *402:Q 4.07863
2 *529:A *67:2 4.42552567
*END

*D_NET *68 0.000263691

*CONN
*I *528:A I *C 38.3 17.765 *L 0.000395 *D INVX1
*I *399:Q O *C 35.1 17.765 *L 0 *D DFFQXL

*CAP
1 *528:A 0.000106573
2 *399:Q 2.52726e-05
3 *68:2 0.000131845479

*RES
1 *68:2 *399:Q 6.84988
2 *528:A *68:2 9.32943821
*END

*D_NET *69 0.000288725

*CONN
*I *527:A I *C 28.3 33.535 *L 0.000395 *D INVX1
*I *392:Q O *C 24.7 33.535 *L 0 *D DFFQXL

*CAP
1 *527:A 0.000125885
2 *392:Q 1.84773e-05
3 *69:2 0.000144362451

*RES
1 *69:2 *392:Q 6.80503
2 *527:A *69:2 9.58693027
*END

*D_NET *70 5.71012e-05

*CONN
*I *536:A I *C 28.1 28.025 *L 0.000395 *D INVX1
*I *395:Q O *C 28.5 28.025 *L 0 *D DFFQXL

*CAP
1 *536:A 1.09075e-05
2 *395:Q 1.76431e-05
3 *70:2 2.8550625e-05

*RES
1 *70:2 *395:Q 3.64398956
2 *536:A *70:2 3.40201
*END

*D_NET *71 0.000334382

*CONN
*I *531:A I *C 20.1 13.015 *L 0.000395 *D INVX1
*I *397:Q O *C 16.5 13.015 *L 0 *D DFFQXL

*CAP
1 *397:Q 0.000167191035
2 *531:A 0.000167191035

*RES
1 *531:A *397:Q 16.8606
*END

*D_NET *72 6.04391e-05

*CONN
*I *537:A I *C 18.5 7.505 *L 0.000395 *D INVX1
*I *400:Q O *C 19.3 7.505 *L 0 *D DFFQXL

*CAP
1 *400:Q 6.01993e-06
2 *537:A 2.41996e-05
3 *72:2 3.02195557e-05

*RES
1 *537:A *72:2 6.95621967
2 *72:2 *400:Q 0.239566
*END

*D_NET *73 0.000241756

*CONN
*I *539:A I *C 15.7 13.015 *L 0.000395 *D INVX1
*I *398:Q O *C 15.1 9.595 *L 0 *D DFFQXL

*CAP
1 *398:Q 0.000120878223
2 *539:A 0.000120878223

*RES
1 *539:A *398:Q 9.70948
*END

*D_NET *74 0.000238776

*CONN
*I *523:A I *C 14.5 16.435 *L 0.000395 *D INVX1
*I *390:Q O *C 11.9 17.765 *L 0 *D DFFQXL

*CAP
1 *523:A 6.83667e-05
2 *390:Q 2.44377e-05
3 *74:2 9.49501953e-05
4 *74:3 5.10211e-05

*RES
1 *74:3 *390:Q 3.90565
2 *74:2 *74:3 3.94022465
3 *523:A *74:2 2.697
*END

*D_NET *75 0.000269532

*CONN
*I *526:A I *C 33.5 33.535 *L 0.000395 *D INVX1
*I *403:Q O *C 30.1 33.535 *L 0 *D DFFQXL

*CAP
1 *526:A 0.00011617
2 *403:Q 1.8596e-05
3 *75:2 0.000134766104

*RES
1 *75:2 *403:Q 6.80506
2 *526:A *75:2 9.43565369
*END

*D_NET *76 0.000110388

*CONN
*I *540:A I *C 35.1 30.115 *L 0.000395 *D INVX1
*I *391:Q O *C 35.1 28.025 *L 0 *D DFFQXL

*CAP
1 *540:A 5.51939014e-05
2 *76:2 5.51939014e-05

*RES
1 *76:2 *391:Q 3.29995
2 *540:A *76:2 4.50956821
*END

*D_NET *77 0.000303507

*CONN
*I *538:A I *C 30.9 24.605 *L 0.000395 *D INVX1
*I *394:Q O *C 28.5 26.695 *L 0 *D DFFQXL

*CAP
1 *538:A 0.000137151
2 *394:Q 1.46022e-05
3 *77:2 0.000151753428

*RES
1 *77:2 *394:Q 3.57246
2 *538:A *77:2 12.7310753
*END

*D_NET *78 0.000310898

*CONN
*I *532:A I *C 24.5 26.695 *L 0.000395 *D INVX1
*I *396:Q O *C 21.3 26.695 *L 0 *D DFFQXL

*CAP
1 *396:Q 0.000155448916
2 *532:A 0.000155448916

*RES
1 *532:A *396:Q 16.8074
*END

*D_NET *79 0.000285387

*CONN
*I *525:A I *C 19.7 23.275 *L 0.000395 *D INVX1
*I *401:Q O *C 16.3 23.275 *L 0 *D DFFQXL

*CAP
1 *401:Q 0.000142693516
2 *525:A 0.000142693516

*RES
1 *525:A *401:Q 16.4974
*END

*D_NET *80 0.000404119

*CONN
*I *530:A I *C 16.3 24.605 *L 0.000395 *D INVX1
*I *388:Q O *C 13.1 24.605 *L 0 *D DFFQXL

*CAP
1 *530:A 0.000172914
2 *388:Q 2.91458e-05
3 *80:2 0.000202059746

*RES
1 *80:2 *388:Q 4.00106
2 *530:A *80:2 14.133215
*END

*D_NET *81 0.000320137

*CONN
*I *541:A I *C 24.7 31.445 *L 0.000395 *D INVX1
*I *389:Q O *C 21.3 31.445 *L 0 *D DFFQXL

*CAP
1 *541:A 9.82873e-05
2 *389:Q 1.97299e-05
3 *81:2 0.000118017197
4 *541:A *94:4 8.41021582e-05

*RES
1 *81:2 *389:Q 6.80506
2 *541:A *81:2 9.43565369
*END

*D_NET *82 0.000260949

*CONN
*I *524:A I *C 19.7 30.115 *L 0.000395 *D INVX1
*I *393:Q O *C 16.9 28.025 *L 0 *D DFFQXL

*CAP
1 *524:A 6.24649e-05
2 *393:Q 6.80096e-05
3 *82:2 0.00013047457

*RES
1 *82:2 *393:Q 8.33153725
2 *524:A *82:2 2.4513
*END

*D_NET *83 0.0014832

*CONN
*I *496:Q O *C 14.74 31.51 *L 0 *D DFFHQX1
*I *480:A I *C 18.5 9.595 *L 0.000212 *D INVXL
*I *459:A0 I *C 18.9 9.785 *L 0.000391 *D AOI21X1

*CAP
1 *459:A0 3.87422e-05
2 *496:Q 4.32113e-05
3 *83:3 0.000174587
4 *83:4 0.000567022
5 *83:5 0.000659644609

*RES
1 *83:5 *83:4 16.4985657
2 *83:4 *496:Q 10.3997
3 *83:3 *83:5 9.71723
4 *480:A *83:3 3.29991
5 *459:A0 *83:3 4.12162
*END

*D_NET *84 0.00162482

*CONN
*I *488:Q O *C 14.34 33.47 *L 0 *D DFFHQX1
*I *469:A I *C 15.5 16.435 *L 0.000212 *D INVXL
*I *440:A0 I *C 18.3 14.155 *L 0.000391 *D AOI21X1

*CAP
1 *440:A0 7.57568e-05
2 *469:A 2.37229e-05
3 *488:Q 4.02369e-05
4 *84:3 0.000185367
5 *84:4 0.000514445
6 *84:5 0.000563085078
7 *84:6 0.00022221

*RES
1 *84:6 *84:5 2.25262
2 *84:5 *84:4 10.8326674
3 *84:4 *488:Q 4.11316
4 *469:A *84:6 3.71117
5 *84:3 *84:6 9.10469
6 *440:A0 *84:3 5.00541
*END

*D_NET *85 0.00115418

*CONN
*I *497:Q O *C 14.34 30.05 *L 0 *D DFFHQX1
*I *473:A I *C 14.3 14.345 *L 0.000212 *D INVXL
*I *445:A0 I *C 14.7 14.155 *L 0.000391 *D AOI21X1

*CAP
1 *445:A0 3.3437e-05
2 *473:A 1.55564e-05
3 *497:Q 8.13581e-05
4 *85:3 0.000436425195
5 *85:4 0.00040406
6 *85:4 *97:3 0.000183343887

*RES
1 *85:4 *85:3 10.2411509
2 *85:3 *497:Q 4.76694
3 *473:A *85:4 3.63869
4 *445:A0 *85:4 3.95013
*END

*D_NET *86 0.00141895

*CONN
*I *495:Q O *C 11.54 31.51 *L 0 *D DFFHQX1
*I *477:A I *C 15.9 19.855 *L 0.000212 *D INVXL
*I *437:A0 I *C 16.7 17.575 *L 0.000391 *D AOI21X1

*CAP
1 *437:A0 7.61742e-05
2 *477:A 1.97921e-05
3 *495:Q 8.24364e-05
4 *86:3 0.000104306
5 *86:4 0.000450014
6 *86:5 0.000484526172
7 *86:4 *98:3 9.25064063e-05
8 *437:A0 *478:A 0.000109195713

*RES
1 *86:5 *495:Q 5.08395
2 *86:4 *86:5 14.8814917
3 *477:A *86:4 6.9296
4 *86:3 *86:4 4.02238
5 *437:A0 *86:3 5.14912
*END

*D_NET *87 0.000868261

*CONN
*I *500:Q O *C 18.14 31.51 *L 0 *D DFFHQX1
*I *479:A I *C 27.5 31.445 *L 0.000212 *D INVXL
*I *462:A0 I *C 27.9 30.305 *L 0.000391 *D AOI21X1

*CAP
1 *462:A0 2.9027e-05
2 *500:Q 0.000295761
3 *479:A 2.02041e-05
4 *87:3 0.00034499168
5 *87:3 *403:CK 5.12004e-05
6 *87:3 *8:87 8.04663e-06
7 *87:3 *389:CK 7.15256e-06
8 *87:3 *500:CK 1.16825e-05
9 *87:3 *518:CK 1.12652723e-05
10 *87:3 *148:6 8.8930127e-05

*RES
1 *479:A *87:3 3.70435
2 *87:3 *500:Q 19.3796158
3 *462:A0 *87:3 4.12929
*END

*D_NET *88 0.000892758

*CONN
*I *490:Q O *C 11.54 28.09 *L 0 *D DFFHQX1
*I *471:A I *C 24.7 28.025 *L 0.000212 *D INVXL
*I *438:A0 I *C 25.1 27.835 *L 0.000391 *D AOI21X1

*CAP
1 *438:A0 2.55695e-05
2 *471:A 7.86899e-06
3 *490:Q 3.71324e-05
4 *88:3 0.000303386
5 *88:4 6.47918e-05
6 *88:5 0.000309169297
7 *88:5 *8:113 7.03335e-06
8 *88:5 *8:120 5.66244e-06
9 *88:4 *303:CK 2.98023e-07
10 *88:3 *303:CK 4.22001e-05
11 *88:3 *291:CK 7.03335e-06
12 *88:3 *393:CK 4.20809e-05
13 *88:3 *8:113 4.05311223e-05

*RES
1 *88:5 *490:Q 7.47658
2 *88:4 *88:3 3.97704
3 *88:3 *88:5 9.43422318
4 *471:A *88:4 3.35717
5 *438:A0 *88:4 3.68927
*END

*D_NET *89 0.00159883

*CONN
*I *494:Q O *C 13.14 26.63 *L 0 *D DFFHQX1
*I *468:A I *C 34.1 19.855 *L 0.000212 *D INVXL
*I *447:A0 I *C 34.5 20.045 *L 0.000391 *D AOI21X1

*CAP
1 *447:A0 2.15744e-05
2 *494:Q 0.000223818
3 *89:3 0.000215414
4 *89:4 0.000554028
5 *89:5 0.000584006328

*RES
1 *89:5 *494:Q 18.5511112
2 *89:4 *89:5 12.0043
3 *89:3 *89:4 14.6762
4 *468:A *89:3 3.3
5 *447:A0 *89:3 3.64393
*END

*D_NET *90 0.0022558

*CONN
*I *489:Q O *C 8.74 26.63 *L 0 *D DFFHQX1
*I *474:A I *C 33.1 24.605 *L 0.000212 *D INVXL
*I *439:A0 I *C 32.1 24.415 *L 0.000391 *D AOI21X1

*CAP
1 *474:A 5.56674e-05
2 *439:A0 2.52686e-05
3 *489:Q 0.000298558
4 *90:3 0.000266017
5 *90:4 0.000483694
6 *90:5 0.000597178945
7 *90:5 *497:D 0.000139474873
8 *90:4 *140:4 0.000181436543
9 *90:3 *177:5 8.20159961e-05
10 *90:3 *152:55 0.000126481055

*RES
1 *90:5 *489:Q 16.1026726
2 *90:4 *90:5 9.73664
3 *90:3 *90:4 15.9688
4 *439:A0 *90:3 3.64777
5 *474:A *90:3 4.40381
*END

*D_NET *91 0.00148284

*CONN
*I *487:Q O *C 9.94 24.67 *L 0 *D DFFHQX1
*I *467:A I *C 28.3 23.275 *L 0.000212 *D INVXL
*I *461:A0 I *C 28.1 24.415 *L 0.000391 *D AOI21X1

*CAP
1 *467:A 3.01625e-05
2 *461:A0 5.88887e-05
3 *487:Q 2.83729e-05
4 *91:3 0.000160513
5 *91:4 0.000368893
6 *91:5 0.000503361211
7 *91:6 0.000234303
8 *91:3 *264:8 9.8347666e-05

*RES
1 *91:6 *487:Q 3.85803
2 *91:5 *91:6 8.69882107
3 *91:4 *91:5 8.08864
4 *461:A0 *91:3 4.20712
5 *91:3 *91:4 5.32633
6 *467:A *91:3 3.64765
*END

*D_NET *92 0.0010004

*CONN
*I *498:Q O *C 9.14 23.21 *L 0 *D DFFHQX1
*I *475:A I *C 20.5 24.605 *L 0.000212 *D INVXL
*I *443:A0 I *C 20.9 24.415 *L 0.000391 *D AOI21X1

*CAP
1 *443:A0 5.2395e-05
2 *475:A 3.94607e-05
3 *498:Q 5.41228e-05
4 *92:3 0.000342071055
5 *92:4 0.000304343
6 *92:3 *290:CK 1.32322e-05
7 *92:3 *8:108 4.61936e-05
8 *92:3 *8:116 2.19941e-05
9 *92:3 *8:119 3.14713e-05
10 *92:3 *8:125 1.25765769e-05
11 *92:3 *487:D 8.25524316e-05

*RES
1 *92:4 *498:Q 7.64501
2 *92:3 *92:4 8.59904289
3 *475:A *92:3 6.93122
4 *443:A0 *92:3 7.06545
*END

*D_NET *93 0.00245422

*CONN
*I *501:Q O *C 8.74 19.79 *L 0 *D DFFHQX1
*I *466:A I *C 33.3 28.025 *L 0.000212 *D INVXL
*I *463:A0 I *C 32.3 27.835 *L 0.000391 *D AOI21X1

*CAP
1 *466:A 6.38926e-05
2 *463:A0 3.17709e-05
3 *501:Q 3.09384e-05
4 *93:3 0.000303508
5 *93:4 0.000491261
6 *93:5 0.000534832461
7 *93:6 0.000282347
8 *93:4 *97:3 0.000139296055
9 *93:4 *490:D 0.000102639199
10 *93:3 *146:7 9.26256152e-05
11 *93:3 *460:A1 9.58442676e-05
12 *466:A *143:5 0.000285267832

*RES
1 *93:6 *501:Q 4.07862
2 *93:5 *93:6 9.55971
3 *93:4 *93:5 11.1652613
4 *93:3 *93:4 7.78635
5 *463:A0 *93:3 6.80502
6 *466:A *93:3 7.59826
*END

*D_NET *94 0.00199187

*CONN
*I *493:Q O *C 8.94 21.25 *L 0 *D DFFHQX1
*I *476:A I *C 28.9 31.445 *L 0.000212 *D INVXL
*I *444:A0 I *C 29.9 31.255 *L 0.000391 *D AOI21X1

*CAP
1 *444:A0 3.04597e-05
2 *476:A 1.07925e-05
3 *493:Q 0.000513138
4 *94:3 6.87288e-05
5 *94:4 0.000212547
6 *94:5 0.000698208828
7 *94:5 *497:D 0.000109612939
8 *94:4 *541:A 8.41021582e-05
9 *94:3 *140:4 0.000264286992

*RES
1 *94:5 *493:Q 21.5001106
2 *94:4 *94:5 7.93755
3 *94:3 *94:4 3.88364
4 *476:A *94:3 3.57231
5 *444:A0 *94:3 4.13363
*END

*D_NET *95 0.000818014

*CONN
*I *491:Q O *C 8.74 16.37 *L 0 *D DFFHQX1
*I *472:A I *C 13.5 21.185 *L 0.000212 *D INVXL
*I *446:A0 I *C 15.7 20.995 *L 0.000391 *D AOI21X1

*CAP
1 *446:A0 0.000103177
2 *472:A 1.54965e-05
3 *491:Q 0.000290334
4 *95:3 0.00040900707

*RES
1 *95:3 *491:Q 13.8651133
2 *472:A *95:3 6.77833
3 *446:A0 *95:3 8.57345
*END

*D_NET *96 0.0010339

*CONN
*I *484:Q O *C 11.14 12.95 *L 0 *D DFFHQX1
*I *478:A I *C 17.1 19.855 *L 0.000212 *D INVXL
*I *442:A0 I *C 17.9 20.045 *L 0.000391 *D AOI21X1

*CAP
1 *442:A0 5.23906e-05
2 *478:A 1.93723e-05
3 *484:Q 6.3799e-06
4 *96:3 0.000411927695
5 *96:4 0.000346538
6 *96:3 *98:4 8.80956641e-05
7 *478:A *437:A0 0.000109195713

*RES
1 *96:4 *484:Q 0.239618
2 *96:3 *96:4 17.1624413
3 *478:A *96:3 6.80516
4 *442:A0 *96:3 7.47033
*END

*D_NET *97 0.00170094

*CONN
*I *485:Q O *C 13.54 10.99 *L 0 *D DFFHQX1
*I *465:A I *C 20.5 28.025 *L 0.000212 *D INVXL
*I *460:A0 I *C 20.9 27.835 *L 0.000391 *D AOI21X1

*CAP
1 *460:A0 1.31719e-05
2 *465:A 2.37231e-05
3 *97:3 0.0006456375
4 *97:4 0.000608743
5 *97:3 *93:4 0.000139296055
6 *97:3 *85:4 0.000183343887
7 *97:3 *441:A0 8.70227832e-05

*RES
1 *97:4 *485:Q 0.500029
2 *465:A *97:3 3.91994
3 *97:3 *97:4 29.2327404
4 *460:A0 *97:3 3.50422
*END

*D_NET *98 0.00173259

*CONN
*I *499:Q O *C 10.34 10.99 *L 0 *D DFFHQX1
*I *470:A I *C 16.7 26.695 *L 0.000212 *D INVXL
*I *441:A0 I *C 19.7 26.885 *L 0.000391 *D AOI21X1

*CAP
1 *441:A0 9.02416e-05
2 *470:A 2.58675e-05
3 *499:Q 3.70781e-05
4 *98:3 0.000336051
5 *98:4 0.000528931602
6 *98:5 0.000346067
7 *98:4 *96:3 8.80956641e-05
8 *98:3 *86:4 9.25064063e-05
9 *98:3 *494:D 0.000100731846
10 *441:A0 *97:3 8.70227832e-05

*RES
1 *98:5 *499:Q 4.36596
2 *98:4 *98:5 9.35865
3 *98:3 *98:4 10.6935501
4 *470:A *98:3 6.8499
5 *441:A0 *98:3 9.13331
*END

*D_NET *99 0.00216639

*CONN
*I *486:Q O *C 5.74 8 *L 0 *D DFFRHQX1
*I *482:A I *C 21.3 9.595 *L 0.000801 *D INVX2
*I *464:A I *C 27.9 7.695 *L 0.00039 *D NAND2X1
*I *345:C0 I *C 33.35 9.34 *L 0.000393 *D OAI221X1
*I *323:A I *C 34.3 9.405 *L 0.00039 *D NAND2X1

*CAP
1 *323:A 4.34512e-05
2 *345:C0 3.23066e-05
3 *464:A 3.80903e-05
4 *482:A 5.37034e-05
5 *486:Q 0.000158726
6 *99:5 0.000260355
7 *99:6 0.000376939
8 *99:7 0.000240144
9 *99:8 0.000258265
10 *99:9 0.000384807578
11 *99:9 *486:CK 4.47035e-06
12 *99:8 *8:90 3.09944e-06
13 *99:6 *8:80 0.000128031
14 *99:6 *8:90 4.52995e-05
15 *99:5 *8:78 6.56247e-05
16 *99:5 *8:80 7.30751218e-05

*RES
1 *99:9 *486:Q 10.5999
2 *99:8 *99:9 8.34568
3 *99:7 *99:8 4.11028
4 *482:A *99:7 10.9772682
5 *99:6 *99:7 8.5373
6 *464:A *99:6 7.18273
7 *345:C0 *99:5 3.8669
8 *99:5 *99:6 8.72925
9 *323:A *99:5 4.16187
*END

*D_NET *100 0.000356674

*CONN
*I *520:Q O *C 5.54 5.68 *L 0 *D DFFRHQX1
*I *486:D I *C 8.965 7.545 *L 0.000307 *D DFFRHQX1

*CAP
1 *520:Q 0.000136375
2 *486:D 4.19617e-05
3 *100:2 0.00017833709

*RES
1 *486:D *100:2 4.12071
2 *100:2 *520:Q 12.7824545
*END

*D_NET *101 0.000843823

*CONN
*I *510:Q O *C 5.1 31.445 *L 0 *D DFFQXL
*I *496:D I *C 17.3 31.635 *L 0.000307 *D DFFHQX1

*CAP
1 *496:D 4.66096e-05
2 *510:Q 2.99211e-05
3 *101:2 0.000232994551
4 *101:3 0.000216306
5 *101:3 *511:CK 2.38419e-06
6 *101:3 *515:CK 1.37091e-05
7 *101:2 *8:102 2.85506e-05
8 *101:2 *8:110 6.02007e-06
9 *101:2 *8:111 4.54783e-05
10 *101:2 *511:CK 5.04255e-05
11 *496:D *518:CK 3.63588e-06
12 *496:D *8:102 1.71065966e-05
13 *496:D *518:D 0.000150680547

*RES
1 *101:3 *510:Q 7.30826
2 *101:2 *101:3 8.93521309
3 *496:D *101:2 7.78354
*END

*D_NET *102 0.000687182

*CONN
*I *515:Q O *C 5.1 33.535 *L 0 *D DFFQXL
*I *488:D I *C 16.9 33.345 *L 0.000307 *D DFFHQX1

*CAP
1 *488:D 1.55553e-05
2 *515:Q 1.91331e-05
3 *102:2 0.000221012
4 *102:3 0.000224590293
5 *102:2 *14:3 0.000206887715

*RES
1 *102:3 *515:Q 6.80509
2 *488:D *102:2 6.80838
3 *102:2 *102:3 8.98063183
*END

*D_NET *103 0.00063318

*CONN
*I *516:Q O *C 8.3 30.115 *L 0 *D DFFQXL
*I *497:D I *C 16.9 29.925 *L 0.000307 *D DFFHQX1

*CAP
1 *516:Q 0.000192046172
2 *497:D 0.000192046172
3 *497:D *94:5 0.000109612939
4 *497:D *90:5 0.000139474873

*RES
1 *497:D *516:Q 20.6019
*END

*D_NET *104 0.000598907

*CONN
*I *511:Q O *C 8.3 31.445 *L 0 *D DFFQXL
*I *495:D I *C 14.1 31.635 *L 0.000307 *D DFFHQX1

*CAP
1 *511:Q 0.00025636
2 *495:D 4.30937e-05
3 *104:2 0.00029945373

*RES
1 *495:D *104:2 4.1694
2 *104:2 *511:Q 17.1949863
*END

*D_NET *105 0.000325918

*CONN
*I *518:Q O *C 17.7 33.535 *L 0 *D DFFQXL
*I *500:D I *C 20.7 31.635 *L 0.000307 *D DFFHQX1

*CAP
1 *500:D 0.000139774
2 *518:Q 2.3185e-05
3 *105:2 0.000162959102

*RES
1 *105:2 *518:Q 3.64761
2 *500:D *105:2 12.9791498
*END

*D_NET *106 0.000686288

*CONN
*I *507:Q O *C 5.1 28.025 *L 0 *D DFFQXL
*I *490:D I *C 14.1 28.215 *L 0.000307 *D DFFHQX1

*CAP
1 *490:D 9.59042e-05
2 *507:Q 0.000135958
3 *106:2 0.00023186207
4 *106:2 *8:147 3.15905e-06
5 *490:D *8:113 0.000116765494
6 *490:D *93:4 0.000102639199

*RES
1 *106:2 *507:Q 10.2975
2 *490:D *106:2 13.9372349
*END

*D_NET *107 0.000737071

*CONN
*I *517:Q O *C 5.1 26.695 *L 0 *D DFFQXL
*I *494:D I *C 15.7 26.505 *L 0.000307 *D DFFHQX1

*CAP
1 *494:D 8.65445e-05
2 *517:Q 0.000231625
3 *107:2 0.00031816959
4 *494:D *98:3 0.000100731846

*RES
1 *107:2 *517:Q 13.1020546
2 *494:D *107:2 9.26336
*END

*D_NET *108 0.000466526

*CONN
*I *508:Q O *C 6.5 24.605 *L 0 *D DFFQXL
*I *489:D I *C 11.3 26.505 *L 0.000307 *D DFFHQX1

*CAP
1 *508:Q 0.000192105762
2 *489:D 0.000192105762
3 *489:D *8:121 1.15037e-05
4 *489:D *8:119 3.08752e-05
5 *489:D *8:125 2.06232e-05
6 *489:D *508:CK 1.93119151e-05

*RES
1 *489:D *508:Q 18.3201
*END

*D_NET *109 0.000590742

*CONN
*I *505:Q O *C 5.3 23.275 *L 0 *D DFFQXL
*I *487:D I *C 12.5 24.795 *L 0.000307 *D DFFHQX1

*CAP
1 *505:Q 0.000254094609
2 *487:D 0.000254094609
3 *487:D *92:3 8.25524316e-05

*RES
1 *487:D *505:Q 19.9499
*END

*D_NET *110 0.000460744

*CONN
*I *519:Q O *C 5.3 21.185 *L 0 *D DFFQXL
*I *498:D I *C 11.7 23.085 *L 0.000307 *D DFFHQX1

*CAP
1 *519:Q 0.000230371953
2 *498:D 0.000230371953

*RES
1 *498:D *519:Q 19.2015
*END

*D_NET *111 0.000480115

*CONN
*I *514:Q O *C 5.3 19.855 *L 0 *D DFFQXL
*I *501:D I *C 11.3 19.665 *L 0.000307 *D DFFHQX1

*CAP
1 *514:Q 0.000181913379
2 *501:D 0.000181913379
3 *501:D *8:118 3.80874e-05
4 *501:D *8:128 5.42402e-06
5 *501:D *8:130 5.29885e-05
6 *501:D *8:144 7.92742e-06
7 *501:D *8:146 1.1861323e-05

*RES
1 *501:D *514:Q 21.9668
*END

*D_NET *112 0.000798225

*CONN
*I *512:Q O *C 5.3 16.435 *L 0 *D DFFQXL
*I *493:D I *C 11.5 21.375 *L 0.000307 *D DFFHQX1

*CAP
1 *512:Q 0.000269413
2 *493:D 0.0001297
3 *112:2 0.000399112695

*RES
1 *493:D *112:2 6.33882
2 *112:2 *512:Q 17.8192863
*END

*D_NET *113 0.000463426

*CONN
*I *521:Q O *C 5.5 14.345 *L 0 *D DFFQXL
*I *491:D I *C 11.3 16.245 *L 0.000307 *D DFFHQX1

*CAP
1 *521:Q 0.000179111953
2 *491:D 0.000179111953
3 *491:D *299:CK 1.13845e-05
4 *491:D *491:CK 7.55787e-05
5 *491:D *521:CK 6.55651e-07
6 *491:D *512:CK 1.75833524e-05

*RES
1 *491:D *521:Q 18.7635
*END

*D_NET *114 0.000481725

*CONN
*I *509:Q O *C 5.3 13.015 *L 0 *D DFFQXL
*I *484:D I *C 13.7 12.825 *L 0.000307 *D DFFHQX1

*CAP
1 *509:Q 0.000240862363
2 *484:D 0.000240862363

*RES
1 *484:D *509:Q 20.0238
*END

*D_NET *115 0.000716269

*CONN
*I *522:Q O *C 5.1 9.595 *L 0 *D DFFQXL
*I *485:D I *C 16.1 11.115 *L 0.000307 *D DFFHQX1

*CAP
1 *485:D 4.4586e-05
2 *522:Q 2.51534e-05
3 *115:2 0.000292897227
4 *115:3 0.000273465
5 *115:2 *499:D 8.01682471e-05

*RES
1 *115:3 *522:Q 7.07214
2 *485:D *115:2 7.38769
3 *115:2 *115:3 8.3758831
*END

*D_NET *116 0.000449717

*CONN
*I *506:Q O *C 7.1 10.925 *L 0 *D DFFQXL
*I *499:D I *C 12.9 11.115 *L 0.000307 *D DFFHQX1

*CAP
1 *506:Q 0.000125646592
2 *499:D 0.000125646592
3 *499:D *8:115 3.42727e-05
4 *499:D *8:122 1.26362e-05
5 *499:D *8:124 6.181e-05
6 *499:D *506:CK 1.07288e-06
7 *499:D *8:132 8.46383105e-06
8 *499:D *115:2 8.01682471e-05

*RES
1 *499:D *506:Q 18.5317
*END

*D_NET *117 0.000115752

*CONN
*I *533:Y O *C 25.33 5.55 *L 0 *D INVX1
*I *458:A0 I *C 25.9 7.315 *L 0.000391 *D AOI21X1

*CAP
1 *533:Y 5.78761084e-05
2 *458:A0 5.78761084e-05

*RES
1 *458:A0 *533:Y 7.80916
*END

*D_NET *118 0.000152826

*CONN
*I *534:Y O *C 29.53 11.55 *L 0 *D INVX1
*I *503:B I *C 28.5 10.735 *L 0.000392 *D NAND2X1
*I *502:A I *C 29.9 11.115 *L 0.00039 *D NAND2X1

*CAP
1 *502:A 3.13523e-05
2 *503:B 4.50608e-05
3 *118:3 7.64131543e-05

*RES
1 *503:B *118:3 7.48646259
2 *118:3 *534:Y 0.500004
3 *502:A *118:3 1.08123
*END

*D_NET *119 0.000469804

*CONN
*I *535:Y O *C 35.73 12.39 *L 0 *D INVX1
*I *492:A1 I *C 35.37 11.18 *L 0.000212 *D OAI22XL
*I *382:B0 I *C 32.9 14.345 *L 0.00039 *D OAI211X1

*CAP
1 *492:A1 4.32721e-05
2 *535:Y 3.51064e-05
3 *382:B0 0.000104129
4 *119:3 5.89493e-05
5 *119:4 0.00012356043
6 *492:A1 *492:B1 0.000104784961

*RES
1 *382:B0 *119:4 12.6117468
2 *119:3 *535:Y 3.5967
3 *492:A1 *119:3 4.14439
4 *119:4 *535:Y 3.71486
*END

*D_NET *120 0.000244856

*CONN
*I *480:Y O *C 18.7 9.785 *L 0 *D INVXL
*I *415:B0 I *C 20.76 9.57 *L 0.000212 *D AOI211XL

*CAP
1 *415:B0 0.000100255
2 *480:Y 2.21728e-05
3 *120:2 0.000122427939

*RES
1 *120:2 *480:Y 6.80504
2 *415:B0 *120:2 8.44585896
*END

*D_NET *121 0.000100017

*CONN
*I *479:Y O *C 27.7 31.255 *L 0 *D INVXL
*I *414:B0 I *C 26.96 31.47 *L 0.000212 *D AOI211XL

*CAP
1 *479:Y 3.9458e-05
2 *414:B0 1.05503e-05
3 *121:2 5.00082959e-05

*RES
1 *414:B0 *121:2 3.50416
2 *121:2 *479:Y 3.96192074
*END

*D_NET *122 0.00022471

*CONN
*I *478:Y O *C 17.3 20.045 *L 0 *D INVXL
*I *423:B0 I *C 18.36 21.21 *L 0.000212 *D AOI211XL

*CAP
1 *478:Y 0.000112354756
2 *423:B0 0.000112354756

*RES
1 *423:B0 *478:Y 14.9724
*END

*D_NET *123 9.84669e-05

*CONN
*I *477:Y O *C 16.1 20.045 *L 0 *D INVXL
*I *428:B0 I *C 16.16 17.79 *L 0.000212 *D AOI211XL

*CAP
1 *428:B0 4.92334375e-05
2 *123:2 4.92334375e-05

*RES
1 *428:B0 *123:2 4.50956821
2 *123:2 *477:Y 3.29995
*END

*D_NET *124 0.000310779

*CONN
*I *476:Y O *C 29.1 31.255 *L 0 *D INVXL
*I *427:B0 I *C 32.16 31.47 *L 0.000212 *D AOI211XL

*CAP
1 *476:Y 0.000155389307
2 *427:B0 0.000155389307

*RES
1 *427:B0 *476:Y 16.6155
*END

*D_NET *125 0.000402927

*CONN
*I *475:Y O *C 20.7 24.415 *L 0 *D INVXL
*I *424:B0 I *C 23.76 24.63 *L 0.000212 *D AOI211XL

*CAP
1 *424:B0 9.46515e-05
2 *475:Y 3.76112e-05
3 *125:2 0.000132262705
4 *424:B0 *424:A1 0.000138401982

*RES
1 *125:2 *475:Y 6.94551
2 *424:B0 *125:2 9.05454159
*END

*D_NET *126 0.000113964

*CONN
*I *474:Y O *C 33.3 24.415 *L 0 *D INVXL
*I *420:B0 I *C 34.36 24.63 *L 0.000212 *D AOI211XL

*CAP
1 *474:Y 5.6982041e-05
2 *420:B0 5.6982041e-05

*RES
1 *420:B0 *474:Y 7.51138
*END

*D_NET *127 0.000247478

*CONN
*I *473:Y O *C 14.5 14.155 *L 0 *D INVXL
*I *418:B0 I *C 16.56 14.37 *L 0.000212 *D AOI211XL

*CAP
1 *418:B0 8.03479e-05
2 *473:Y 4.33913e-05
3 *127:2 0.000123739238

*RES
1 *127:2 *473:Y 6.94155
2 *418:B0 *127:2 8.3438158
*END

*D_NET *128 0.000205159

*CONN
*I *472:Y O *C 13.7 20.995 *L 0 *D INVXL
*I *426:B0 I *C 15.16 21.21 *L 0.000212 *D AOI211XL

*CAP
1 *472:Y 0.00010257959
2 *426:B0 0.00010257959

*RES
1 *426:B0 *472:Y 8.75854
*END

*D_NET *129 0.000228405

*CONN
*I *471:Y O *C 24.9 27.835 *L 0 *D INVXL
*I *417:B0 I *C 27.16 28.05 *L 0.000212 *D AOI211XL

*CAP
1 *471:Y 0.0001142025
2 *417:B0 0.0001142025

*RES
1 *417:B0 *471:Y 15.3114
*END

*D_NET *130 0.000134706

*CONN
*I *470:Y O *C 16.9 26.885 *L 0 *D INVXL
*I *421:B0 I *C 18.16 26.67 *L 0.000212 *D AOI211XL

*CAP
1 *470:Y 6.73532471e-05
2 *421:B0 6.73532471e-05

*RES
1 *421:B0 *470:Y 8.26049
*END

*D_NET *131 0.00030303

*CONN
*I *469:Y O *C 15.7 16.625 *L 0 *D INVXL
*I *416:B0 I *C 17.76 14.37 *L 0.000212 *D AOI211XL

*CAP
1 *416:B0 0.000129283
2 *469:Y 2.22319e-05
3 *131:2 0.00015151501

*RES
1 *131:2 *469:Y 3.858
2 *416:B0 *131:2 12.1445656
*END

*D_NET *132 0.000262141

*CONN
*I *468:Y O *C 34.3 20.045 *L 0 *D INVXL
*I *419:B0 I *C 36.76 19.83 *L 0.000212 *D AOI211XL

*CAP
1 *468:Y 0.000131070615
2 *419:B0 0.000131070615

*RES
1 *419:B0 *468:Y 15.4513
*END

*D_NET *133 0.000161052

*CONN
*I *467:Y O *C 28.5 23.465 *L 0 *D INVXL
*I *422:B0 I *C 29.76 24.63 *L 0.000212 *D AOI211XL

*CAP
1 *467:Y 4.23192e-05
2 *422:B0 3.82066e-05
3 *133:2 8.0525874e-05

*RES
1 *422:B0 *133:2 4.15229
2 *133:2 *467:Y 4.56929207
*END

*D_NET *134 0.000135303

*CONN
*I *466:Y O *C 33.5 27.835 *L 0 *D INVXL
*I *425:B0 I *C 34.36 28.05 *L 0.000212 *D AOI211XL

*CAP
1 *466:Y 6.76512695e-05
2 *425:B0 6.76512695e-05

*RES
1 *425:B0 *466:Y 7.78687
*END

*D_NET *135 0.000272751

*CONN
*I *465:Y O *C 20.7 27.835 *L 0 *D INVXL
*I *429:B0 I *C 23.76 28.05 *L 0.000212 *D AOI211XL

*CAP
1 *465:Y 0.00013637543
2 *429:B0 0.00013637543

*RES
1 *429:B0 *465:Y 15.9152
*END

*D_NET *136 0.00200284

*CONN
*I *464:Y O *C 28.355 7.74 *L 0 *D NAND2X1
*I *454:A I *C 33.9 33.535 *L 0.000212 *D INVXL
*I *366:A1 I *C 29.3 7.88 *L 0.000789 *D OAI21X2

*CAP
1 *454:A 6.70586e-05
2 *366:A1 1.7049e-05
3 *464:Y 2.12747e-05
4 *136:3 0.00044465
5 *136:4 0.000683784453
6 *136:5 0.000409186
7 *136:6 0.000141327
8 *136:5 *8:78 4.41074e-05
9 *136:5 *8:80 5.82933805e-05
10 *136:3 *297:D 0.000116109844

*RES
1 *136:6 *464:Y 3.84244
2 *366:A1 *136:6 3.64396
3 *136:5 *136:6 9.96665
4 *136:4 *136:5 8.41752
5 *136:3 *136:4 11.6453171
6 *454:A *136:3 11.2999
*END

*D_NET *137 0.00148737

*CONN
*I *537:Y O *C 18.73 8.13 *L 0 *D INVX1
*I *459:A1 I *C 19.12 9.55 *L 0.000392 *D AOI21X1
*I *451:B I *C 38.605 9.37 *L 0.000212 *D NOR2XL
*I *415:A1 I *C 20.46 9.555 *L 0.000212 *D AOI211XL

*CAP
1 *451:B 2.12815e-05
2 *415:A1 1.5138e-05
3 *459:A1 2.56897e-05
4 *537:Y 3.95804e-05
5 *137:4 0.000364963
6 *137:5 0.000507712383
7 *137:6 0.000211475
8 *137:7 9.75759e-05
9 *137:4 *249:11 0.000105857852
10 *137:4 *369:A 9.8109248e-05

*RES
1 *137:7 *537:Y 4.25786
2 *459:A1 *137:7 3.76124
3 *137:6 *137:7 0.84664
4 *415:A1 *137:6 3.54618
5 *137:5 *137:6 7.50441
6 *137:4 *137:5 10.0389719
7 *451:B *137:4 6.75918
*END

*D_NET *138 0.000973225

*CONN
*I *538:Y O *C 31.13 25.23 *L 0 *D INVX1
*I *461:A1 I *C 28.32 24.65 *L 0.000392 *D AOI21X1
*I *449:B I *C 38.605 24.83 *L 0.000212 *D NOR2XL
*I *422:A1 I *C 29.46 24.645 *L 0.000212 *D AOI211XL

*CAP
1 *449:B 0.000187873
2 *538:Y 2.05617e-05
3 *422:A1 9.11757e-06
4 *461:A1 4.70262e-05
5 *138:4 0.00025755168
6 *138:5 0.000105261
7 *449:B *152:35 0.000240325938
8 *449:B *457:B 0.000105500225

*RES
1 *461:A1 *138:5 4.29778
2 *138:5 *138:4 4.77845
3 *422:A1 *138:5 3.39204
4 *138:4 *538:Y 6.80514
5 *449:B *138:4 12.4363899
*END

*D_NET *139 0.00151139

*CONN
*I *541:Y O *C 24.93 32.07 *L 0 *D INVX1
*I *460:A1 I *C 21.12 28.07 *L 0.000392 *D AOI21X1
*I *448:B I *C 35.805 31.67 *L 0.000212 *D NOR2XL
*I *429:A1 I *C 23.46 28.065 *L 0.000212 *D AOI211XL

*CAP
1 *448:B 0.000342012
2 *541:Y 2.09202e-05
3 *429:A1 2.76538e-05
4 *460:A1 9.23265e-05
5 *139:4 0.000535547734
6 *139:5 0.000292596
7 *460:A1 *93:3 9.58442676e-05
8 *448:B *414:A1 0.000104486943

*RES
1 *460:A1 *139:5 8.59121
2 *139:5 *139:4 10.7482
3 *429:A1 *139:5 6.84987
4 *139:4 *541:Y 6.80516
5 *448:B *139:4 15.5054331
*END

*D_NET *140 0.00246465

*CONN
*I *530:Y O *C 16.53 25.23 *L 0 *D INVX1
*I *450:B I *C 38.005 29.89 *L 0.000212 *D NOR2XL
*I *446:A1 I *C 15.92 21.23 *L 0.000392 *D AOI21X1
*I *426:A1 I *C 14.86 21.225 *L 0.000212 *D AOI211XL

*CAP
1 *450:B 0.000201704
2 *446:A1 8.77387e-05
3 *426:A1 1.84173e-05
4 *530:Y 0.000375685
5 *140:4 0.00038450957
6 *140:5 0.000383794
7 *140:6 0.000280859
8 *140:4 *94:3 0.000264286992
9 *140:4 *90:4 0.000181436543
10 *450:B *148:4 0.000180482871
11 *450:B *456:B 0.000105738643

*RES
1 *140:6 *530:Y 13.3302
2 *426:A1 *140:6 3.54618
3 *446:A1 *140:6 11.3731
4 *140:5 *530:Y 11.2269
5 *140:4 *140:5 9.88789
6 *450:B *140:4 14.0314102
*END

*D_NET *141 0.000739813

*CONN
*I *526:Y O *C 33.73 32.91 *L 0 *D INVX1
*I *456:B I *C 37.005 31.67 *L 0.000212 *D NOR2XL
*I *444:A1 I *C 30.12 31.49 *L 0.000392 *D AOI21X1
*I *427:A1 I *C 31.86 31.485 *L 0.000212 *D AOI211XL

*CAP
1 *456:B 0.000121771
2 *526:Y 4.36891e-05
3 *427:A1 2.08008e-05
4 *444:A1 7.18225e-05
5 *141:4 5.01861e-05
6 *141:5 0.000180721289
7 *141:6 0.000145079
8 *456:B *450:B 0.000105738643

*RES
1 *444:A1 *141:6 8.11999
2 *141:6 *141:5 1.57234
3 *427:A1 *141:6 6.84991
4 *141:4 *526:Y 4.43139
5 *141:5 *141:4 3.34678
6 *456:B *141:5 9.63938236
*END

*D_NET *142 0.00166005

*CONN
*I *532:Y O *C 24.73 26.07 *L 0 *D INVX1
*I *453:B I *C 38.605 26.47 *L 0.000212 *D NOR2XL
*I *443:A1 I *C 21.12 24.65 *L 0.000392 *D AOI21X1
*I *424:A1 I *C 23.46 24.645 *L 0.000212 *D AOI211XL

*CAP
1 *453:B 2.08603e-05
2 *424:A1 2.71808e-05
3 *443:A1 9.69192e-05
4 *142:4 0.000194013
5 *142:5 0.000272870059
6 *142:6 0.000196457
7 *142:7 0.000220836
8 *142:7 *302:CK 1.2517e-06
9 *142:7 *295:CK 4.21405e-05
10 *142:5 *8:85 3.15905e-05
11 *142:5 *302:CK 1.13249e-06
12 *142:5 *8:86 8.52346e-06
13 *142:5 *8:88 1.09077e-05
14 *142:5 *8:89 1.13249e-06
15 *142:4 *8:75 7.51019e-06
16 *142:4 *8:74 8.14796e-05
17 *142:4 *8:79 7.12275e-05
18 *142:4 *8:85 3.39745375e-05
19 *424:A1 *424:B0 0.000138401982
20 *142:4 *146:4 0.00020164252

*RES
1 *443:A1 *142:7 8.5054636
2 *142:7 *142:6 5.8074
3 *424:A1 *142:7 6.84982
4 *142:6 *532:Y 3.29999
5 *142:5 *142:6 6.21077
6 *142:4 *142:5 8.37594
7 *453:B *142:4 6.7591
*END

*D_NET *143 0.00246292

*CONN
*I *525:Y O *C 19.93 22.65 *L 0 *D INVX1
*I *452:B I *C 37.605 31.67 *L 0.000212 *D NOR2XL
*I *442:A1 I *C 18.12 19.81 *L 0.000392 *D AOI21X1
*I *423:A1 I *C 18.06 21.225 *L 0.000212 *D AOI211XL

*CAP
1 *452:B 0.000143946
2 *525:Y 7.21778e-05
3 *442:A1 3.95153e-05
4 *423:A1 2.93222e-05
5 *143:4 0.000254454
6 *143:5 0.00037968
7 *143:6 0.0004707575
8 *143:7 8.09414e-05
9 *143:8 0.00026816
10 *143:9 0.000126663
11 *143:6 *8:91 2.49743e-05
12 *143:6 *8:92 5.40614e-05
13 *143:6 *8:93 5.80549798e-05
14 *143:6 *292:D 8.08238965e-05
15 *143:5 *146:4 9.41157324e-05
16 *143:5 *466:A 0.000285267832

*RES
1 *143:9 *143:8 4.90859
2 *423:A1 *143:9 3.8579
3 *442:A1 *143:9 3.98402
4 *143:7 *525:Y 5.00555
5 *143:8 *143:7 3.34682
6 *143:6 *143:8 13.4620667
7 *143:5 *143:6 10.3564
8 *143:4 *143:5 9.76542
9 *452:B *143:4 9.35274
*END

*D_NET *144 0.00183475

*CONN
*I *524:Y O *C 19.93 29.49 *L 0 *D INVX1
*I *455:B I *C 36.405 31.67 *L 0.000212 *D NOR2XL
*I *441:A1 I *C 19.92 26.65 *L 0.000392 *D AOI21X1
*I *421:A1 I *C 17.86 26.655 *L 0.000212 *D AOI211XL

*CAP
1 *455:B 4.69719e-05
2 *421:A1 9.26236e-05
3 *144:4 0.000117304
4 *144:5 0.000323477
5 *144:6 0.000497221953
6 *144:7 0.000359174
7 *144:8 0.00020772
8 *144:8 *441:B0 9.34600781e-05
9 *455:B *41:2 9.67979395e-05

*RES
1 *421:A1 *144:8 12.3778582
2 *144:8 *144:7 2.21489
3 *144:7 *524:Y 3.29996
4 *441:A1 *144:8 3.29996
5 *144:6 *144:7 10.3535
6 *144:5 *144:6 7.78621
7 *144:4 *144:5 5.22474
8 *455:B *144:4 5.00546
*END

*D_NET *145 0.000642776

*CONN
*I *529:Y O *C 35.93 25.23 *L 0 *D INVX1
*I *457:B I *C 38.005 24.83 *L 0.000212 *D NOR2XL
*I *439:A1 I *C 32.32 24.65 *L 0.000392 *D AOI21X1
*I *420:A1 I *C 34.06 24.645 *L 0.000212 *D AOI211XL

*CAP
1 *457:B 7.0869e-05
2 *529:Y 1.48417e-05
3 *420:A1 2.03244e-05
4 *439:A1 6.83066e-05
5 *145:4 0.000130356
6 *145:5 0.000133275986
7 *420:A1 *48:4 9.93013379e-05
8 *457:B *449:B 0.000105500225

*RES
1 *439:A1 *145:5 8.13224
2 *145:5 *145:4 1.57242
3 *420:A1 *145:5 6.84983
4 *145:4 *529:Y 6.76684
5 *457:B *145:4 8.35430622
*END

*D_NET *146 0.00166035

*CONN
*I *536:Y O *C 28.33 28.65 *L 0 *D INVX1
*I *438:A1 I *C 25.32 28.07 *L 0.000392 *D AOI21X1
*I *436:B I *C 38.405 21.41 *L 0.000212 *D NOR2XL
*I *417:A1 I *C 26.86 28.065 *L 0.000212 *D AOI211XL

*CAP
1 *436:B 2.63459e-05
2 *536:Y 6.61752e-06
3 *417:A1 2.6408e-05
4 *438:A1 7.84373e-05
5 *146:4 0.000414551
6 *146:5 2.24678e-05
7 *146:6 0.00045222043
8 *146:7 0.000153003
9 *146:7 *93:3 9.26256152e-05
10 *146:4 *143:5 9.41157324e-05
11 *146:4 *142:4 0.00020164252
12 *146:4 *436:A 9.19103613e-05

*RES
1 *438:A1 *146:7 7.98097
2 *146:7 *146:6 4.30406
3 *417:A1 *146:7 6.85001
4 *146:6 *146:5 3.54594
5 *146:5 *536:Y 0.239449
6 *146:4 *146:6 26.3297558
7 *436:B *146:4 4.14456
*END

*D_NET *147 0.00164723

*CONN
*I *523:Y O *C 14.73 15.81 *L 0 *D INVX1
*I *437:A1 I *C 16.92 17.81 *L 0.000392 *D AOI21X1
*I *435:B I *C 38.405 16.21 *L 0.000212 *D NOR2XL
*I *428:A1 I *C 15.86 17.805 *L 0.000212 *D AOI211XL

*CAP
1 *435:B 8.77383e-05
2 *437:A1 4.268e-05
3 *428:A1 3.03371e-05
4 *523:Y 5.41791e-05
5 *147:4 0.000453115
6 *147:5 0.000476658359
7 *147:6 0.000195384
8 *147:7 0.000125945
9 *147:4 *267:6 0.000181198125

*RES
1 *147:7 *523:Y 4.5872
2 *428:A1 *147:7 3.93509
3 *147:6 *147:7 0.846654
4 *437:A1 *147:6 3.93509
5 *147:5 *147:6 12.0831
6 *147:4 *147:5 13.3651
7 *435:B *147:4 15.160203
*END

*D_NET *148 0.00170404

*CONN
*I *527:Y O *C 28.53 32.91 *L 0 *D INVX1
*I *462:A1 I *C 28.12 30.07 *L 0.000392 *D AOI21X1
*I *434:B I *C 38.005 19.63 *L 0.000212 *D NOR2XL
*I *414:A1 I *C 26.66 31.485 *L 0.000212 *D AOI211XL

*CAP
1 *434:B 5.75203e-05
2 *527:Y 2.70037e-05
3 *462:A1 3.67761e-05
4 *414:A1 4.59524e-05
5 *148:4 0.000465095039
6 *148:5 0.000304166
7 *148:6 0.000287949
8 *148:7 0.00010568
9 *414:A1 *448:B 0.000104486943
10 *148:6 *87:3 8.8930127e-05
11 *148:4 *450:B 0.000180482871

*RES
1 *414:A1 *148:7 11.8017
2 *462:A1 *148:6 4.09372
3 *148:6 *148:7 0.986436
4 *148:7 *527:Y 4.00113
5 *148:5 *148:4 7.94501
6 *148:4 *148:6 13.5443211
7 *434:B *148:5 10.796
*END

*D_NET *149 0.000517726

*CONN
*I *528:Y O *C 38.53 18.39 *L 0 *D INVX1
*I *447:A1 I *C 34.72 19.81 *L 0.000392 *D AOI21X1
*I *433:B I *C 38.605 19.63 *L 0.000212 *D NOR2XL
*I *419:A1 I *C 36.46 19.815 *L 0.000212 *D AOI211XL

*CAP
1 *433:B 2.79534e-05
2 *528:Y 2.09202e-05
3 *419:A1 3.73706e-05
4 *447:A1 9.2627e-05
5 *149:4 0.000128866
6 *149:5 0.000209987168

*RES
1 *447:A1 *149:5 8.33153725
2 *149:5 *149:4 5.42702
3 *419:A1 *149:5 7.14631
4 *149:4 *528:Y 3.71497
5 *433:B *149:4 3.85799
*END

*D_NET *150 0.0014894

*CONN
*I *531:Y O *C 20.33 12.39 *L 0 *D INVX1
*I *440:A1 I *C 18.52 14.39 *L 0.000392 *D AOI21X1
*I *432:B I *C 38.605 11.15 *L 0.000212 *D NOR2XL
*I *416:A1 I *C 17.46 14.385 *L 0.000212 *D AOI211XL

*CAP
1 *432:B 0.000118848
2 *531:Y 2.74213e-05
3 *440:A1 3.79674e-05
4 *416:A1 6.22887e-05
5 *150:4 0.000497937188
6 *150:5 3.60603e-05
7 *150:6 0.000425399
8 *150:7 0.000119092
9 *150:8 0.000164391

*RES
1 *416:A1 *150:8 7.89721
2 *150:8 *150:7 1.42118
3 *440:A1 *150:8 6.94873
4 *150:6 *150:7 7.75464
5 *150:5 *531:Y 3.85806
6 *150:7 *150:5 3.35715
7 *150:4 *150:6 12.4579
8 *432:B *150:4 15.6772137
*END

*D_NET *151 0.000780821

*CONN
*I *540:Y O *C 35.33 29.49 *L 0 *D INVX1
*I *463:A1 I *C 32.52 28.07 *L 0.000392 *D AOI21X1
*I *431:B I *C 38.605 29.89 *L 0.000212 *D NOR2XL
*I *425:A1 I *C 34.06 28.065 *L 0.000212 *D AOI211XL

*CAP
1 *431:B 0.000187815
2 *540:Y 4.33312e-05
3 *463:A1 9.26849e-05
4 *151:4 4.6492e-05
5 *151:5 0.000248074531
6 *151:6 6.34202e-05
7 *151:7 9.90027e-05

*RES
1 *463:A1 *151:7 7.90157
2 *151:6 *151:5 1.13687
3 *151:7 *151:6 3.35712
4 *151:4 *540:Y 1.46828
5 *151:5 *151:4 3.33625
6 *425:A1 *151:6 3.29993
7 *431:B *151:5 14.2513514
*END

*D_NET *152 0.0095253

*CONN
*I *545:B I *C 26.365 6.105 *L 0.000392 *D NOR2BX1
*I *482:Y O *C 21.73 9.46 *L 0 *D INVX2
*I *458:B0 I *C 26.4 7.5 *L 0.000392 *D AOI21X1
*I *457:A I *C 37.77 24.75 *L 0.000212 *D NOR2XL
*I *456:A I *C 36.77 31.59 *L 0.000212 *D NOR2XL
*I *455:A I *C 36.17 31.59 *L 0.000212 *D NOR2XL
*I *453:A I *C 38.37 26.55 *L 0.000212 *D NOR2XL
*I *452:A I *C 37.37 31.59 *L 0.000212 *D NOR2XL
*I *451:A I *C 38.37 9.45 *L 0.000212 *D NOR2XL
*I *450:A I *C 37.77 29.97 *L 0.000212 *D NOR2XL
*I *449:A I *C 38.37 24.75 *L 0.000212 *D NOR2XL
*I *448:A I *C 35.57 31.59 *L 0.000212 *D NOR2XL
*I *436:A I *C 38.17 21.33 *L 0.000212 *D NOR2XL
*I *435:A I *C 38.17 16.29 *L 0.000212 *D NOR2XL
*I *434:A I *C 37.77 19.71 *L 0.000212 *D NOR2XL
*I *433:A I *C 38.37 19.71 *L 0.000212 *D NOR2XL
*I *432:A I *C 38.37 11.07 *L 0.000212 *D NOR2XL
*I *431:A I *C 38.37 29.97 *L 0.000212 *D NOR2XL
*I *430:A I *C 38.37 12.87 *L 0.000212 *D NOR2XL
*I *429:C0 I *C 23.9 28.025 *L 0.000212 *D AOI211XL
*I *428:C0 I *C 16.3 17.765 *L 0.000212 *D AOI211XL
*I *427:C0 I *C 32.3 31.445 *L 0.000212 *D AOI211XL
*I *426:C0 I *C 15.3 21.185 *L 0.000212 *D AOI211XL
*I *425:C0 I *C 34.5 28.025 *L 0.000212 *D AOI211XL
*I *424:C0 I *C 23.9 24.605 *L 0.000212 *D AOI211XL
*I *423:C0 I *C 18.5 21.185 *L 0.000212 *D AOI211XL
*I *422:C0 I *C 29.9 24.605 *L 0.000212 *D AOI211XL
*I *421:C0 I *C 18.3 26.695 *L 0.000212 *D AOI211XL
*I *420:C0 I *C 34.5 24.605 *L 0.000212 *D AOI211XL
*I *419:C0 I *C 36.9 19.855 *L 0.000212 *D AOI211XL
*I *418:C0 I *C 16.7 14.345 *L 0.000212 *D AOI211XL
*I *417:C0 I *C 27.3 28.025 *L 0.000212 *D AOI211XL
*I *416:C0 I *C 17.9 14.345 *L 0.000212 *D AOI211XL
*I *415:C0 I *C 20.9 9.595 *L 0.000212 *D AOI211XL
*I *414:C0 I *C 27.1 31.445 *L 0.000212 *D AOI211XL

*CAP
1 *433:A 6.08113e-06
2 *430:A 1.34135e-05
3 *432:A 1.32302e-05
4 *436:A 1.28716e-05
5 *435:A 5.51924e-05
6 *450:A 2.52092e-05
7 *457:A 4.01131e-05
8 *434:A 8.58372e-06
9 *452:A 6.92595e-05
10 *419:C0 4.27353e-05
11 *456:A 3.60644e-05
12 *455:A 1.52626e-05
13 *420:C0 2.96246e-05
14 *427:C0 0.000114147
15 *422:C0 1.50235e-05
16 *414:C0 5.04263e-05
17 *458:B0 1.7821e-05
18 *545:B 3.83278e-05
19 *429:C0 0.000111046
20 *424:C0 6.37602e-06
21 *482:Y 1.74623e-05
22 *415:C0 3.02781e-05
23 *423:C0 2.81342e-05
24 *421:C0 3.72519e-05
25 *418:C0 5.7161e-05
26 *428:C0 7.75483e-05
27 *426:C0 0.000123798
28 *152:35 0.000166597
29 *152:36 0.000106097
30 *152:37 0.000166
31 *152:38 0.000144241
32 *152:39 9.88841e-05
33 *152:40 0.000378791
34 *152:41 0.000246409
35 *152:42 7.40893e-05
36 *152:43 0.000150147
37 *152:44 0.000140671
38 *152:45 9.81668e-05
39 *152:46 0.000204567
40 *152:47 5.91296e-05
41 *152:48 0.000136375
42 *152:49 6.32421e-05
43 *152:50 0.000317398
44 *152:51 0.000293966
45 *152:52 5.50171e-05
46 *152:53 8.75029e-05
47 *152:54 0.000259456
48 *152:55 0.000234486
49 *152:56 0.00030726
50 *152:57 0.000166295
51 *152:58 0.000265537
52 *152:59 0.000171658
53 *152:60 0.000122308
54 *152:61 0.000522315508
55 *152:62 6.09149e-05
56 *152:63 0.000291822
57 *152:64 0.000122491
58 *152:65 5.65633e-05
59 *152:66 0.0003168
60 *152:67 0.000160333
61 *152:68 0.000504375
62 *152:69 0.000347198
63 *152:70 0.000183996
64 *152:71 0.000275372
65 *152:72 0.000300589
66 *152:59 *303:D 0.000109314922
67 *152:55 *90:3 0.000126481055
68 *436:A *146:4 9.19103613e-05
69 *152:40 *464:B 0.000110864639
70 *152:35 *449:B 0.000240325938
71 *152:35 *33:2 9.69171484e-05

*RES
1 *426:C0 *152:72 9.19135
2 *428:C0 *152:71 7.90167
3 *418:C0 *152:70 4.41875
4 *152:70 *152:69 1.11881
5 *152:71 *152:70 4.57046
6 *152:72 *152:71 10.3401
7 *416:C0 *152:69 3.29994
8 *152:69 *152:68 9.4666
9 *152:67 *152:72 4.15269
10 *152:66 *152:67 2.1997
11 *421:C0 *152:66 4.14447
12 *423:C0 *152:67 3.95387
13 *415:C0 *152:65 3.79904
14 *152:65 *482:Y 3.7007
15 *152:68 *152:65 3.35722
16 *424:C0 *152:64 3.43151
17 *152:64 *152:63 3.3363
18 *152:63 *152:66 8.09893
19 *429:C0 *152:64 5.43982
20 *545:B *152:62 4.01017
21 *152:62 *152:61 3.3363
22 *152:61 *152:68 12.8118992
23 *458:B0 *152:62 3.59162
24 *152:60 *152:59 1.95787
25 *414:C0 *152:60 4.3388
26 *152:58 *152:63 2.63076
27 *417:C0 *152:59 3.29994
28 *152:59 *152:58 5.77333
29 *422:C0 *152:57 6.78853
30 *152:57 *152:58 2.02591
31 *427:C0 *152:56 3.16388
32 *152:55 *152:57 6.85715
33 *420:C0 *152:55 3.9349
34 *152:54 *152:55 2.38503
35 *425:C0 *152:54 3.29994
36 *152:56 *152:54 6.49803
37 *152:53 *152:56 4.53937
38 *448:A *152:53 3.29994
39 *152:52 *152:53 0.771029
40 *455:A *152:52 3.60315
41 *152:51 *152:50 7.61234
42 *152:50 *152:52 0.181418
43 *456:A *152:50 3.98045
44 *419:C0 *152:49 4.22228
45 *152:49 *152:51 0.483848
46 *452:A *152:48 4.59001
47 *152:47 *152:46 0.392943
48 *152:45 *152:47 0.969455
49 *152:44 *152:45 1.59308
50 *152:48 *152:43 7.27375
51 *434:A *152:47 3.40199
52 *457:A *152:44 4.3388
53 *450:A *152:48 3.50423
54 *152:42 *152:41 0.536631
55 *435:A *152:42 4.47975
56 *436:A *152:45 3.64401
57 *152:40 *152:61 9.13172
58 *152:39 *152:40 5.19584
59 *152:38 *152:39 0.778653
60 *152:37 *152:38 3.12204
61 *152:46 *152:41 4.6641
62 *152:36 *152:44 1.51938
63 *152:35 *152:36 1.64039
64 *152:43 *152:35 2.64582
65 *451:A *152:39 3.29994
66 *432:A *152:38 3.64772
67 *430:A *152:37 3.64772
68 *433:A *152:46 3.37188
69 *449:A *152:36 3.29994
70 *453:A *152:35 3.29994
71 *431:A *152:43 3.29994
72 *152:41 *152:37 1.24725
*END

*D_NET *153 0.00199115

*CONN
*I *539:Y O *C 15.93 12.39 *L 0 *D INVX1
*I *445:A1 I *C 14.92 14.39 *L 0.000392 *D AOI21X1
*I *430:B I *C 38.605 12.79 *L 0.000212 *D NOR2XL
*I *418:A1 I *C 16.26 14.385 *L 0.000212 *D AOI211XL

*CAP
1 *430:B 3.43322e-05
2 *418:A1 4.66707e-05
3 *445:A1 8.69639e-05
4 *153:4 0.000306129
5 *153:5 4.36902e-05
6 *153:6 0.000384091
7 *153:7 0.000389873984
8 *153:8 8.75588e-05
9 *153:9 0.000338498
10 *153:10 9.19076e-05
11 *153:7 *6:4 8.58306836e-05
12 *153:4 *483:B1 9.56058496e-05

*RES
1 *445:A1 *153:10 8.42743
2 *153:9 *153:8 4.11018
3 *153:10 *539:Y 0.500035
4 *153:8 *153:10 3.33636
5 *418:A1 *153:8 4.35465
6 *153:7 *153:9 8.98063183
7 *153:6 *153:7 1.73868
8 *153:5 *153:4 3.35719
9 *153:4 *153:6 8.0584
10 *430:B *153:5 4.14444
*END

*D_NET *154 0.000240684

*CONN
*I *429:Y O *C 24.14 28.655 *L 0 *D AOI211XL
*I *389:D I *C 24.17 31.705 *L 0.00021 *D DFFQXL

*CAP
1 *389:D 0.000120341777
2 *154:2 0.000120341777

*RES
1 *389:D *154:2 5.65850735
2 *154:2 *429:Y 3.29999
*END

*D_NET *155 0.000194311

*CONN
*I *428:Y O *C 16.54 18.395 *L 0 *D AOI211XL
*I *390:D I *C 14.77 18.025 *L 0.00021 *D DFFQXL

*CAP
1 *428:Y 6.93202e-05
2 *390:D 2.78354e-05
3 *155:2 9.71555664e-05

*RES
1 *390:D *155:2 6.93602
2 *155:2 *428:Y 7.92384148
*END

*D_NET *156 0.000106096

*CONN
*I *427:Y O *C 32.54 32.075 *L 0 *D AOI211XL
*I *403:D I *C 32.97 33.275 *L 0.00021 *D DFFQXL

*CAP
1 *427:Y 1.66895e-05
2 *403:D 3.63586e-05
3 *156:2 5.30481348e-05

*RES
1 *403:D *156:2 4.14443016
2 *156:2 *427:Y 3.58641
*END

*D_NET *157 0.000302792

*CONN
*I *426:Y O *C 15.54 21.815 *L 0 *D AOI211XL
*I *388:D I *C 15.97 24.865 *L 0.00021 *D DFFQXL

*CAP
1 *426:Y 0.000151395801
2 *388:D 0.000151395801

*RES
1 *388:D *426:Y 9.89592
*END

*D_NET *158 0.000253797

*CONN
*I *425:Y O *C 34.74 28.655 *L 0 *D AOI211XL
*I *391:D I *C 37.97 28.285 *L 0.00021 *D DFFQXL

*CAP
1 *425:Y 0.000126898291
2 *391:D 0.000126898291

*RES
1 *391:D *425:Y 16.0861
*END

*D_NET *159 0.000112772

*CONN
*I *424:Y O *C 24.14 25.235 *L 0 *D AOI211XL
*I *396:D I *C 24.17 26.435 *L 0.00021 *D DFFQXL

*CAP
1 *396:D 5.63859961e-05
2 *159:2 5.63859961e-05

*RES
1 *396:D *159:2 4.22227383
2 *159:2 *424:Y 3.29994
*END

*D_NET *160 9.66787e-05

*CONN
*I *423:Y O *C 18.74 21.815 *L 0 *D AOI211XL
*I *401:D I *C 19.17 23.015 *L 0.00021 *D DFFQXL

*CAP
1 *423:Y 1.48415e-05
2 *401:D 3.34979e-05
3 *160:2 4.83393652e-05

*RES
1 *401:D *160:2 4.14443016
2 *160:2 *423:Y 3.58894
*END

*D_NET *161 0.000168681

*CONN
*I *422:Y O *C 30.14 25.235 *L 0 *D AOI211XL
*I *394:D I *C 31.37 26.435 *L 0.00021 *D DFFQXL

*CAP
1 *422:Y 8.43405762e-05
2 *394:D 8.43405762e-05

*RES
1 *394:D *422:Y 8.5268
*END

*D_NET *162 0.000208974

*CONN
*I *421:Y O *C 18.54 26.065 *L 0 *D AOI211XL
*I *393:D I *C 19.77 28.285 *L 0.00021 *D DFFQXL

*CAP
1 *421:Y 4.54188e-05
2 *393:D 5.90682e-05
3 *162:2 0.000104486943

*RES
1 *393:D *162:2 4.22227
2 *162:2 *421:Y 4.53519821
*END

*D_NET *163 0.000302076

*CONN
*I *420:Y O *C 34.74 25.235 *L 0 *D AOI211XL
*I *402:D I *C 37.77 26.435 *L 0.00021 *D DFFQXL

*CAP
1 *420:Y 0.000151038174
2 *402:D 0.000151038174

*RES
1 *402:D *420:Y 16.4591
*END

*D_NET *164 0.000156999

*CONN
*I *419:Y O *C 37.14 19.225 *L 0 *D AOI211XL
*I *399:D I *C 37.97 18.025 *L 0.00021 *D DFFQXL

*CAP
1 *419:Y 7.84993164e-05
2 *399:D 7.84993164e-05

*RES
1 *399:D *419:Y 8.10254
*END

*D_NET *165 0.00038898

*CONN
*I *418:Y O *C 16.94 14.975 *L 0 *D AOI211XL
*I *398:D I *C 17.97 9.335 *L 0.00021 *D DFFQXL

*CAP
1 *418:Y 0.000194489961
2 *398:D 0.000194489961

*RES
1 *398:D *418:Y 10.9699
*END

*D_NET *166 0.000376821

*CONN
*I *417:Y O *C 27.54 28.655 *L 0 *D AOI211XL
*I *395:D I *C 31.37 28.285 *L 0.00021 *D DFFQXL

*CAP
1 *395:D 0.00016594
2 *417:Y 2.24707e-05
3 *166:2 0.000188410273

*RES
1 *166:2 *417:Y 6.8051
2 *395:D *166:2 9.78302956
*END

*D_NET *167 0.000217795

*CONN
*I *416:Y O *C 18.14 14.975 *L 0 *D AOI211XL
*I *397:D I *C 19.37 12.755 *L 0.00021 *D DFFQXL

*CAP
1 *416:Y 0.000108897686
2 *397:D 0.000108897686

*RES
1 *397:D *416:Y 8.55029
*END

*D_NET *168 0.000144005

*CONN
*I *415:Y O *C 21.14 8.965 *L 0 *D AOI211XL
*I *400:D I *C 22.17 7.765 *L 0.00021 *D DFFQXL

*CAP
1 *415:Y 7.20024121e-05
2 *400:D 7.20024121e-05

*RES
1 *400:D *415:Y 8.34024
*END

*D_NET *169 0.000118852

*CONN
*I *414:Y O *C 27.34 32.075 *L 0 *D AOI211XL
*I *392:D I *C 27.57 33.275 *L 0.00021 *D DFFQXL

*CAP
1 *414:Y 1.71663e-05
2 *392:D 4.22596e-05
3 *169:2 5.94258301e-05

*RES
1 *392:D *169:2 4.22227383
2 *169:2 *414:Y 3.80376
*END

*D_NET *170 0.000690699

*CONN
*I *411:Y O *C 27.17 14.32 *L 0 *D OAI22X1
*I *382:A0 I *C 32.5 14.725 *L 0.000391 *D OAI211X1

*CAP
1 *382:A0 9.78113e-05
2 *411:Y 0.000127554
3 *170:2 0.000225365156
4 *170:2 *411:A1 8.61883203e-05
5 *382:A0 *376:A0 0.00015377998

*RES
1 *170:2 *411:Y 9.68849659
2 *382:A0 *170:2 8.80785
*END

*D_NET *171 0.00105381

*CONN
*I *502:Y O *C 30.355 11.16 *L 0 *D NAND2X1
*I *411:A1 I *C 26.7 14.535 *L 0.000391 *D OAI22X1
*I *410:A1 I *C 24.1 14.535 *L 0.000391 *D OAI22X1
*I *405:A1 I *C 22.7 14.535 *L 0.000391 *D OAI22X1

*CAP
1 *502:Y 2.54497e-05
2 *411:A1 2.66443e-05
3 *410:A1 2.539e-05
4 *405:A1 5.33441e-05
5 *171:4 0.000232994
6 *171:5 0.000279605391
7 *171:6 0.000124155
8 *411:A1 *409:B0 0.000200033184
9 *411:A1 *170:2 8.61883203e-05

*RES
1 *405:A1 *171:6 7.96865
2 *171:6 *171:5 1.72361
3 *410:A1 *171:6 6.84999
4 *171:5 *171:4 15.2543783
5 *411:A1 *171:5 7.14467
6 *171:4 *502:Y 3.7149
*END

*D_NET *172 0.000723422

*CONN
*I *410:Y O *C 24.57 14.32 *L 0 *D OAI22X1
*I *383:A1 I *C 30.04 14.56 *L 0.000391 *D OAI21X1

*CAP
1 *410:Y 0.000202238555
2 *383:A1 0.000202238555
3 *383:A1 *382:A1 0.000101029873
4 *383:A1 *173:8 0.00021791459

*RES
1 *383:A1 *410:Y 21.4709
*END

*D_NET *173 0.00115633

*CONN
*I *504:Y O *C 30.555 12.78 *L 0 *D NAND2X1
*I *481:B I *C 28.7 13.205 *L 0.000392 *D NAND2X1
*I *410:B1 I *C 24.5 14.725 *L 0.000392 *D OAI22X1
*I *409:B1 I *C 28.3 14.725 *L 0.000392 *D OAI22X1
*I *405:B1 I *C 23.1 14.725 *L 0.000392 *D OAI22X1

*CAP
1 *504:Y 1.76424e-05
2 *410:B1 2.1577e-05
3 *405:B1 6.55063e-05
4 *173:5 9.18497e-05
5 *173:6 0.000148534775
6 *173:7 0.000110208
7 *173:8 0.000122964
8 *173:8 *383:A1 0.00021791459
9 *173:7 *409:B0 0.000278115273
10 *173:6 *64:10 8.20159961e-05

*RES
1 *405:B1 *173:8 7.99143
2 *410:B1 *173:8 6.84984
3 *173:8 *173:7 9.53304768
4 *409:B1 *173:7 3.29997
5 *173:7 *173:6 1.68053
6 *173:6 *173:5 8.13544
7 *481:B *173:6 3.29997
8 *173:5 *504:Y 3.57242
*END

*D_NET *174 0.000532091

*CONN
*I *409:Y O *C 28.37 14.32 *L 0 *D OAI22X1
*I *382:A1 I *C 32.7 14.535 *L 0.000391 *D OAI211X1

*CAP
1 *409:Y 0.000215530391
2 *382:A1 0.000215530391
3 *382:A1 *383:A1 0.000101029873

*RES
1 *382:A1 *409:Y 17.6562
*END

*D_NET *175 0.00101578

*CONN
*I *439:Y O *C 32.78 25.05 *L 0 *D AOI21X1
*I *413:A I *C 27.9 20.995 *L 0.000212 *D NAND4XL
*I *406:B1 I *C 28.5 18.145 *L 0.000392 *D OAI22X1
*I *319:B0 I *C 33.3 23.085 *L 0.000212 *D AOI21XL

*CAP
1 *319:B0 3.17702e-05
2 *439:Y 3.57616e-05
3 *406:B1 7.45064e-05
4 *413:A 6.73611e-06
5 *175:4 7.71866e-05
6 *175:5 3.61804e-05
7 *175:6 0.000126659
8 *175:7 0.000198066
9 *175:8 0.000211119648
10 *175:7 *313:A1 0.000113487246
11 *175:6 *318:A1 0.000104308125

*RES
1 *175:8 *175:7 11.5513802
2 *413:A *175:8 3.43143
3 *406:B1 *175:6 4.71848
4 *175:6 *175:8 7.45245
5 *175:5 *175:7 3.33625
6 *175:7 *175:4 0.744523
7 *175:4 *439:Y 3.9128
8 *319:B0 *175:5 0.976833
*END

*D_NET *176 0.000898361

*CONN
*I *503:Y O *C 28.755 11.16 *L 0 *D NAND2X1
*I *481:A I *C 28.5 12.825 *L 0.00039 *D NAND2X1
*I *409:A1 I *C 27.9 14.535 *L 0.000391 *D OAI22X1
*I *406:A1 I *C 28.1 17.955 *L 0.000391 *D OAI22X1
*I *404:A1 I *C 29.5 17.955 *L 0.000391 *D OAI22X1

*CAP
1 *404:A1 8.33877e-05
2 *503:Y 7.40287e-05
3 *176:5 8.881e-05
4 *176:6 0.000197111
5 *176:7 0.00016868
6 *176:8 0.000286340723

*RES
1 *176:8 *176:7 1.90498
2 *409:A1 *176:8 3.30001
3 *176:6 *176:8 3.2566
4 *176:5 *176:6 3.33637
5 *406:A1 *176:6 3.30001
6 *176:7 *503:Y 4.36589
7 *481:A *176:7 3.30001
8 *404:A1 *176:5 7.96866417
*END

*D_NET *177 0.00134039

*CONN
*I *444:Y O *C 30.58 31.89 *L 0 *D AOI21X1
*I *408:A I *C 27.5 20.045 *L 0.000212 *D NAND4XL
*I *406:A0 I *C 27.945 18.185 *L 0.000392 *D OAI22X1
*I *311:B0 I *C 30.9 23.085 *L 0.000212 *D AOI21XL

*CAP
1 *311:B0 6.46736e-05
2 *444:Y 3.58261e-05
3 *406:A0 4.52959e-05
4 *408:A 1.62698e-05
5 *177:4 0.000253323
6 *177:5 0.000531792656
7 *177:6 0.000311196
8 *177:5 *90:3 8.20159961e-05

*RES
1 *177:6 *177:5 14.9189234
2 *408:A *177:6 3.54602
3 *406:A0 *177:6 4.34983
4 *177:5 *177:4 13.6434
5 *177:4 *444:Y 7.01669
6 *311:B0 *177:5 7.38662
*END

*D_NET *178 0.000353456

*CONN
*I *406:Y O *C 28.57 17.74 *L 0 *D OAI22X1
*I *386:A I *C 29.17 14.49 *L 0.000212 *D NOR2XL

*CAP
1 *406:Y 0.000176727773
2 *386:A 0.000176727773

*RES
1 *386:A *406:Y 9.91106
*END

*D_NET *179 0.000584126

*CONN
*I *440:Y O *C 18.98 14.79 *L 0 *D AOI21X1
*I *412:B I *C 20.54 14.3475 *L 0.000212 *D NAND4XL
*I *405:B0 I *C 23.3 14.535 *L 0.000392 *D OAI22X1
*I *308:B0 I *C 20.9 16.245 *L 0.000212 *D AOI21XL

*CAP
1 *405:B0 0.000127733
2 *308:B0 1.22196e-05
3 *440:Y 7.49246e-05
4 *179:4 0.000217139727
5 *179:5 0.000152112

*RES
1 *179:5 *440:Y 11.3157
2 *412:B *179:5 3.29993
3 *179:4 *179:5 1.40983
4 *308:B0 *179:4 3.57248
5 *405:B0 *179:4 12.5348568
*END

*D_NET *180 0.00089097

*CONN
*I *442:Y O *C 18.58 19.41 *L 0 *D AOI21X1
*I *407:B I *C 22.74 17.7675 *L 0.000212 *D NAND4XL
*I *405:A0 I *C 22.545 14.765 *L 0.000392 *D OAI22X1
*I *322:B0 I *C 23.3 19.665 *L 0.000212 *D AOI21XL

*CAP
1 *322:B0 5.25103e-05
2 *407:B 1.68674e-05
3 *442:Y 0.00015408
4 *405:A0 0.000146985
5 *180:4 0.000281631953
6 *180:5 0.000238894

*RES
1 *405:A0 *180:5 6.3574
2 *180:5 *180:4 11.4426613
3 *180:4 *442:Y 10.0404
4 *407:B *180:5 3.64777
5 *322:B0 *180:4 7.43958
*END

*D_NET *181 0.00069654

*CONN
*I *405:Y O *C 23.17 14.32 *L 0 *D OAI22X1
*I *386:B I *C 29.405 14.57 *L 0.000212 *D NOR2XL

*CAP
1 *386:B 4.5777e-05
2 *405:Y 0.000302493
3 *181:2 0.000348269922

*RES
1 *181:2 *405:Y 16.0506973
2 *386:B *181:2 4.14444
*END

*D_NET *182 0.00110304

*CONN
*I *513:Y O *C 29.955 12.78 *L 0 *D NAND2X1
*I *411:B0 I *C 27.3 14.535 *L 0.000392 *D OAI22X1
*I *406:B0 I *C 28.7 17.955 *L 0.000392 *D OAI22X1
*I *404:B0 I *C 30.1 17.955 *L 0.000392 *D OAI22X1
*I *374:A0N I *C 26.845 12.56 *L 0.000209 *D OAI2BB1X1

*CAP
1 *404:B0 7.65919e-05
2 *406:B0 2.384e-05
3 *513:Y 6.52094e-05
4 *411:B0 8.76198e-05
5 *374:A0N 8.40243e-06
6 *182:5 0.000255286699
7 *182:6 7.09902e-05
8 *182:7 0.000246822
9 *182:8 0.000182212
10 *182:5 *220:8 8.60691113e-05

*RES
1 *182:8 *182:7 5.07505
2 *374:A0N *182:8 6.73143
3 *411:B0 *182:8 5.12613
4 *182:6 *513:Y 7.62137
5 *182:7 *182:6 0.113335
6 *182:5 *182:7 11.0858679
7 *406:B0 *182:5 6.82497
8 *404:B0 *182:5 7.82131
*END

*D_NET *183 0.000352859

*CONN
*I *404:Y O *C 29.97 17.74 *L 0 *D OAI22X1
*I *383:A0 I *C 29.825 14.4 *L 0.000391 *D OAI21X1

*CAP
1 *383:A0 6.5088e-05
2 *404:Y 0.000111342
3 *183:2 0.000176429746

*RES
1 *183:2 *404:Y 5.37133217
2 *383:A0 *183:2 4.5096
*END

*D_NET *184 0.000119567

*CONN
*I *289:A I *C 21.9 14.535 *L 0.00021 *D BUFX2
*I *412:Y O *C 21.14 14.75 *L 0 *D NAND4XL

*CAP
1 *412:Y 5.9783457e-05
2 *289:A 5.9783457e-05

*RES
1 *289:A *412:Y 7.72679
*END

*D_NET *185 0.000225663

*CONN
*I *413:Y O *C 28.74 21.59 *L 0 *D NAND4XL
*I *288:A I *C 26.5 21.375 *L 0.00021 *D BUFX2

*CAP
1 *413:Y 1.30539e-05
2 *288:A 9.97777e-05
3 *185:2 0.000112831592

*RES
1 *288:A *185:2 11.700511
2 *185:2 *413:Y 3.5725
*END

*D_NET *186 0.000498652

*CONN
*I *386:Y O *C 29.525 14.825 *L 0 *D NOR2XL
*I *376:A0 I *C 32.5 13.015 *L 0.000211 *D AO22XL

*CAP
1 *386:Y 0.00017243623
2 *376:A0 0.00017243623
3 *376:A0 *382:A0 0.00015377998

*RES
1 *376:A0 *386:Y 16.9913
*END

*D_NET *187 0.000139475

*CONN
*I *384:Y O *C 24.12 9.04 *L 0 *D NAND2BXL
*I *380:B I *C 22.5 9.405 *L 0.00021 *D AND2XL

*CAP
1 *384:Y 1.25769e-05
2 *380:B 5.71605e-05
3 *187:2 6.97374365e-05

*RES
1 *380:B *187:2 7.78448582
2 *187:2 *384:Y 0.485343
*END

*D_NET *188 0.00104105

*CONN
*I *542:Y O *C 37.33 12.39 *L 0 *D INVX1
*I *492:B1 I *C 35.7 11.115 *L 0.000212 *D OAI22XL
*I *483:A1 I *C 36.57 11.18 *L 0.000212 *D OAI22XL
*I *383:B0 I *C 30.195 14.71 *L 0.000393 *D OAI21X1
*I *382:C0 I *C 33.185 14.535 *L 0.000392 *D OAI211X1

*CAP
1 *542:Y 1.63312e-05
2 *483:A1 6.11541e-05
3 *492:B1 7.52197e-05
4 *382:C0 2.46148e-05
5 *383:B0 0.000142815
6 *188:5 2.03862e-05
7 *188:6 0.000156043
8 *188:7 0.000148
9 *188:8 0.000291705137
10 *492:B1 *492:A1 0.000104784961

*RES
1 *383:B0 *188:8 12.8033161
2 *188:8 *188:7 6.68005
3 *382:C0 *188:8 6.84044
4 *492:B1 *188:6 11.5112
5 *483:A1 *188:6 4.38473
6 *188:6 *188:7 0.476295
7 *188:5 *542:Y 0.485282
8 *188:7 *188:5 3.33622
*END

*D_NET *189 0.000115395

*CONN
*I *286:A I *C 24.1 17.955 *L 0.00021 *D BUFX2
*I *407:Y O *C 23.34 18.17 *L 0 *D NAND4XL

*CAP
1 *407:Y 5.76972949e-05
2 *286:A 5.76972949e-05

*RES
1 *286:A *407:Y 7.72679
*END

*D_NET *190 0.000140309

*CONN
*I *380:Y O *C 23.13 9.075 *L 0 *D AND2XL
*I *367:A1 I *C 23.1 11.115 *L 0.000391 *D OAI22X1

*CAP
1 *367:A1 4.11872e-05
2 *380:Y 2.89675e-05
3 *190:2 7.0154668e-05

*RES
1 *190:2 *380:Y 3.77487
2 *367:A1 *190:2 4.15229797
*END

*D_NET *191 0.000423193

*CONN
*I *385:Y O *C 25.915 12.95 *L 0 *D NOR2X1
*I *379:AN I *C 27.34 11.38 *L 0.00021 *D NAND2BXL
*I *378:B I *C 27.5 13.205 *L 0.000392 *D NAND2X1

*CAP
1 *385:Y 0.000113488
2 *379:AN 9.8109e-05
3 *191:3 0.000211596484

*RES
1 *379:AN *191:3 5.18279
2 *191:3 *385:Y 11.6665363
3 *378:B *191:3 3.29991
*END

*D_NET *192 0.000167489

*CONN
*I *378:Y O *C 27.755 12.78 *L 0 *D NAND2X1
*I *374:A1N I *C 27.1 13.015 *L 0.00021 *D OAI2BB1X1

*CAP
1 *378:Y 5.56712e-05
2 *374:A1N 2.80733e-05
3 *192:2 8.37445215e-05

*RES
1 *374:A1N *192:2 6.99453
2 *192:2 *378:Y 7.15613365
*END

*D_NET *193 0.000527263

*CONN
*I *381:Y O *C 23.12 12.365 *L 0 *D NAND2BX1
*I *377:B I *C 25.375 9.175 *L 0.000392 *D NOR2X1
*I *362:B0 I *C 25.665 11.155 *L 0.00039 *D OAI2BB1X1

*CAP
1 *381:Y 0.000169933
2 *377:B 9.3698e-05
3 *193:3 0.000263631348

*RES
1 *377:B *193:3 4.92525
2 *193:3 *381:Y 12.8618479
3 *362:B0 *193:3 6.6001
*END

*D_NET *194 0.000355363

*CONN
*I *383:Y O *C 30.365 14.83 *L 0 *D OAI21X1
*I *376:A1 I *C 32.7 13.395 *L 0.000211 *D AO22XL
*I *338:B0 I *C 32.1 14.535 *L 0.000389 *D AOI32X1

*CAP
1 *376:A1 4.51802e-05
2 *383:Y 8.20748e-05
3 *338:B0 5.04265e-05
4 *194:3 0.000177681445

*RES
1 *338:B0 *194:3 7.27139
2 *194:3 *383:Y 8.15486908
3 *376:A1 *194:3 7.3356
*END

*D_NET *195 0.000189066

*CONN
*I *376:Y O *C 33.71 12.69 *L 0 *D AO22XL
*I *372:A I *C 34.365 12.57 *L 0.00021 *D AND2X1

*CAP
1 *376:Y 9.45329688e-05
2 *372:A 9.45329688e-05

*RES
1 *372:A *376:Y 20.8428
*END

*D_NET *196 0.000436306

*CONN
*I *284:A I *C 31.1 17.955 *L 0.00021 *D BUFX2
*I *408:Y O *C 28.34 19.45 *L 0 *D NAND4XL

*CAP
1 *408:Y 0.000155329707
2 *284:A 0.000155329707
3 *284:A *3:5 0.000125646592

*RES
1 *284:A *408:Y 16.602
*END

*D_NET *197 0.000352263

*CONN
*I *379:Y O *C 26.92 11.48 *L 0 *D NAND2BXL
*I *375:AN I *C 24.9 11.115 *L 0.00021 *D NOR2BX1
*I *368:A1N I *C 25.3 13.015 *L 0.00021 *D OAI2BB1X1

*CAP
1 *368:A1N 6.62214e-05
2 *379:Y 9.12553e-05
3 *375:AN 1.64502e-05
4 *197:3 9.34600781e-05
5 *197:4 8.48763e-05

*RES
1 *375:AN *197:4 3.5461
2 *197:4 *197:3 3.33633
3 *197:3 *379:Y 8.18789005
4 *368:A1N *197:4 4.78547
*END

*D_NET *198 0.000121474

*CONN
*I *375:Y O *C 24.52 10.785 *L 0 *D NOR2BX1
*I *367:B1 I *C 23.5 11.305 *L 0.000392 *D OAI22X1

*CAP
1 *375:Y 2.11002e-05
2 *367:B1 3.96369e-05
3 *198:2 6.07371338e-05

*RES
1 *367:B1 *198:2 4.1693449
2 *198:2 *375:Y 3.64767
*END

*D_NET *199 0.000129819

*CONN
*I *377:Y O *C 25.515 9.53 *L 0 *D NOR2X1
*I *373:B I *C 25.965 9.525 *L 0.000392 *D NOR2BX1
*I *371:B I *C 26.7 9.785 *L 0.000392 *D NAND2X1

*CAP
1 *371:B 3.61209e-05
2 *377:Y 2.07421e-05
3 *373:B 8.04646e-06
4 *199:3 6.4909458e-05

*RES
1 *373:B *199:3 3.40196
2 *199:3 *377:Y 3.64398
3 *371:B *199:3 4.13155556
*END

*D_NET *200 0.000127792

*CONN
*I *458:Y O *C 26.58 7.95 *L 0 *D AOI21X1
*I *373:AN I *C 26.3 9.405 *L 0.00021 *D NOR2BX1
*I *371:A I *C 26.5 9.405 *L 0.00039 *D NAND2X1

*CAP
1 *200:3 6.38961816e-05
2 *200:4 6.38961816e-05

*RES
1 *373:AN *200:4 0.499983
2 *200:3 *458:Y 3.29993
3 *200:4 *200:3 4.20951843
4 *371:A *200:4 0.499983
*END

*D_NET *201 0.000233054

*CONN
*I *369:Y O *C 34.13 8.97 *L 0 *D INVX1
*I *345:A0 I *C 32.3 9.405 *L 0.000392 *D OAI221X1

*CAP
1 *369:Y 1.93723e-05
2 *345:A0 9.71548e-05
3 *201:2 0.00011652708

*RES
1 *345:A0 *201:2 12.2345686
2 *201:2 *369:Y 0.491541
*END

*D_NET *202 0.000403643

*CONN
*I *374:Y O *C 26.535 12.34 *L 0 *D OAI2BB1X1
*I *368:B0 I *C 24.865 12.785 *L 0.00039 *D OAI2BB1X1
*I *362:A0N I *C 25.845 11.38 *L 0.000209 *D OAI2BB1X1

*CAP
1 *374:Y 4.76721e-06
2 *362:A0N 9.42356e-05
3 *368:B0 0.000102818
4 *202:3 0.000201821328

*RES
1 *368:B0 *202:3 8.86404514
2 *362:A0N *202:3 8.58826
3 *202:3 *374:Y 3.33633
*END

*D_NET *203 5.59092e-05

*CONN
*I *368:Y O *C 24.735 12.34 *L 0 *D OAI2BB1X1
*I *365:B I *C 23.975 12.595 *L 0.000392 *D NOR2X1

*CAP
1 *365:B 2.79545776e-05
2 *203:2 2.79545776e-05

*RES
1 *365:B *203:2 7.00116158
2 *203:2 *368:Y 0.499961
*END

*D_NET *204 0.000233889

*CONN
*I *387:Y O *C 22.715 12.95 *L 0 *D NOR2X1
*I *381:B I *C 22.9 13.015 *L 0.000392 *D NAND2BX1
*I *367:A0 I *C 22.945 11.345 *L 0.000392 *D OAI22X1
*I *365:A I *C 23.7 13.015 *L 0.000392 *D NOR2X1

*CAP
1 *365:A 4.34515e-05
2 *367:A0 6.89621e-05
3 *204:4 4.53073e-06
4 *204:5 0.000116944316

*RES
1 *367:A0 *204:5 4.5412
2 *204:4 *387:Y 0.500055
3 *204:5 *204:4 3.33627
4 *381:B *204:4 0.500055
5 *365:A *204:5 7.66587257
*END

*D_NET *205 0.000242829

*CONN
*I *367:Y O *C 23.57 10.9 *L 0 *D OAI22X1
*I *362:A1N I *C 26.1 10.925 *L 0.00021 *D OAI2BB1X1

*CAP
1 *367:Y 0.000121414658
2 *362:A1N 0.000121414658

*RES
1 *362:A1N *367:Y 15.6208
*END

*D_NET *206 0.000534415

*CONN
*I *545:AN I *C 26.7 5.985 *L 0.00021 *D NOR2BX1
*I *371:Y O *C 26.955 9.36 *L 0 *D NAND2X1
*I *366:B0 I *C 30.14 7.76 *L 0.000798 *D OAI21X2

*CAP
1 *366:B0 5.06052e-05
2 *206:3 0.000146805
3 *206:4 0.0001204
4 *206:5 0.000216603281

*RES
1 *545:AN *206:5 0.499956
2 *206:5 *206:4 5.62657
3 *206:4 *371:Y 3.2999
4 *366:B0 *206:3 4.57384
5 *206:3 *206:5 7.02059269
*END

*D_NET *207 0.000398994

*CONN
*I *370:Y O *C 31.53 11.55 *L 0 *D INVX1
*I *363:A0 I *C 30.9 9.785 *L 0.000391 *D AOI21X1
*I *359:B1 I *C 31.74 12.75 *L 0.000392 *D AOI22X1
*I *338:B1 I *C 31.9 14.155 *L 0.000392 *D AOI32X1

*CAP
1 *338:B1 7.397e-05
2 *363:A0 4.97108e-05
3 *370:Y 7.58171e-05
4 *207:4 0.000132441523
5 *207:5 6.70544e-05

*RES
1 *207:5 *370:Y 0.485305
2 *363:A0 *207:5 7.36737251
3 *359:B1 *207:4 6.60001
4 *207:4 *370:Y 4.63811
5 *338:B1 *207:4 4.63811
*END

*D_NET *208 0.000232816

*CONN
*I *358:Y O *C 28.94 9.695 *L 0 *D NAND2XL
*I *348:B I *C 30.5 9.595 *L 0.000209 *D MX2XL

*CAP
1 *358:Y 7.49230371e-05
2 *348:B 7.49230371e-05
3 *348:B *363:A1 8.2969668e-05

*RES
1 *348:B *358:Y 14.8348
*END

*D_NET *209 0.00142479

*CONN
*I *446:Y O *C 16.38 21.63 *L 0 *D AOI21X1
*I *410:A0 I *C 23.945 14.765 *L 0.000392 *D OAI22X1
*I *407:C I *C 22.94 17.8775 *L 0.000211 *D NAND4XL
*I *355:B0 I *C 24.565 16.365 *L 0.000389 *D AOI22X1
*I *314:B0 I *C 20.9 21.375 *L 0.000212 *D AOI21XL

*CAP
1 *410:A0 0.00010723
2 *407:C 7.40301e-05
3 *314:B0 4.64938e-05
4 *446:Y 0.000115217
5 *209:5 0.000195204
6 *209:6 0.000376820547
7 *209:7 0.000347318
8 *209:8 6.3778e-05
9 *209:5 *220:10 9.8705293e-05

*RES
1 *209:8 *209:7 6.74922
2 *209:7 *446:Y 9.26028
3 *314:B0 *209:8 1.46832
4 *407:C *209:6 7.58834
5 *209:6 *209:7 12.1315718
6 *410:A0 *209:5 5.22759
7 *355:B0 *209:5 6.60002
8 *209:5 *209:6 5.73554
*END

*D_NET *210 0.00107217

*CONN
*I *459:Y O *C 19.58 9.15 *L 0 *D AOI21X1
*I *412:C I *C 20.74 14.4575 *L 0.000211 *D NAND4XL
*I *410:B0 I *C 24.7 14.535 *L 0.000392 *D OAI22X1
*I *355:A0 I *C 23.7 16.435 *L 0.000391 *D AOI22X1
*I *316:B0 I *C 22.3 16.245 *L 0.000212 *D AOI21XL

*CAP
1 *410:B0 0.000114263
2 *355:A0 3.45112e-05
3 *316:B0 1.16248e-05
4 *412:C 2.03867e-05
5 *459:Y 0.000161351
6 *210:5 5.93048e-05
7 *210:6 0.000147581
8 *210:7 0.000283420078
9 *210:8 0.000239732

*RES
1 *210:8 *459:Y 7.60527
2 *412:C *210:8 3.71196
3 *210:7 *210:8 4.60634
4 *316:B0 *210:6 3.40208
5 *210:6 *210:7 12.1028423
6 *210:5 *210:6 3.75924
7 *355:A0 *210:5 1.26558
8 *410:B0 *210:7 9.06531
*END

*D_NET *211 0.000606179

*CONN
*I *355:Y O *C 24.355 15.775 *L 0 *D AOI22X1
*I *341:A1 I *C 29.425 15.99 *L 0.000391 *D OAI221X1

*CAP
1 *355:Y 0.000236690039
2 *341:A1 0.000236690039
3 *341:A1 *341:B0 0.00013279915

*RES
1 *341:A1 *355:Y 18.0187
*END

*D_NET *212 0.00149226

*CONN
*I *463:Y O *C 32.98 28.47 *L 0 *D AOI21X1
*I *408:C I *C 27.94 19.7425 *L 0.000211 *D NAND4XL
*I *404:A0 I *C 29.345 18.185 *L 0.000392 *D OAI22X1
*I *354:B0 I *C 29.965 19.785 *L 0.000389 *D AOI22X1
*I *313:B0 I *C 31.9 23.085 *L 0.000212 *D AOI21XL

*CAP
1 *313:B0 4.9772e-05
2 *463:Y 0.00022453
3 *354:B0 3.9041e-05
4 *404:A0 6.65794e-05
5 *408:C 7.95708e-05
6 *212:5 0.000398218633
7 *212:6 0.000205578
8 *212:7 0.00018877
9 *404:A0 *213:8 0.000143051152
10 *212:5 *297:D 9.71555664e-05

*RES
1 *408:C *212:7 7.67864
2 *212:7 *212:6 0.665058
3 *404:A0 *212:7 8.14786
4 *212:6 *212:5 10.048
5 *354:B0 *212:6 7.0166
6 *212:5 *463:Y 19.7755089
7 *313:B0 *212:5 7.2921
*END

*D_NET *213 0.00116539

*CONN
*I *447:Y O *C 35.18 19.41 *L 0 *D AOI21X1
*I *413:C I *C 28.34 21.2975 *L 0.000211 *D NAND4XL
*I *404:B1 I *C 29.9 18.145 *L 0.000392 *D OAI22X1
*I *354:A0 I *C 29.1 19.855 *L 0.000391 *D AOI22X1
*I *317:B0 I *C 33.3 21.375 *L 0.000212 *D AOI21XL

*CAP
1 *447:Y 7.83795e-05
2 *317:B0 1.53776e-05
3 *404:B1 9.49519e-05
4 *413:C 5.07829e-05
5 *213:5 0.000156759
6 *213:6 0.00024938584
7 *213:7 0.000132621
8 *213:8 0.000244081
9 *213:8 *404:A0 0.000143051152

*RES
1 *413:C *213:8 10.7411146
2 *213:7 *213:8 0.710327
3 *213:8 *213:6 7.2039
4 *354:A0 *213:7 3.29989
5 *404:B1 *213:7 5.23518
6 *317:B0 *213:6 6.78859
7 *213:6 *213:5 5.15634
8 *213:5 *447:Y 8.16188
*END

*D_NET *214 0.000383377

*CONN
*I *354:Y O *C 29.755 19.195 *L 0 *D AOI22X1
*I *341:B1 I *C 29.7 16.245 *L 0.00039 *D OAI221X1

*CAP
1 *354:Y 0.000125052
2 *341:B1 6.66369e-05
3 *214:2 0.000191688535

*RES
1 *341:B1 *214:2 4.22228
2 *214:2 *354:Y 9.22310352
*END

*D_NET *215 0.00115204

*CONN
*I *441:Y O *C 20.38 26.25 *L 0 *D AOI21X1
*I *407:A I *C 22.5 17.575 *L 0.000212 *D NAND4XL
*I *353:B0 I *C 25.7 17.955 *L 0.000392 *D OAI22X1
*I *321:B0 I *C 20.7 23.085 *L 0.000212 *D AOI21XL

*CAP
1 *353:B0 0.000144183
2 *407:A 9.83641e-06
3 *441:Y 0.000120701
4 *321:B0 3.01578e-05
5 *215:4 0.000149485
6 *215:5 0.000280977
7 *215:6 0.000416696055

*RES
1 *321:B0 *215:6 3.64775
2 *215:6 *441:Y 5.68924
3 *215:5 *215:6 12.0913982
4 *215:4 *215:5 3.33632
5 *407:A *215:5 3.39203
6 *353:B0 *215:4 9.28441
*END

*D_NET *216 0.00117332

*CONN
*I *437:Y O *C 17.38 18.21 *L 0 *D AOI21X1
*I *412:A I *C 20.3 14.155 *L 0.000212 *D NAND4XL
*I *353:A0 I *C 24.945 18.185 *L 0.000392 *D OAI22X1
*I *310:B0 I *C 21.9 17.955 *L 0.000212 *D AOI21XL

*CAP
1 *353:A0 0.000182211
2 *310:B0 6.05579e-05
3 *412:A 6.01998e-05
4 *437:Y 7.30762e-05
5 *216:4 0.000104069
6 *216:5 0.000168324
7 *216:6 0.000260770313
8 *216:5 *8:93 2.01464e-05
9 *216:5 *8:97 2.92659e-05
10 *216:5 *298:CK 3.27826e-06
11 *216:5 *8:101 1.56164e-05
12 *310:B0 *8:93 3.48686801e-05
13 *353:A0 *276:9 0.000160932539

*RES
1 *216:6 *216:5 3.97706
2 *216:5 *437:Y 9.1017
3 *216:4 *216:6 1.03198
4 *412:A *216:4 4.36592
5 *310:B0 *216:5 8.27107
6 *353:A0 *216:6 17.7838802
*END

*D_NET *217 0.000178576

*CONN
*I *353:Y O *C 25.57 17.74 *L 0 *D OAI22X1
*I *346:A1 I *C 26.3 17.575 *L 0.000392 *D AOI22X1

*CAP
1 *353:Y 8.92877539e-05
2 *346:A1 8.92877539e-05

*RES
1 *346:A1 *353:Y 14.2063
*END

*D_NET *218 0.00198817

*CONN
*I *365:Y O *C 24.115 12.95 *L 0 *D NOR2X1
*I *364:A I *C 28.1 13.015 *L 0.000395 *D INVX1
*I *359:A1 I *C 31.3 13.205 *L 0.000392 *D AOI22X1
*I *355:A1 I *C 23.9 16.625 *L 0.000392 *D AOI22X1
*I *354:A1 I *C 29.3 20.045 *L 0.000392 *D AOI22X1
*I *353:B1 I *C 25.5 18.145 *L 0.000392 *D OAI22X1
*I *352:B1 I *C 26.7 19.475 *L 0.000392 *D OAI22X1
*I *343:A0 I *C 25.3 16.435 *L 0.000391 *D AOI22X1

*CAP
1 *359:A1 0.000149369
2 *354:A1 0.00015199
3 *364:A 5.92455e-05
4 *352:B1 1.4604e-05
5 *343:A0 1.07909e-05
6 *355:A1 5.2927e-05
7 *365:Y 7.38989e-06
8 *218:8 0.000360071641
9 *218:9 0.000238894
10 *218:10 0.000165286
11 *218:11 0.000186264
12 *218:12 0.000254987
13 *218:13 0.000231565
14 *354:A1 *354:B1 0.000104784961

*RES
1 *218:13 *218:12 1.80609
2 *218:12 *365:Y 3.43144
3 *355:A1 *218:13 4.49438
4 *218:11 *218:13 8.20584
5 *343:A0 *218:11 3.57594
6 *353:B1 *218:10 3.29989
7 *218:10 *218:11 2.03736
8 *352:B1 *218:9 6.78863
9 *218:9 *218:10 5.02394
10 *218:8 *218:12 6.65503
11 *364:A *218:8 7.44767
12 *354:A1 *218:9 9.27276
13 *359:A1 *218:8 9.65368748
*END

*D_NET *219 0.000923157

*CONN
*I *443:Y O *C 21.58 25.05 *L 0 *D AOI21X1
*I *408:B I *C 27.74 19.8525 *L 0.000212 *D NAND4XL
*I *352:B0 I *C 26.9 19.665 *L 0.000392 *D OAI22X1
*I *315:B0 I *C 24.3 21.375 *L 0.000212 *D AOI21XL

*CAP
1 *408:B 3.6237e-05
2 *352:B0 1.84165e-05
3 *315:B0 3.09964e-05
4 *443:Y 0.000191269
5 *219:4 0.000239316
6 *219:5 0.000406920898

*RES
1 *219:5 *443:Y 13.7531757
2 *315:B0 *219:5 3.95937
3 *219:4 *219:5 10.6007
4 *352:B0 *219:4 3.61772
5 *408:B *219:4 4.109
*END

*D_NET *220 0.0018661

*CONN
*I *364:Y O *C 28.33 12.39 *L 0 *D INVX1
*I *358:B I *C 28.8 9.355 *L 0.000212 *D NAND2XL
*I *355:B1 I *C 24.34 16.17 *L 0.000392 *D AOI22X1
*I *354:B1 I *C 29.74 19.59 *L 0.000392 *D AOI22X1
*I *353:A1 I *C 25.1 17.955 *L 0.000391 *D OAI22X1
*I *352:A1 I *C 26.3 19.665 *L 0.000391 *D OAI22X1
*I *343:B0 I *C 26.165 16.365 *L 0.000389 *D AOI22X1

*CAP
1 *354:B1 7.85609e-05
2 *358:B 0.000128147
3 *364:Y 8.7016e-06
4 *352:A1 1.83013e-05
5 *343:B0 6.58014e-05
6 *353:A1 1.12644e-05
7 *355:B1 2.46755e-05
8 *220:7 0.000338914
9 *220:8 0.00035887957
10 *220:9 0.000176666
11 *220:10 0.000140666
12 *220:11 0.000139773
13 *220:10 *209:5 9.8705293e-05
14 *343:B0 *227:5 8.61883203e-05
15 *220:8 *182:5 8.60691113e-05
16 *354:B1 *354:A1 0.000104784961

*RES
1 *355:B1 *220:11 4.05918
2 *220:11 *220:10 1.42107
3 *220:10 *220:9 5.54567
4 *353:A1 *220:10 3.55315
5 *343:B0 *220:11 21.1229324
6 *220:9 *220:8 1.65571
7 *352:A1 *220:9 6.75917
8 *220:8 *220:7 15.6117
9 *220:7 *364:Y 3.43132
10 *358:B *220:7 6.1629
11 *354:B1 *220:8 11.3585
*END

*D_NET *221 0.00092566

*CONN
*I *438:Y O *C 25.78 28.47 *L 0 *D AOI21X1
*I *413:B I *C 28.14 21.1875 *L 0.000212 *D NAND4XL
*I *352:A0 I *C 26.145 19.435 *L 0.000392 *D OAI22X1
*I *318:B0 I *C 27.5 21.375 *L 0.000212 *D AOI21XL

*CAP
1 *413:B 3.88021e-05
2 *318:B0 0.000131902
3 *438:Y 0.000203787
4 *352:A0 0.000127134
5 *221:4 0.000424027461

*RES
1 *352:A0 *221:4 6.35195
2 *221:4 *438:Y 8.02206993
3 *318:B0 *221:4 5.2198
4 *413:B *318:B0 7.19717
*END

*D_NET *222 0.000127435

*CONN
*I *352:Y O *C 26.77 19.88 *L 0 *D OAI22X1
*I *346:B1 I *C 26.74 18.03 *L 0.000392 *D AOI22X1

*CAP
1 *346:B1 3.74915e-05
2 *352:Y 2.62259e-05
3 *222:2 6.37173633e-05

*RES
1 *222:2 *352:Y 3.73891
2 *346:B1 *222:2 4.02188301
*END

*D_NET *223 0.0015471

*CONN
*I *462:Y O *C 28.58 29.67 *L 0 *D AOI21X1
*I *413:D I *C 28.54 21.2975 *L 0.000212 *D NAND4XL
*I *411:B1 I *C 27.1 14.725 *L 0.000392 *D OAI22X1
*I *351:B0 I *C 26.1 14.535 *L 0.000392 *D OAI22X1
*I *320:B0 I *C 26.7 23.085 *L 0.000212 *D AOI21XL

*CAP
1 *413:D 3.46326e-05
2 *462:Y 1.4303e-05
3 *411:B1 4.42837e-05
4 *320:B0 2.47941e-05
5 *351:B0 8.01661e-05
6 *223:5 0.000111938
7 *223:6 0.00024313
8 *223:7 0.000115694
9 *223:8 0.000455021875
10 *223:9 0.000337064
11 *413:D *226:6 8.60691113e-05

*RES
1 *351:B0 *223:9 7.59921
2 *223:9 *223:8 9.07292
3 *223:7 *223:8 3.43743
4 *223:8 *223:6 12.7130747
5 *320:B0 *223:7 6.84984
6 *411:B1 *223:9 7.29252
7 *223:5 *223:7 4.9158
8 *223:6 *462:Y 3.54607
9 *413:D *223:5 4.29602
*END

*D_NET *224 0.00140822

*CONN
*I *445:Y O *C 15.38 14.79 *L 0 *D AOI21X1
*I *412:D I *C 20.94 14.4575 *L 0.000212 *D NAND4XL
*I *409:B0 I *C 28.5 14.535 *L 0.000392 *D OAI22X1
*I *351:A0 I *C 25.345 14.765 *L 0.000392 *D OAI22X1
*I *309:B0 I *C 19.9 14.535 *L 0.000212 *D AOI21XL

*CAP
1 *409:B0 9.87058e-05
2 *351:A0 2.15777e-05
3 *412:D 2.90277e-05
4 *445:Y 0.000172317
5 *309:B0 1.63309e-05
6 *224:5 0.000211121
7 *224:6 0.000156106
8 *224:7 0.00022488832
9 *409:B0 *173:7 0.000278115273
10 *409:B0 *411:A1 0.000200033184

*RES
1 *309:B0 *224:7 6.78861
2 *224:7 *445:Y 10.2800131
3 *224:6 *224:7 0.816459
4 *412:D *224:6 6.94877
5 *351:A0 *224:5 6.80508
6 *224:5 *224:6 3.62097
7 *409:B0 *224:5 9.28442
*END

*D_NET *225 0.000152349

*CONN
*I *351:Y O *C 25.97 14.32 *L 0 *D OAI22X1
*I *343:A1 I *C 25.5 16.625 *L 0.000392 *D AOI22X1

*CAP
1 *351:Y 3.14707e-05
2 *343:A1 4.47041e-05
3 *225:2 7.61747363e-05

*RES
1 *343:A1 *225:2 4.26757336
2 *225:2 *351:Y 3.75881
*END

*D_NET *226 0.00110674

*CONN
*I *461:Y O *C 28.78 25.05 *L 0 *D AOI21X1
*I *409:A0 I *C 27.745 14.765 *L 0.000392 *D OAI22X1
*I *408:D I *C 28.14 19.7425 *L 0.000212 *D NAND4XL
*I *350:B0 I *C 27.7 16.245 *L 0.000392 *D OAI22X1
*I *312:B0 I *C 27.9 23.085 *L 0.000212 *D AOI21XL

*CAP
1 *461:Y 5.86491e-05
2 *408:D 2.15173e-05
3 *312:B0 3.41513e-05
4 *350:B0 1.57358e-05
5 *409:A0 5.60854e-05
6 *226:5 0.000216007
7 *226:6 0.000345706953
8 *226:7 0.00027281
9 *226:6 *413:D 8.60691113e-05

*RES
1 *409:A0 *226:7 4.14599
2 *226:7 *226:6 17.5751457
3 *350:B0 *226:7 3.48199
4 *312:B0 *226:5 3.9462
5 *226:6 *226:5 2.62302
6 *408:D *226:6 3.64772
7 *226:5 *461:Y 4.48738
*END

*D_NET *227 0.0015521

*CONN
*I *460:Y O *C 21.58 28.47 *L 0 *D AOI21X1
*I *411:A0 I *C 26.545 14.765 *L 0.000392 *D OAI22X1
*I *407:D I *C 23.14 17.8775 *L 0.000212 *D NAND4XL
*I *350:A0 I *C 26.945 16.015 *L 0.000392 *D OAI22X1
*I *307:B0 I *C 23.1 21.375 *L 0.000212 *D AOI21XL

*CAP
1 *350:A0 2.25882e-05
2 *411:A0 7.2778e-05
3 *460:Y 0.000268401
4 *307:B0 0.000447630898
5 *227:5 0.000285327
6 *227:6 0.00036919
7 *227:5 *343:B0 8.61883203e-05

*RES
1 *227:6 *307:B0 6.63382
2 *307:B0 *460:Y 12.8076077
3 *407:D *227:6 3.30001
4 *227:5 *227:6 10.4441
5 *411:A0 *227:5 4.59023
6 *350:A0 *227:5 3.95743
*END

*D_NET *228 0.000172019

*CONN
*I *350:Y O *C 27.57 16.46 *L 0 *D OAI22X1
*I *343:B1 I *C 25.94 16.17 *L 0.000392 *D AOI22X1

*CAP
1 *350:Y 2.92066e-05
2 *343:B1 5.68029e-05
3 *228:2 8.6009502e-05

*RES
1 *343:B1 *228:2 4.42647934
2 *228:2 *350:Y 3.85608
*END

*D_NET *229 0.000337481

*CONN
*I *357:Y O *C 32.355 11.16 *L 0 *D NAND2X1
*I *349:B0 I *C 32.995 11.29 *L 0.000393 *D OAI21X1
*I *345:A1 I *C 32.625 9.15 *L 0.000391 *D OAI221X1

*CAP
1 *349:B0 4.91147e-05
2 *345:A1 9.92412e-05
3 *357:Y 2.03848e-05
4 *229:3 0.000168740742

*RES
1 *229:3 *357:Y 3.64771
2 *345:A1 *229:3 5.38551
3 *349:B0 *229:3 7.49957561
*END

*D_NET *230 0.00111794

*CONN
*I *543:Y O *C 36.33 12.39 *L 0 *D INVX1
*I *504:B I *C 30.3 13.205 *L 0.000392 *D NAND2X1
*I *502:B I *C 30.1 10.735 *L 0.000392 *D NAND2X1
*I *483:B1 I *C 36.9 11.115 *L 0.000212 *D OAI22XL
*I *349:A0 I *C 32.625 10.98 *L 0.000391 *D OAI21X1
*I *345:B0 I *C 33.1 9.405 *L 0.00039 *D OAI221X1

*CAP
1 *483:B1 3.83857e-05
2 *543:Y 6.71155e-05
3 *345:B0 6.65782e-05
4 *349:A0 3.30204e-05
5 *504:B 8.35647e-05
6 *230:6 8.14794e-05
7 *230:7 0.000140309336
8 *230:8 7.41487e-05
9 *230:9 0.000111639
10 *230:10 0.000102996
11 *230:11 0.000126601
12 *230:12 9.65005e-05
13 *483:B1 *153:4 9.56058496e-05

*RES
1 *230:12 *230:11 5.37647
2 *502:B *230:12 3.2999
3 *230:10 *230:12 0.443523
4 *504:B *230:10 4.94039
5 *230:11 *230:9 0.434627
6 *349:A0 *230:11 6.84048
7 *345:B0 *230:8 4.43459
8 *230:8 *230:9 3.35716
9 *230:9 *230:7 2.44957
10 *230:7 *230:6 3.58394
11 *230:6 *543:Y 4.22221
12 *483:B1 *230:7 10.6005669
*END

*D_NET *231 0.000452876

*CONN
*I *363:Y O *C 31.58 9.15 *L 0 *D AOI21X1
*I *348:S0 I *C 29.97 9.145 *L 0.000419 *D MX2XL
*I *345:B1 I *C 32.9 9.405 *L 0.00039 *D OAI221X1

*CAP
1 *345:B1 6.59836e-05
2 *363:Y 2.02657e-05
3 *348:S0 7.67719e-05
4 *231:3 0.000163018701
5 *345:B1 *232:2 0.000126838682

*RES
1 *348:S0 *231:3 11.4996433
2 *231:3 *363:Y 6.8051
3 *345:B1 *231:3 8.15535
*END

*D_NET *232 0.000439405

*CONN
*I *348:Y O *C 30.74 9.715 *L 0 *D MX2XL
*I *344:D I *C 33.3 7.695 *L 0.000307 *D DFFHQX1

*CAP
1 *348:Y 9.86468e-05
2 *344:D 5.76366e-05
3 *232:2 0.000156283379
4 *232:2 *345:B1 0.000126838682

*RES
1 *344:D *232:2 4.31295
2 *232:2 *348:Y 12.188077
*END

*D_NET *233 0.00163615

*CONN
*I *362:Y O *C 25.535 11.6 *L 0 *D OAI2BB1X1
*I *360:A I *C 28.1 16.435 *L 0.000395 *D INVX1
*I *357:B I *C 32.1 10.735 *L 0.000392 *D NAND2X1
*I *351:A1 I *C 25.5 14.535 *L 0.000391 *D OAI22X1
*I *350:A1 I *C 27.1 16.245 *L 0.000391 *D OAI22X1
*I *346:B0 I *C 26.965 17.835 *L 0.000389 *D AOI22X1
*I *341:A0 I *C 29.1 16.245 *L 0.000392 *D OAI221X1

*CAP
1 *357:B 0.000195086
2 *341:A0 6.04409e-05
3 *360:A 1.74046e-05
4 *346:B0 5.64461e-05
5 *351:A1 7.02758e-05
6 *362:Y 2.52118e-05
7 *233:7 0.000117721
8 *233:8 0.000159918
9 *233:9 2.31288e-05
10 *233:10 7.40275e-05
11 *233:11 0.000362098203
12 *233:12 0.000305414
13 *233:13 7.15853e-05
14 *357:B *5:16 9.73939941e-05

*RES
1 *233:13 *362:Y 3.62962
2 *351:A1 *233:12 11.0501
3 *233:11 *233:13 4.09441
4 *233:12 *233:11 6.46121
5 *346:B0 *233:10 4.34362
6 *233:10 *233:9 0.35474
7 *233:9 *233:8 3.33632
8 *233:8 *233:12 5.64764
9 *350:A1 *233:9 3.3
10 *233:7 *233:8 0.816461
11 *360:A *233:7 6.78866
12 *341:A0 *233:7 7.62139
13 *357:B *233:11 11.8432045
*END

*D_NET *234 0.000891805

*CONN
*I *360:Y O *C 28.33 15.81 *L 0 *D INVX1
*I *351:B1 I *C 25.9 14.725 *L 0.000392 *D OAI22X1
*I *350:B1 I *C 27.5 16.055 *L 0.000392 *D OAI22X1
*I *346:A0 I *C 26.1 17.765 *L 0.000391 *D AOI22X1
*I *341:B0 I *C 29.9 16.245 *L 0.00039 *D OAI221X1

*CAP
1 *341:B0 8.68446e-05
2 *360:Y 7.5096e-06
3 *350:B1 3.11132e-05
4 *346:A0 3.07559e-05
5 *351:B1 8.55928e-05
6 *234:5 7.5096e-06
7 *234:6 0.000100910664
8 *234:7 8.69031e-05
9 *234:8 8.69031e-05
10 *234:9 0.000100016
11 *341:B0 *341:C0 0.000134944912
12 *341:B0 *341:A1 0.00013279915

*RES
1 *351:B1 *234:9 4.79675
2 *234:9 *234:8 0.336446
3 *234:8 *234:7 8.08067
4 *346:A0 *234:8 3.83338
5 *350:B1 *234:7 3.7914
6 *234:7 *234:6 0.200347
7 *234:5 *360:Y 0.208853
8 *234:6 *234:5 3.30003
9 *341:B0 *234:6 11.8608475
*END

*D_NET *235 0.000378847

*CONN
*I *345:Y O *C 33.54 8.96 *L 0 *D OAI221X1
*I *342:D I *C 36.7 7.695 *L 0.000307 *D DFFHQX1

*CAP
1 *342:D 0.00011009
2 *345:Y 7.93333e-05
3 *235:2 0.000189423555

*RES
1 *235:2 *345:Y 7.87522
2 *342:D *235:2 9.11211967
*END

*D_NET *236 0.000697613

*CONN
*I *343:Y O *C 25.955 15.775 *L 0 *D AOI22X1
*I *341:C0 I *C 30.15 16.18 *L 0.000393 *D OAI221X1
*I *340:B I *C 31.1 16.625 *L 0.000392 *D NAND2X1

*CAP
1 *340:B 4.58358e-05
2 *341:C0 2.81917e-05
3 *343:Y 0.000119267
4 *236:3 0.000193297871
5 *341:C0 *341:B0 0.000134944912
6 *340:B *238:3 0.000176072129

*RES
1 *236:3 *343:Y 10.5674267
2 *341:C0 *236:3 7.08709
3 *340:B *236:3 7.74594
*END

*D_NET *237 0.000222087

*CONN
*I *341:Y O *C 30.34 15.8 *L 0 *D OAI221X1
*I *338:A2 I *C 31.5 14.345 *L 0.000392 *D AOI32X1

*CAP
1 *341:Y 0.000111043457
2 *338:A2 0.000111043457

*RES
1 *338:A2 *341:Y 9.01532
*END

*D_NET *238 0.000792921

*CONN
*I *346:Y O *C 26.755 18.425 *L 0 *D AOI22X1
*I *340:A I *C 30.9 16.245 *L 0.00039 *D NAND2X1
*I *338:A1 I *C 31.3 14.345 *L 0.000391 *D AOI32X1

*CAP
1 *338:A1 6.05588e-05
2 *346:Y 0.000127674
3 *238:3 9.84065e-05
4 *238:4 0.00016552209
5 *238:4 *276:9 0.000164687637
6 *238:3 *340:B 0.000176072129

*RES
1 *238:4 *346:Y 21.0471153
2 *340:A *238:4 3.29985
3 *238:3 *238:4 0.680203
4 *338:A1 *238:3 4.36608
*END

*D_NET *239 0.000175714

*CONN
*I *340:Y O *C 31.355 16.2 *L 0 *D NAND2X1
*I *339:A1N I *C 32.7 16.435 *L 0.00021 *D OAI2BB1X1

*CAP
1 *339:A1N 6.6579e-05
2 *340:Y 2.12783e-05
3 *239:2 8.78572461e-05

*RES
1 *239:2 *340:Y 6.80507
2 *339:A1N *239:2 7.93850422
*END

*D_NET *240 0.000380993

*CONN
*I *382:Y O *C 33.345 15.13 *L 0 *D OAI211X1
*I *372:B I *C 33.9 12.825 *L 0.000211 *D AND2X1
*I *339:B0 I *C 32.265 16.205 *L 0.00039 *D OAI2BB1X1
*I *335:A I *C 33.5 14.535 *L 0.00039 *D NAND2X1

*CAP
1 *372:B 9.23269e-05
2 *335:A 6.43761e-06
3 *382:Y 0.000123143193
4 *339:B0 6.73525e-05
5 *240:4 9.17312e-05

*RES
1 *339:B0 *240:4 7.90025
2 *240:4 *382:Y 3.64774
3 *335:A *382:Y 0.245736
4 *372:B *382:Y 8.09681416
*END

*D_NET *241 0.00106716

*CONN
*I *372:Y O *C 34.54 12.925 *L 0 *D AND2X1
*I *370:A I *C 31.3 10.925 *L 0.000395 *D INVX1
*I *359:A0 I *C 31.1 13.015 *L 0.000391 *D AOI22X1
*I *357:A I *C 31.9 11.115 *L 0.00039 *D NAND2X1
*I *349:A1 I *C 32.84 11.14 *L 0.000391 *D OAI21X1
*I *339:A0N I *C 32.445 15.98 *L 0.000209 *D OAI2BB1X1
*I *338:A0 I *C 31.1 14.535 *L 0.000391 *D AOI32X1

*CAP
1 *349:A1 3.13531e-05
2 *372:Y 0.000125705
3 *339:A0N 0.00012642
4 *357:A 7.56942e-06
5 *370:A 6.4361e-06
6 *338:A0 0.000211000449
7 *241:7 0.000165165
8 *241:8 0.000101091
9 *241:9 5.13793e-05
10 *241:10 8.82155e-05
11 *241:11 0.000152828

*RES
1 *241:11 *241:10 1.68584
2 *338:A0 *241:11 5.26889
3 *359:A0 *241:11 3.29991
4 *241:10 *241:9 0.347849
5 *370:A *241:10 3.44882
6 *241:9 *241:8 0.721978
7 *357:A *241:9 3.34936
8 *339:A0N *338:A0 18.5188065
9 *241:8 *241:7 4.05636
10 *241:7 *372:Y 8.44587
11 *349:A1 *241:8 7.21978
*END

*D_NET *242 0.00027585

*CONN
*I *338:Y O *C 31.97 14.995 *L 0 *D AOI32X1
*I *335:B I *C 33.7 14.155 *L 0.000392 *D NAND2X1

*CAP
1 *338:Y 0.000137925146
2 *335:B 0.000137925146

*RES
1 *335:B *338:Y 15.3519
*END

*D_NET *243 0.000825524

*CONN
*I *349:Y O *C 33.165 11.41 *L 0 *D OAI21X1
*I *347:A I *C 34.1 16.435 *L 0.000395 *D INVX1
*I *337:A I *C 34.5 17.955 *L 0.00039 *D NAND2X1
*I *334:A1 I *C 33.32 16.39 *L 0.000392 *D AOI21X1

*CAP
1 *337:A 9.36388e-05
2 *334:A1 2.19941e-05
3 *349:Y 0.000200808
4 *243:4 0.00014776
5 *243:5 0.000276923184
6 *337:A *246:3 8.44001758e-05

*RES
1 *243:5 *349:Y 20.4586983
2 *334:A1 *243:5 3.63091
3 *243:4 *243:5 0.922165
4 *347:A *243:4 3.3
5 *337:A *243:4 11.632
*END

*D_NET *244 0.000282645

*CONN
*I *337:Y O *C 34.955 18 *L 0 *D NAND2X1
*I *331:A1 I *C 32.72 17.81 *L 0.000392 *D AOI21X1

*CAP
1 *331:A1 3.61808e-05
2 *337:Y 0.000105142
3 *244:2 0.000141322617

*RES
1 *244:2 *337:Y 8.42225552
2 *331:A1 *244:2 7.06914
*END

*D_NET *245 0.000725389

*CONN
*I *544:A1 I *C 34.9 16.625 *L 0.000211 *D AO21X1
*I *339:Y O *C 32.135 15.76 *L 0 *D OAI2BB1X1
*I *337:B I *C 34.7 17.575 *L 0.000392 *D NAND2X1
*I *336:B I *C 35.7 20.045 *L 0.000392 *D NAND2X1

*CAP
1 *336:B 0.000157356
2 *544:A1 3.13522e-05
3 *339:Y 0.00010842
4 *245:4 0.000176608555
5 *245:5 0.000159025
6 *245:5 *276:7 9.26256152e-05

*RES
1 *245:5 *339:Y 12.5499964
2 *245:4 *245:5 0.289353
3 *337:B *245:4 3.29989
4 *544:A1 *245:5 3.98411
5 *336:B *245:4 6.32402
*END

*D_NET *246 0.000627041

*CONN
*I *347:Y O *C 34.33 15.81 *L 0 *D INVX1
*I *336:A I *C 35.5 19.665 *L 0.00039 *D NAND2X1
*I *333:A1 I *C 33.32 19.81 *L 0.000392 *D AOI21X1

*CAP
1 *336:A 9.8408e-05
2 *347:Y 7.00343e-05
3 *333:A1 5.2214e-05
4 *246:3 0.0001207
5 *246:4 0.000201284883
6 *246:3 *337:A 8.44001758e-05

*RES
1 *333:A1 *246:4 7.28831
2 *246:4 *246:3 4.24539
3 *246:3 *347:Y 5.22766
4 *336:A *246:4 11.6009712
*END

*D_NET *247 0.000303268

*CONN
*I *336:Y O *C 35.955 19.62 *L 0 *D NAND2X1
*I *330:A1 I *C 33.72 17.81 *L 0.000392 *D AOI21X1

*CAP
1 *336:Y 3.17105e-05
2 *330:A1 0.000119924
3 *247:2 0.000151634219

*RES
1 *330:A1 *247:2 12.2075081
2 *247:2 *336:Y 3.79138
*END

*D_NET *248 0.000315547

*CONN
*I *332:Y O *C 34.735 15.02 *L 0 *D OAI2BB1X1
*I *324:D I *C 38.1 14.535 *L 0.000307 *D DFFHQX1

*CAP
1 *324:D 0.000103533
2 *332:Y 5.42403e-05
3 *248:2 0.000157773496

*RES
1 *248:2 *332:Y 7.34228
2 *324:D *248:2 9.11211967
*END

*D_NET *249 0.00176072

*CONN
*I *544:B0 I *C 35.1 16.245 *L 0.00021 *D AO21X1
*I *366:Y O *C 29.985 7.5 *L 0 *D OAI21X2
*I *363:B0 I *C 31.4 9.6 *L 0.000392 *D AOI21X1
*I *332:A1N I *C 35.3 14.345 *L 0.00021 *D OAI2BB1X1
*I *331:B0 I *C 33 17.76 *L 0.000392 *D AOI21X1
*I *330:B0 I *C 34 17.76 *L 0.000392 *D AOI21X1
*I *327:B1 I *C 34.54 11.19 *L 0.000392 *D AOI22X1

*CAP
1 *332:A1N 6.49082e-05
2 *544:B0 1.19207e-05
3 *327:B1 5.55542e-05
4 *330:B0 4.11885e-05
5 *331:B0 4.82192e-05
6 *366:Y 0.00012195
7 *249:7 0.000120639
8 *249:8 0.00025326
9 *249:9 0.000362515469
10 *249:10 0.00013542
11 *249:11 0.00026548
12 *249:11 *137:4 0.000105857852
13 *327:B1 *327:A1 8.55922656e-05
14 *544:B0 *544:A0 8.8214873e-05

*RES
1 *249:11 *366:Y 12.4633312
2 *363:B0 *249:11 3.29992
3 *331:B0 *249:10 7.48169
4 *249:9 *249:11 6.31667
5 *249:8 *249:9 7.72378
6 *249:10 *249:8 4.83882
7 *330:B0 *249:10 6.86115
8 *327:B1 *249:9 10.8832
9 *249:7 *249:8 7.64029
10 *544:B0 *249:7 6.87237
11 *332:A1N *249:7 7.95846
*END

*D_NET *250 0.000312686

*CONN
*I *356:Y O *C 32.13 21.81 *L 0 *D INVX1
*I *329:A0N I *C 30.045 21.64 *L 0.000209 *D OAI2BB1X1
*I *325:A0 I *C 30.625 21.24 *L 0.000391 *D OAI21X1

*CAP
1 *356:Y 3.22461e-05
2 *325:A0 1.13843e-05
3 *329:A0N 5.16176e-05
4 *250:3 9.33411e-05
5 *250:4 0.000124096875

*RES
1 *329:A0N *250:4 7.54487514
2 *250:4 *250:3 4.31295
3 *325:A0 *250:4 6.80416
4 *250:3 *356:Y 0.903161
*END

*D_NET *251 0.000709057

*CONN
*I *359:Y O *C 31.755 12.355 *L 0 *D AOI22X1
*I *356:A I *C 31.9 21.185 *L 0.000395 *D INVX1
*I *328:A0N I *C 31.245 19.4 *L 0.000209 *D OAI2BB1X1
*I *326:A0 I *C 32.225 19.8 *L 0.000391 *D OAI21X1

*CAP
1 *326:A0 1.055e-05
2 *356:A 5.00071e-05
3 *359:Y 4.90541e-05
4 *328:A0N 3.95168e-05
5 *251:4 9.76934e-05
6 *251:5 0.00021732
7 *251:6 0.000244915488

*RES
1 *328:A0N *251:6 10.6026
2 *251:5 *359:Y 7.00014
3 *251:6 *251:5 11.0582113
4 *251:4 *251:6 3.96578
5 *356:A *251:4 4.28317
6 *326:A0 *251:4 3.40254
*END

*D_NET *252 9.04799e-05

*CONN
*I *327:Y O *C 34.555 11.585 *L 0 *D AOI22X1
*I *323:B I *C 34.5 9.785 *L 0.000392 *D NAND2X1

*CAP
1 *327:Y 4.52399268e-05
2 *323:B 4.52399268e-05

*RES
1 *323:B *327:Y 7.48491
*END

*D_NET *253 0.000276089

*CONN
*I *287:A I *C 27.5 7.695 *L 0.00021 *D BUFX2
*I *373:Y O *C 25.92 9.735 *L 0 *D NOR2BX1

*CAP
1 *287:A 4.73862e-05
2 *373:Y 1.11456e-05
3 *253:2 0.000126898291
4 *253:3 9.06596e-05

*RES
1 *253:3 *373:Y 3.57245
2 *287:A *253:2 4.19581
3 *253:2 *253:3 8.12506676
*END

*D_NET *254 0.00120556

*CONN
*I *335:Y O *C 33.955 14.58 *L 0 *D NAND2X1
*I *329:A1N I *C 30.3 21.185 *L 0.00021 *D OAI2BB1X1
*I *328:A1N I *C 31.5 19.855 *L 0.00021 *D OAI2BB1X1
*I *327:A1 I *C 34.1 10.735 *L 0.000392 *D AOI22X1
*I *326:A1 I *C 32.44 19.64 *L 0.000391 *D OAI21X1
*I *325:A1 I *C 30.84 21.4 *L 0.000391 *D OAI21X1

*CAP
1 *327:A1 0.000133039
2 *326:A1 2.0801e-05
3 *328:A1N 0.000127137
4 *329:A1N 1.3945e-05
5 *254:6 7.80988e-06
6 *254:7 0.000355184063
7 *254:8 0.000255227
8 *254:9 0.000120996
9 *327:A1 *5:14 8.58306836e-05
10 *327:A1 *327:B1 8.55922656e-05

*RES
1 *329:A1N *254:9 3.47582
2 *254:9 *328:A1N 5.23518
3 *325:A1 *254:9 6.6001
4 *328:A1N *254:8 0.743224
5 *254:8 *254:7 22.4978924
6 *326:A1 *254:8 0.681775
7 *254:6 *335:Y 0.499831
8 *254:7 *254:6 3.35704
9 *327:A1 *254:7 6.15383
*END

*D_NET *255 0.000322938

*CONN
*I *323:Y O *C 34.755 9.36 *L 0 *D NAND2X1
*I *306:D I *C 37.7 9.405 *L 0.000307 *D DFFHQX1

*CAP
1 *323:Y 0.000161468984
2 *306:D 0.000161468984

*RES
1 *306:D *323:Y 16.6796
*END

*D_NET *256 0.00020504

*CONN
*I *322:Y O *C 23.54 19.79 *L 0 *D AOI21XL
*I *293:D I *C 22.17 19.595 *L 0.00021 *D DFFQXL

*CAP
1 *322:Y 2.11595e-05
2 *293:D 8.13605e-05
3 *256:2 0.00010251999

*RES
1 *293:D *256:2 7.96866417
2 *256:2 *322:Y 6.80503
*END

*D_NET *257 0.000254393

*CONN
*I *321:Y O *C 20.94 23.21 *L 0 *D AOI21XL
*I *290:D I *C 19.97 24.865 *L 0.00021 *D DFFQXL

*CAP
1 *321:Y 4.19621e-05
2 *290:D 8.52342e-05
3 *257:2 0.000127196309

*RES
1 *290:D *257:2 11.2483501
2 *257:2 *321:Y 3.96668
*END

*D_NET *258 0.000544786

*CONN
*I *320:Y O *C 26.94 23.21 *L 0 *D AOI21XL
*I *303:D I *C 27.37 29.855 *L 0.00021 *D DFFQXL

*CAP
1 *320:Y 0.000217735762
2 *303:D 0.000217735762
3 *303:D *152:59 0.000109314922

*RES
1 *303:D *320:Y 11.9147
*END

*D_NET *259 0.00028336

*CONN
*I *319:Y O *C 33.54 23.21 *L 0 *D AOI21XL
*I *305:D I *C 37.37 23.015 *L 0.00021 *D DFFQXL

*CAP
1 *319:Y 0.000141680244
2 *305:D 0.000141680244

*RES
1 *305:D *319:Y 16.3461
*END

*D_NET *260 0.00038588

*CONN
*I *318:Y O *C 27.74 21.25 *L 0 *D AOI21XL
*I *302:D I *C 27.97 26.435 *L 0.00021 *D DFFQXL

*CAP
1 *318:Y 0.000106932
2 *302:D 8.60083e-05
3 *260:2 0.000192940234

*RES
1 *302:D *260:2 5.08404
2 *260:2 *318:Y 5.29575348
*END

*D_NET *261 0.000317693

*CONN
*I *317:Y O *C 33.54 21.25 *L 0 *D AOI21XL
*I *304:D I *C 36.97 21.445 *L 0.00021 *D DFFQXL

*CAP
1 *304:D 5.73408e-05
2 *317:Y 0.000101506
3 *261:2 0.000158846377

*RES
1 *261:2 *317:Y 8.90660286
2 *304:D *261:2 7.81747
*END

*D_NET *262 0.0012176

*CONN
*I *326:Y O *C 32.765 19.37 *L 0 *D OAI21X1
*I *318:A1 I *C 27.3 20.805 *L 0.000212 *D AOI21XL
*I *317:A1 I *C 33.1 20.805 *L 0.000212 *D AOI21XL
*I *316:A1 I *C 22.1 16.815 *L 0.000212 *D AOI21XL
*I *310:A1 I *C 21.7 17.385 *L 0.000212 *D AOI21XL

*CAP
1 *317:A1 4.72661e-05
2 *326:Y 1.93716e-05
3 *318:A1 2.15142e-05
4 *316:A1 4.56591e-05
5 *262:5 0.000205873
6 *262:6 0.000444352617
7 *262:7 0.000329256
8 *318:A1 *175:6 0.000104308125

*RES
1 *262:7 *262:6 9.93072987
2 *310:A1 *262:7 3.29989
3 *316:A1 *262:7 4.16225
4 *262:6 *262:5 4.14255
5 *318:A1 *262:6 6.90329
6 *262:5 *326:Y 6.75964
7 *317:A1 *262:5 7.26621
*END

*D_NET *263 0.000378132

*CONN
*I *316:Y O *C 22.54 16.37 *L 0 *D AOI21XL
*I *300:D I *C 21.97 11.185 *L 0.00021 *D DFFQXL

*CAP
1 *316:Y 3.11738e-05
2 *300:D 8.19568e-05
3 *263:2 0.00010711
4 *263:3 0.000157892705

*RES
1 *300:D *263:3 5.34129143
2 *263:3 *263:2 1.55725
3 *263:2 *316:Y 3.93498
*END

*D_NET *264 0.00156868

*CONN
*I *331:Y O *C 33.18 18.21 *L 0 *D AOI21X1
*I *320:A0 I *C 26.36 23.25 *L 0.000211 *D AOI21XL
*I *318:A0 I *C 27.16 21.21 *L 0.000211 *D AOI21XL
*I *315:A0 I *C 23.96 21.21 *L 0.000211 *D AOI21XL
*I *312:A0 I *C 27.56 23.25 *L 0.000211 *D AOI21XL

*CAP
1 *331:Y 0.00028455
2 *318:A0 8.22287e-06
3 *320:A0 3.18318e-05
4 *315:A0 0.00012976
5 *264:5 0.000387966641
6 *264:6 0.000140848
7 *264:7 3.72545e-05
8 *264:8 0.000180838
9 *264:8 *91:3 9.8347666e-05
10 *264:6 *320:A1 0.000116109844
11 *264:5 *266:7 0.000152945518

*RES
1 *315:A0 *264:8 6.62286
2 *264:7 *264:8 3.33622
3 *264:8 *264:6 8.75618
4 *320:A0 *264:7 1.22251
5 *318:A0 *264:5 3.45141
6 *264:5 *331:Y 23.3716965
7 *264:6 *264:5 1.61872
8 *312:A0 *264:6 3.29984
*END

*D_NET *265 0.000100255

*CONN
*I *315:Y O *C 24.54 21.25 *L 0 *D AOI21XL
*I *294:D I *C 24.37 23.015 *L 0.00021 *D DFFQXL

*CAP
1 *315:Y 5.01275049e-05
2 *294:D 5.01275049e-05

*RES
1 *294:D *315:Y 7.77173
*END

*D_NET *266 0.00126708

*CONN
*I *325:Y O *C 31.165 21.67 *L 0 *D OAI21X1
*I *321:A1 I *C 20.5 23.655 *L 0.000212 *D AOI21XL
*I *315:A1 I *C 24.1 20.805 *L 0.000212 *D AOI21XL
*I *314:A1 I *C 20.7 20.805 *L 0.000212 *D AOI21XL
*I *313:A1 I *C 31.7 23.655 *L 0.000212 *D AOI21XL

*CAP
1 *313:A1 6.15701e-05
2 *325:Y 4.70874e-05
3 *315:A1 1.74027e-05
4 *321:A1 8.35057e-05
5 *266:5 9.34601e-05
6 *266:6 0.000187574
7 *266:7 0.000308156016
8 *266:8 0.000201883
9 *266:7 *264:5 0.000152945518
10 *313:A1 *175:7 0.000113487246

*RES
1 *321:A1 *266:8 5.0859
2 *314:A1 *266:8 3.29994
3 *266:8 *266:7 5.97738
4 *315:A1 *266:7 6.84984
5 *266:7 *266:6 8.9662075
6 *266:6 *325:Y 6.78513
7 *266:5 *325:Y 4.188
8 *313:A1 *266:5 4.57491
*END

*D_NET *267 0.00150418

*CONN
*I *334:Y O *C 33.78 15.99 *L 0 *D AOI21X1
*I *322:A0 I *C 22.96 19.83 *L 0.000211 *D AOI21XL
*I *316:A0 I *C 21.96 16.41 *L 0.000211 *D AOI21XL
*I *314:A0 I *C 20.56 21.21 *L 0.000211 *D AOI21XL
*I *308:A0 I *C 20.56 16.41 *L 0.000211 *D AOI21XL

*CAP
1 *334:Y 6.24664e-05
2 *322:A0 0.00010079
3 *316:A0 6.49864e-06
4 *314:A0 4.67902e-05
5 *308:A0 1.973e-05
6 *267:5 0.000255942
7 *267:6 0.00027388334
8 *267:7 0.000106156
9 *267:8 0.000129045
10 *267:9 0.000155984
11 *267:10 0.000165701
12 *267:6 *147:4 0.000181198125

*RES
1 *308:A0 *267:10 3.61519
2 *314:A0 *267:9 4.26421
3 *267:10 *267:8 1.03177
4 *267:9 *267:10 2.27924
5 *267:7 *267:9 3.33642
6 *267:8 *267:6 11.3329
7 *316:A0 *267:8 3.43135
8 *267:6 *267:5 7.92224
9 *322:A0 *267:7 8.52864
10 *267:5 *334:Y 14.1077042
*END

*D_NET *268 0.000581741

*CONN
*I *314:Y O *C 21.14 21.25 *L 0 *D AOI21XL
*I *292:D I *C 14.97 19.595 *L 0.00021 *D DFFQXL

*CAP
1 *314:Y 1.58565e-05
2 *292:D 0.000234602
3 *268:2 0.000250458711
4 *292:D *143:6 8.08238965e-05

*RES
1 *292:D *268:2 15.6958103
2 *268:2 *314:Y 3.54602
*END

*D_NET *269 0.000614762

*CONN
*I *333:Y O *C 33.78 19.41 *L 0 *D AOI21X1
*I *319:A0 I *C 32.96 23.25 *L 0.000211 *D AOI21XL
*I *317:A0 I *C 32.96 21.21 *L 0.000211 *D AOI21XL
*I *313:A0 I *C 31.56 23.25 *L 0.000211 *D AOI21XL
*I *311:A0 I *C 30.56 23.25 *L 0.000211 *D AOI21XL

*CAP
1 *333:Y 4.19011e-05
2 *313:A0 9.83497e-06
3 *311:A0 3.93988e-05
4 *269:5 9.72152e-05
5 *269:6 0.000130178
6 *269:7 0.000160932539
7 *269:8 0.000135303

*RES
1 *311:A0 *269:8 4.07883
2 *269:8 *269:7 8.22746754
3 *313:A0 *269:8 3.50411
4 *269:6 *269:5 1.13389
5 *269:7 *269:6 1.49683
6 *317:A0 *269:6 3.29998
7 *319:A0 *269:7 3.29998
8 *269:5 *333:Y 4.05649
*END

*D_NET *270 0.000503302

*CONN
*I *313:Y O *C 32.14 23.21 *L 0 *D AOI21XL
*I *296:D I *C 34.57 26.435 *L 0.00021 *D DFFQXL

*CAP
1 *296:D 0.000204323
2 *313:Y 4.73273e-05
3 *270:2 0.000251650801

*RES
1 *270:2 *313:Y 4.07865
2 *296:D *270:2 13.9348507
*END

*D_NET *271 0.000233173

*CONN
*I *312:Y O *C 28.14 23.21 *L 0 *D AOI21XL
*I *295:D I *C 27.57 24.865 *L 0.00021 *D DFFQXL

*CAP
1 *312:Y 4.80419e-05
2 *295:D 6.85448e-05
3 *271:2 0.000116586689

*RES
1 *295:D *271:2 10.9941959
2 *271:2 *312:Y 3.93493
*END

*D_NET *272 0.00116873

*CONN
*I *328:Y O *C 30.935 19.18 *L 0 *D OAI2BB1X1
*I *322:A1 I *C 23.1 20.235 *L 0.000212 *D AOI21XL
*I *312:A1 I *C 27.7 23.655 *L 0.000212 *D AOI21XL
*I *311:A1 I *C 30.7 23.655 *L 0.000212 *D AOI21XL
*I *307:A1 I *C 22.9 20.805 *L 0.000212 *D AOI21XL

*CAP
1 *311:A1 4.42838e-05
2 *328:Y 0.000106691
3 *312:A1 6.30037e-05
4 *322:A1 4.36292e-05
5 *272:5 0.00011343
6 *272:6 0.000165522
7 *272:7 0.000383019453
8 *272:8 0.000249145

*RES
1 *272:8 *272:7 8.02634
2 *307:A1 *272:8 3.29997
3 *322:A1 *272:8 4.04087
4 *272:7 *272:6 2.47958
5 *312:A1 *272:7 7.6881
6 *272:6 *272:5 3.35721
7 *272:5 *328:Y 12.0604038
8 *311:A1 *272:6 7.23816
*END

*D_NET *273 0.000657916

*CONN
*I *311:Y O *C 31.14 23.21 *L 0 *D AOI21XL
*I *297:D I *C 32.77 29.855 *L 0.00021 *D DFFQXL

*CAP
1 *311:Y 0.000222325332
2 *297:D 0.000222325332
3 *297:D *136:3 0.000116109844
4 *297:D *212:5 9.71555664e-05

*RES
1 *297:D *311:Y 26.7617
*END

*D_NET *274 0.000200391

*CONN
*I *310:Y O *C 22.14 17.83 *L 0 *D AOI21XL
*I *298:D I *C 20.97 18.025 *L 0.00021 *D DFFQXL

*CAP
1 *310:Y 1.3948e-05
2 *298:D 8.62474e-05
3 *274:2 0.00010019541

*RES
1 *298:D *274:2 11.3968849
2 *274:2 *310:Y 3.57248
*END

*D_NET *275 0.0018791

*CONN
*I *329:Y O *C 29.735 21.86 *L 0 *D OAI2BB1X1
*I *320:A1 I *C 26.5 23.655 *L 0.000212 *D AOI21XL
*I *319:A1 I *C 33.1 23.655 *L 0.000212 *D AOI21XL
*I *309:A1 I *C 19.7 13.965 *L 0.000212 *D AOI21XL
*I *308:A1 I *C 20.7 16.815 *L 0.000212 *D AOI21XL

*CAP
1 *319:A1 0.000152472
2 *320:A1 2.70013e-05
3 *308:A1 5.91861e-05
4 *309:A1 6.17534e-05
5 *275:5 7.39704e-05
6 *275:6 0.000321147
7 *275:7 0.000534117227
8 *275:8 0.000533343
9 *320:A1 *264:6 0.000116109844

*RES
1 *309:A1 *275:8 4.57476
2 *275:8 *275:7 20.7841396
3 *308:A1 *275:8 4.87445
4 *275:7 *275:6 2.17717
5 *320:A1 *275:7 6.84992
6 *275:5 *329:Y 0.500131
7 *275:6 *275:5 8.04206
8 *319:A1 *275:6 9.78316
*END

*D_NET *276 0.00205427

*CONN
*I *330:Y O *C 34.18 18.21 *L 0 *D AOI21X1
*I *321:A0 I *C 20.36 23.25 *L 0.000211 *D AOI21XL
*I *310:A0 I *C 21.56 17.79 *L 0.000211 *D AOI21XL
*I *309:A0 I *C 19.56 14.37 *L 0.000211 *D AOI21XL
*I *307:A0 I *C 22.76 21.21 *L 0.000211 *D AOI21XL

*CAP
1 *330:Y 7.15822e-05
2 *307:A0 2.64026e-05
3 *321:A0 0.000122247
4 *309:A0 7.04513e-05
5 *276:5 3.14098e-05
6 *276:6 0.000151691
7 *276:7 0.000365972
8 *276:8 0.000253262
9 *276:9 0.000396311289
10 *276:10 0.00014669
11 *276:9 *238:4 0.000164687637
12 *276:9 *353:A0 0.000160932539
13 *276:7 *245:5 9.26256152e-05

*RES
1 *276:10 *276:9 5.80271
2 *309:A0 *276:10 4.7967
3 *321:A0 *276:8 12.5366449
4 *276:9 *276:7 8.70101
5 *276:6 *276:9 3.64645
6 *310:A0 *276:6 3.30001
7 *276:5 *276:8 3.33636
8 *276:8 *276:6 2.66473
9 *307:A0 *276:5 0.976747
10 *276:7 *330:Y 8.25682
*END

*D_NET *277 0.000515461

*CONN
*I *309:Y O *C 20.14 14.41 *L 0 *D AOI21XL
*I *299:D I *C 13.77 14.605 *L 0.00021 *D DFFQXL

*CAP
1 *309:Y 2.47952e-05
2 *299:D 3.78504e-05
3 *277:2 0.00021988
4 *277:3 0.000232934961

*RES
1 *299:D *277:3 4.15224
2 *277:3 *277:2 11.453867
3 *277:2 *309:Y 3.81772
*END

*D_NET *278 0.000226736

*CONN
*I *308:Y O *C 21.14 16.37 *L 0 *D AOI21XL
*I *301:D I *C 19.17 16.175 *L 0.00021 *D DFFQXL

*CAP
1 *308:Y 8.64268e-05
2 *301:D 2.69412e-05
3 *278:2 0.000113368037

*RES
1 *301:D *278:2 6.85082
2 *278:2 *308:Y 8.29899311
*END

*D_NET *279 0.000662208

*CONN
*I *307:Y O *C 23.34 21.25 *L 0 *D AOI21XL
*I *291:D I *C 23.97 29.855 *L 0.00021 *D DFFQXL

*CAP
1 *291:D 0.000292838
2 *307:Y 3.82663e-05
3 *279:2 0.000331103789

*RES
1 *279:2 *307:Y 4.07862
2 *291:D *279:2 9.55927372
*END

*D_NET *280 0.000773191

*CONN
*I *544:Y O *C 35.64 16.045 *L 0 *D AO21X1
*I *334:B0 I *C 33.6 16.44 *L 0.000392 *D AOI21X1
*I *333:B0 I *C 33.6 19.86 *L 0.000392 *D AOI21X1
*I *332:B0 I *C 34.865 14.575 *L 0.00039 *D OAI2BB1X1

*CAP
1 *544:Y 7.0945e-06
2 *332:B0 9.25666e-05
3 *333:B0 0.000157415
4 *334:B0 2.43201e-05
5 *280:4 7.24193e-05
6 *280:5 0.000197767
7 *280:6 0.000221610078

*RES
1 *280:6 *280:5 0.816565
2 *334:B0 *280:6 6.81469
3 *333:B0 *280:6 16.3502693
4 *280:5 *280:4 7.9239
5 *332:B0 *280:5 11.7021
6 *280:4 *544:Y 0.239506
*END

*D_NET *281 0.000175238

*CONN
*I *545:Y O *C 26.32 6.315 *L 0 *D NOR2BX1
*I *361:D I *C 25.3 7.695 *L 0.000307 *D DFFHQX1

*CAP
1 *545:Y 1.31728e-05
2 *361:D 4.53595e-05
3 *281:2 4.22595e-05
4 *281:3 7.44462012e-05

*RES
1 *361:D *281:3 4.23359871
2 *281:3 *281:2 3.94025
3 *281:2 *545:Y 0.485272
*END

*D_NET *282 0.000543177

*CONN
*I *464:B I *C 28.1 7.315 *L 0.000392 *D NAND2X1
*I *458:A1 I *C 26.12 7.55 *L 0.000392 *D AOI21X1
*I *361:Q O *C 22.74 7.57 *L 0 *D DFFHQX1

*CAP
1 *464:B 7.03939e-05
2 *458:A1 1.07886e-05
3 *361:Q 7.55181e-05
4 *282:3 0.000156700615
5 *282:3 *8:80 8.01086e-05
6 *282:3 *8:90 1.18613e-05
7 *464:B *8:80 2.69413672e-05
8 *464:B *152:40 0.000110864639

*RES
1 *282:3 *361:Q 9.43565369
2 *458:A1 *282:3 6.78188
3 *464:B *282:3 8.89099
*END

