*SPEF "IEEE 1481-1998"
*DESIGN "aer_pending_gray_rank_reuse_sync_core_reset"
*DATE "Wed Aug 26 17:39:06 2026"
*VENDOR "Cadence Design Systems, Inc."
*PROGRAM "Innovus"
*VERSION "23.14-s088_1"
*DESIGN_FLOW "COUPLING C" "PIN_CAP NONE" "NAME_SCOPE LOCAL"
*DIVIDER /
*DELIMITER :
*BUS_DELIMITER []
*T_UNIT 1 NS
*C_UNIT 1 PF
*R_UNIT 1 OHM
*L_UNIT 1 HENRY

// MMMC spef file for corner 'rc_45nm'

*NAME_MAP

*1 FE_PHN46_req_meta_q_11
*2 FE_PHN45_req_meta_q_12
*3 FE_PHN44_req_meta_q_8
*4 FE_PHN43_req_meta_q_10
*5 FE_PHN42_req_meta_q_7
*6 FE_PHN41_req_meta_q_5
*7 FE_PHN40_req_meta_q_15
*8 FE_PHN39_n_70
*9 FE_PHN38_n_55
*10 FE_PHN37_n_71
*11 FE_PHN36_n_59
*12 FE_PHN35_n_50
*13 FE_PHN34_n_54
*14 FE_PHN33_n_69
*15 FE_PHN32_n_49
*16 FE_PHN31_n_51
*17 FE_PHN30_n_57
*18 FE_PHN29_rst_n
*19 FE_PHN28_n_72
*20 FE_PHN27_n_52
*21 FE_PHN26_req_meta_q_10
*22 FE_PHN25_req_meta_q_4
*23 FE_PHN24_req_meta_q_8
*24 FE_PHN23_req_meta_q_11
*25 FE_PHN22_req_meta_q_14
*26 FE_PHN21_req_meta_q_7
*27 FE_PHN20_req_meta_q_12
*28 FE_PHN19_req_meta_q_15
*29 FE_PHN18_req_meta_q_6
*30 FE_PHN17_req_meta_q_5
*31 FE_PHN16_req_meta_q_13
*32 FE_PHN15_req_meta_q_0
*33 FE_PHN14_req_meta_q_3
*34 FE_PHN13_n_53
*35 FE_PHN12_n_58
*36 FE_PHN11_n_73
*37 FE_PHN10_req_meta_q_2
*38 FE_PHN9_req_meta_q_9
*39 FE_PHN8_reset_release_q_0
*40 FE_PHN7_n_56
*41 FE_PHN6_req_meta_q_1
*42 FE_PHN5_rst_n
*43 CTS_3
*44 CTS_2
*45 CTS_1
*46 FE_OFN2_n_167
*47 FE_OFN1_n_167
*48 FE_OFN0_n_15
*49 clk
*50 rst_n
*51 src_req_async[15]
*52 src_req_async[14]
*53 src_req_async[13]
*54 src_req_async[12]
*55 src_req_async[11]
*56 src_req_async[10]
*57 src_req_async[9]
*58 src_req_async[8]
*59 src_req_async[7]
*60 src_req_async[6]
*61 src_req_async[5]
*62 src_req_async[4]
*63 src_req_async[3]
*64 src_req_async[2]
*65 src_req_async[1]
*66 src_req_async[0]
*67 src_ack_async[15]
*68 src_ack_async[14]
*69 src_ack_async[13]
*70 src_ack_async[12]
*71 src_ack_async[11]
*72 src_ack_async[10]
*73 src_ack_async[9]
*74 src_ack_async[8]
*75 src_ack_async[7]
*76 src_ack_async[6]
*77 src_ack_async[5]
*78 src_ack_async[4]
*79 src_ack_async[3]
*80 src_ack_async[2]
*81 src_ack_async[1]
*82 src_ack_async[0]
*83 out_addr[3]
*84 out_addr[2]
*85 out_addr[1]
*86 out_addr[0]
*87 out_valid
*88 out_ready
*89 reset_release_q[0]
*90 pending_rank_q[15]
*91 pending_rank_q[14]
*92 pending_rank_q[13]
*93 pending_rank_q[12]
*94 pending_rank_q[11]
*95 pending_rank_q[10]
*96 pending_rank_q[9]
*97 pending_rank_q[8]
*98 pending_rank_q[7]
*99 pending_rank_q[6]
*100 pending_rank_q[5]
*101 pending_rank_q[4]
*102 pending_rank_q[3]
*103 pending_rank_q[2]
*104 pending_rank_q[1]
*105 pending_rank_q[0]
*106 ack_rank_q[15]
*107 ack_rank_q[14]
*108 ack_rank_q[13]
*109 ack_rank_q[12]
*110 ack_rank_q[11]
*111 ack_rank_q[10]
*112 ack_rank_q[9]
*113 ack_rank_q[8]
*114 ack_rank_q[7]
*115 ack_rank_q[6]
*116 ack_rank_q[5]
*117 ack_rank_q[4]
*118 ack_rank_q[3]
*119 ack_rank_q[2]
*120 ack_rank_q[1]
*121 ack_rank_q[0]
*122 req_sync_q[15]
*123 req_sync_q[14]
*124 req_sync_q[13]
*125 req_sync_q[12]
*126 req_sync_q[11]
*127 req_sync_q[10]
*128 req_sync_q[9]
*129 req_sync_q[8]
*130 req_sync_q[7]
*131 req_sync_q[6]
*132 req_sync_q[5]
*133 req_sync_q[4]
*134 req_sync_q[3]
*135 req_sync_q[2]
*136 req_sync_q[1]
*137 req_sync_q[0]
*138 req_meta_q[15]
*139 req_meta_q[14]
*140 req_meta_q[13]
*141 req_meta_q[12]
*142 req_meta_q[11]
*143 req_meta_q[10]
*144 req_meta_q[9]
*145 req_meta_q[8]
*146 req_meta_q[7]
*147 req_meta_q[6]
*148 req_meta_q[5]
*149 req_meta_q[4]
*150 req_meta_q[3]
*151 req_meta_q[2]
*152 req_meta_q[1]
*153 req_meta_q[0]
*154 out_rank_q[2]
*155 out_rank_q[1]
*156 out_rank_q[0]
*157 n_4
*158 n_5
*159 n_6
*160 n_7
*161 n_8
*162 n_9
*163 n_10
*164 n_11
*165 n_12
*166 n_13
*167 n_14
*168 n_15
*169 n_16
*170 n_17
*171 n_18
*172 n_19
*173 n_20
*174 n_21
*175 n_22
*176 n_23
*177 n_24
*178 n_25
*179 n_26
*180 n_27
*181 n_28
*182 n_29
*183 n_30
*184 n_31
*185 n_32
*186 n_33
*187 n_34
*188 n_35
*189 n_36
*190 n_37
*191 n_38
*192 n_39
*193 n_40
*194 n_41
*195 n_42
*196 n_43
*197 n_44
*198 n_45
*199 n_46
*200 n_47
*201 n_48
*202 n_49
*203 n_50
*204 n_51
*205 n_52
*206 n_53
*207 n_54
*208 n_55
*209 n_56
*210 n_57
*211 n_58
*212 n_59
*213 n_60
*214 n_61
*215 n_62
*216 n_63
*217 n_64
*218 n_65
*219 n_66
*220 n_67
*221 n_68
*222 n_69
*223 n_70
*224 n_71
*225 n_72
*226 n_73
*227 n_74
*228 n_75
*229 n_76
*230 n_77
*231 n_78
*232 n_79
*233 n_80
*234 n_81
*235 n_82
*236 n_83
*237 n_84
*238 n_85
*239 n_86
*240 n_87
*241 n_88
*242 n_89
*243 n_90
*244 n_91
*245 n_92
*246 n_93
*247 n_94
*248 n_95
*249 n_96
*250 n_97
*251 n_98
*252 n_99
*253 n_100
*254 n_101
*255 n_102
*256 n_103
*257 n_104
*258 n_105
*259 n_106
*260 n_107
*261 n_108
*262 n_109
*263 n_110
*264 n_111
*265 n_112
*266 n_113
*267 n_114
*268 n_115
*269 n_116
*270 n_117
*271 n_118
*272 n_119
*273 n_120
*274 n_121
*275 n_122
*276 n_123
*277 n_124
*278 n_125
*279 n_126
*280 n_127
*281 n_128
*282 n_129
*283 n_130
*284 n_131
*285 n_132
*286 n_133
*287 n_134
*288 n_135
*289 n_136
*290 n_137
*291 n_138
*292 n_139
*293 n_140
*294 n_141
*295 n_142
*296 n_143
*297 n_144
*298 n_145
*299 n_146
*300 n_147
*301 n_148
*302 n_149
*303 n_150
*304 n_151
*305 n_152
*306 n_153
*307 n_154
*308 n_155
*309 n_156
*310 n_157
*311 n_158
*312 n_159
*313 n_160
*314 n_161
*315 n_162
*316 n_163
*317 n_164
*318 n_165
*319 n_167
*320 n_171
*321 n_172
*322 n_173
*323 n_174
*324 n_175
*325 n_176
*326 n_177
*327 n_178
*328 n_179
*329 n_180
*330 n_181
*331 n_182
*332 n_183
*333 n_184
*334 n_185
*335 n_186
*336 n_187
*337 n_188
*338 n_189
*339 n_190
*340 n_191
*341 n_192
*342 n_193
*343 n_194
*344 n_196
*345 n_235
*346 n_236
*347 n_237
*348 n_238
*349 n_239
*350 n_240
*351 n_241
*352 n_242
*353 n_243
*354 n_244
*355 n_245
*356 n_246
*357 n_247
*358 n_248
*359 n_249
*360 n_250
*361 n_251
*362 n_252
*363 n_253
*364 n_254
*365 n_255
*366 n_256
*367 n_257
*368 n_258
*369 n_259
*370 n_260
*371 n_261
*372 n_262
*373 n_263
*374 n_264
*375 n_265
*376 n_266
*377 n_267
*378 n_268
*379 n_269
*380 n_270
*381 n_271
*382 out_valid_q
*383 rc_gclk
*384 rc_gclk_1884
*385 FE_PHC46_req_meta_q_11
*386 FE_PHC45_req_meta_q_12
*387 FE_PHC44_req_meta_q_8
*388 FE_PHC43_req_meta_q_10
*389 FE_PHC42_req_meta_q_7
*390 FE_PHC41_req_meta_q_5
*391 FE_PHC40_req_meta_q_15
*392 FE_PHC39_n_70
*393 FE_PHC38_n_55
*394 FE_PHC37_n_71
*395 FE_PHC36_n_59
*396 FE_PHC35_n_50
*397 FE_PHC34_n_54
*398 FE_PHC33_n_69
*399 FE_PHC32_n_49
*400 FE_PHC31_n_51
*401 FE_PHC30_n_57
*402 FE_PHC29_rst_n
*403 FE_PHC28_n_72
*404 FE_PHC27_n_52
*405 FE_PHC26_req_meta_q_10
*406 FE_PHC25_req_meta_q_4
*407 FE_PHC24_req_meta_q_8
*408 FE_PHC23_req_meta_q_11
*409 FE_PHC22_req_meta_q_14
*410 FE_PHC21_req_meta_q_7
*411 FE_PHC20_req_meta_q_12
*412 FE_PHC19_req_meta_q_15
*413 FE_PHC18_req_meta_q_6
*414 FE_PHC17_req_meta_q_5
*415 FE_PHC16_req_meta_q_13
*416 FE_PHC15_req_meta_q_0
*417 FE_PHC14_req_meta_q_3
*418 FE_PHC13_n_53
*419 FE_PHC12_n_58
*420 FE_PHC11_n_73
*421 FE_PHC10_req_meta_q_2
*422 FE_PHC9_req_meta_q_9
*423 FE_PHC8_reset_release_q_0
*424 FE_PHC7_n_56
*425 FE_PHC6_req_meta_q_1
*426 FE_PHC5_rst_n
*427 CTS_ccl_a_buf_00002
*428 CTS_ccl_a_buf_00001
*429 CTS_ccl_a_buf_00003
*430 FE_OFC2_n_167
*431 FE_OFC1_n_167
*432 FE_OFC0_n_15
*433 RC_CG_HIER_INST0/RC_CGIC_INST
*434 RC_CG_HIER_INST1/RC_CGIC_INST
*435 g4624__2398
*436 g4625__5107
*437 g4628__4319
*438 g4629__8428
*439 g4630__5526
*440 g4631__6783
*441 g4632__3680
*442 g4633__1617
*443 g4634__2802
*444 g4635__1705
*445 g4636__5122
*446 g4637__8246
*447 g4638__7098
*448 g4639__6131
*449 g4640__1881
*450 g4641__5115
*451 g4642__7482
*452 g4643__4733
*453 g4644__6161
*454 g4645__9315
*455 g4646__9945
*456 g4647__2883
*457 g4648__2346
*458 g4649__1666
*459 g4650__7410
*460 g4651__6417
*461 g4652__5477
*462 g4653__2398
*463 g4654__5107
*464 g4655__6260
*465 g4656__4319
*466 g4657__8428
*467 g4658__5526
*468 g4659__6783
*469 g4660__3680
*470 g4661__1617
*471 g4662__2802
*472 g4663__1705
*473 g4664__5122
*474 g4665__8246
*475 g4666__7098
*476 g4667__6131
*477 g4668__1881
*478 g4669__5115
*479 g4670__7482
*480 g4671__4733
*481 g4672__6161
*482 g4673__9315
*483 g4674__9945
*484 g4675__2883
*485 g4676__2346
*486 g4677__1666
*487 g4678__7410
*488 g4679__6417
*489 g4680__5477
*490 g4681__2398
*491 req_sync_q_reg\[12\]
*492 req_sync_q_reg\[2\]
*493 req_sync_q_reg\[0\]
*494 req_sync_q_reg\[15\]
*495 req_sync_q_reg\[13\]
*496 req_sync_q_reg\[1\]
*497 req_sync_q_reg\[6\]
*498 req_sync_q_reg\[14\]
*499 req_sync_q_reg\[4\]
*500 reset_release_q_reg\[1\]
*501 g4693__5107
*502 g4694__6260
*503 g4695__4319
*504 req_sync_q_reg\[10\]
*505 req_sync_q_reg\[8\]
*506 req_sync_q_reg\[7\]
*507 req_sync_q_reg\[5\]
*508 req_sync_q_reg\[9\]
*509 req_sync_q_reg\[3\]
*510 req_sync_q_reg\[11\]
*511 reset_release_q_reg\[0\]
*512 req_meta_q_reg\[6\]
*513 req_meta_q_reg\[15\]
*514 req_meta_q_reg\[0\]
*515 req_meta_q_reg\[1\]
*516 req_meta_q_reg\[3\]
*517 req_meta_q_reg\[5\]
*518 req_meta_q_reg\[7\]
*519 req_meta_q_reg\[8\]
*520 req_meta_q_reg\[9\]
*521 req_meta_q_reg\[11\]
*522 req_meta_q_reg\[2\]
*523 req_meta_q_reg\[10\]
*524 req_meta_q_reg\[12\]
*525 req_meta_q_reg\[13\]
*526 req_meta_q_reg\[14\]
*527 req_meta_q_reg\[4\]
*528 g4720__8428
*529 g4721__5526
*530 g4722__6783
*531 out_valid_q_reg
*532 g5734
*533 g5735
*534 g5736
*535 g5737
*536 g5738
*537 g5739
*538 g5740
*539 g5741
*540 g5742__3680
*541 g5743__1617
*542 g5744__2802
*543 g5745__1705
*544 g5746__5122
*545 g5747__8246
*546 g5748__7098
*547 g5749__6131
*548 g5750
*549 g5751
*550 g5752
*551 g5753
*552 g5754
*553 g5755
*554 g5756
*555 g5757
*556 g5758__1881
*557 g5759__5115
*558 g5760__7482
*559 g5761__4733
*560 g5762__6161
*561 g5763__9315
*562 g5764__9945
*563 g5765__2883
*564 g5767__2346
*565 g5768__1666
*566 g5769__7410
*567 g5770__6417
*568 g5771__5477
*569 g5773__2398
*570 g5774__5107
*571 g5775__6260
*572 g5776__4319
*573 g5777__8428
*574 g5778__5526
*575 g5779__6783
*576 g5780__3680
*577 g5781__1617
*578 g5782
*579 g5783__2802
*580 g5784__1705
*581 g5785__5122
*582 g5787__8246
*583 g5789__7098
*584 g5790__6131
*585 g5791__1881
*586 g5792
*587 g5793__5115
*588 g5794__7482
*589 g5795__4733
*590 g5796__6161
*591 g5797__9315
*592 g5798__9945
*593 g5799__2883
*594 g5800__2346
*595 g5801
*596 g5802__1666
*597 g5803
*598 g5804__7410
*599 g5805__6417
*600 g5806
*601 g5807__5477
*602 g5808__2398
*603 g5809__5107
*604 g5810__6260
*605 g5811__4319
*606 g5812__8428
*607 g5821__5526
*608 g5830
*609 g5831
*610 g5832
*611 g5833
*612 g5834
*613 g5836__6783
*614 g5837__3680
*615 g5838__1617
*616 g5839__2802
*617 g5840__1705
*618 g5841__5122
*619 g5842__8246
*620 g5843__7098
*621 g5844__6131
*622 g5845
*623 g5846
*624 g5847
*625 g5848
*626 g5849
*627 g5850
*628 g5851
*629 g5852
*630 g5853
*631 g5854
*632 g5855
*633 g5856__1881
*634 g5857__5115
*635 g5858__7482
*636 g5859__4733
*637 g5860__6161
*638 g5861__9315
*639 g5862__9945
*640 g5863__2883
*641 g5864__2346
*642 g5865__1666
*643 g5866__7410
*644 g5867__6417
*645 g5868__5477
*646 g5869__2398
*647 g5870__5107
*648 g5871__6260
*649 g5872
*650 g5873__4319
*651 g5874__8428
*652 g5875__5526
*653 g5876__6783
*654 g5877__3680
*655 g5878
*656 g5879
*657 g5880
*658 g5881
*659 g5882
*660 g5883
*661 g5884
*662 g5885
*663 g5886
*664 g5887
*665 g5888
*666 g5890
*667 g5891
*668 g5892
*669 g5893
*670 g5894
*671 g5895
*672 g5896
*673 g5897
*674 g5898
*675 g5899
*676 drc_bufs5904
*677 CDN_MBIT_ack_rank_q_reg\[0\]_MB_ack_rank_q_reg\[1\]_MB_ack_rank_q_reg\[2\]_MB_ack_rank_q_reg\[3\]
*678 CDN_MBIT_ack_rank_q_reg\[4\]_MB_ack_rank_q_reg\[5\]_MB_ack_rank_q_reg\[6\]_MB_ack_rank_q_reg\[7\]
*679 CDN_MBIT_ack_rank_q_reg\[8\]_MB_ack_rank_q_reg\[9\]_MB_ack_rank_q_reg\[10\]_MB_ack_rank_q_reg\[11\]
*680 CDN_MBIT_ack_rank_q_reg\[12\]_MB_ack_rank_q_reg\[13\]_MB_ack_rank_q_reg\[14\]_MB_ack_rank_q_reg\[15\]
*681 CDN_MBIT_out_rank_q_reg\[0\]_MB_out_rank_q_reg\[1\]_MB_out_rank_q_reg\[2\]_MB_out_rank_q_reg\[3\]
*682 CDN_MBIT_pending_rank_q_reg\[0\]_MB_pending_rank_q_reg\[1\]_MB_pending_rank_q_reg\[2\]_MB_pending_rank_q_reg\[3\]
*683 CDN_MBIT_pending_rank_q_reg\[4\]_MB_pending_rank_q_reg\[5\]_MB_pending_rank_q_reg\[6\]_MB_pending_rank_q_reg\[7\]
*684 CDN_MBIT_pending_rank_q_reg\[8\]_MB_pending_rank_q_reg\[9\]_MB_pending_rank_q_reg\[10\]_MB_pending_rank_q_reg\[11\]
*685 CDN_MBIT_pending_rank_q_reg\[12\]_MB_pending_rank_q_reg\[13\]_MB_pending_rank_q_reg\[14\]_MB_pending_rank_q_reg\[15\]
*686 g2


*PORTS

*49 I *C 0 0.095
*50 I *C 0 2.375
*51 I *C 0 42.655
*52 I *C 0 40.185
*53 I *C 0 37.905
*54 I *C 0 35.435
*55 I *C 0 33.155
*56 I *C 0 30.685
*57 I *C 0 28.405
*58 I *C 0 25.935
*59 I *C 0 23.655
*60 I *C 0 21.375
*61 I *C 0 18.905
*62 I *C 0 16.625
*63 I *C 0 14.155
*64 I *C 0 11.875
*65 I *C 0 9.405
*66 I *C 0 7.125
*67 O *C 45.6 8.645
*68 O *C 45.6 10.925
*69 O *C 45.6 13.015
*70 O *C 45.6 15.105
*71 O *C 45.6 17.195
*72 O *C 45.6 19.285
*73 O *C 45.6 21.375
*74 O *C 45.6 23.655
*75 O *C 45.6 25.745
*76 O *C 45.6 27.835
*77 O *C 45.6 29.925
*78 O *C 45.6 32.015
*79 O *C 45.6 34.295
*80 O *C 45.6 36.385
*81 O *C 45.6 38.475
*82 O *C 45.6 40.565
*83 O *C 45.6 0.285
*84 O *C 45.6 2.375
*85 O *C 45.6 4.465
*86 O *C 45.6 6.555
*87 O *C 45.6 42.655
*88 I *C 0 4.655


*D_NET *1 0.000346065

*CONN
*I *385:Y O *C 37.01 37.005 *L 0 *D CLKBUFX2
*I *510:D I *C 32.77 36.695 *L 0.00021 *D DFFQXL

*CAP
1 *385:Y 4.48819e-05
2 *510:D 8.27913e-05
3 *1:2 0.000127673145
4 *510:D *10:2 9.07182715e-05

*RES
1 *510:D *1:2 16.2918568
2 *1:2 *385:Y 14.2054
*END

*D_NET *2 0.000142813

*CONN
*I *386:A I *C 9.165 31.865 *L 0.00021 *D CLKBUFX2
*I *524:Q O *C 9.5 33.535 *L 0 *D DFFQXL

*CAP
1 *524:Q 3.62997e-05
2 *386:A 3.51066e-05
3 *2:2 7.14063623e-05

*RES
1 *386:A *2:2 7.45666027
2 *2:2 *524:Q 7.23502
*END

*D_NET *3 0.00041151

*CONN
*I *387:A I *C 5.965 31.865 *L 0.00021 *D CLKBUFX2
*I *519:Q O *C 5.3 26.695 *L 0 *D DFFQXL

*CAP
1 *519:Q 0.000205755234
2 *387:A 0.000205755234

*RES
1 *387:A *519:Q 17.9628
*END

*D_NET *4 3.23057e-05

*CONN
*I *388:A I *C 9.165 35.285 *L 0.00021 *D CLKBUFX2
*I *523:Q O *C 9.5 34.865 *L 0 *D DFFQXL

*CAP
1 *523:Q 1.20998e-05
2 *388:A 4.05306e-06
3 *4:2 1.61528589e-05

*RES
1 *388:A *4:2 6.64917
2 *4:2 *523:Q 6.89101219
*END

*D_NET *5 0.000530005

*CONN
*I *389:Y O *C 12.41 30.165 *L 0 *D CLKBUFX2
*I *506:D I *C 11.17 24.865 *L 0.00021 *D DFFQXL

*CAP
1 *389:Y 4.32735e-05
2 *506:D 0.000168442
3 *5:2 0.000211715703
4 *506:D *144:3 0.000106573105

*RES
1 *506:D *5:2 24.2073536
2 *5:2 *389:Y 7.52232
*END

*D_NET *6 0.000584722

*CONN
*I *390:A I *C 8.365 28.445 *L 0.00021 *D CLKBUFX2
*I *517:Q O *C 7.7 21.185 *L 0 *D DFFQXL

*CAP
1 *517:Q 0.00016707
2 *390:A 0.000125291
3 *6:2 0.000292360781

*RES
1 *390:A *6:2 9.10227
2 *6:2 *517:Q 9.73713398
*END

*D_NET *7 0.000323296

*CONN
*I *391:A I *C 20.365 35.285 *L 0.00021 *D CLKBUFX2
*I *513:Q O *C 16.5 34.865 *L 0 *D DFFQXL

*CAP
1 *513:Q 0.000108003613
2 *391:A 0.000108003613
3 *391:A *143:2 0.000107288359

*RES
1 *391:A *513:Q 30.1949
*END

*D_NET *8 0.000318646

*CONN
*I *392:Y O *C 16.1 26.695 *L 0 *D DLY1X1
*I *677:D1 I *C 15.3 28.215 *L 0.000211 *D DFF4X1

*CAP
1 *392:Y 5.00701e-06
2 *677:D1 0.000110209
3 *8:2 0.000115215781
4 *677:D1 *124:4 8.8214873e-05

*RES
1 *677:D1 *8:2 28.9173126
2 *8:2 *392:Y 0.165907
*END

*D_NET *9 0.000263333

*CONN
*I *393:Y O *C 13.1 9.595 *L 0 *D DLY1X1
*I *679:D1 I *C 11.5 11.115 *L 0.000211 *D DFF4X1

*CAP
1 *393:Y 5.81144e-05
2 *679:D1 7.35521338e-05
3 *9:2 5.81144e-05
4 *9:3 7.35521338e-05

*RES
1 *679:D1 *9:3 7.80948
2 *9:3 *9:2 6.60005
3 *9:2 *393:Y 14.6589279
*END

*D_NET *10 0.000700474

*CONN
*I *394:Y O *C 27.5 36.955 *L 0 *D DLY1X1
*I *680:D4 I *C 35.1 35.055 *L 0.00021 *D DFF4X1

*CAP
1 *680:D4 6.00799e-05
2 *394:Y 0.000183703
3 *10:2 0.000243782988
4 *10:2 *510:D 9.07182715e-05
5 *680:D4 *394:A 0.000122189521

*RES
1 *10:2 *394:Y 26.2633553
2 *680:D4 *10:2 7.80936
*END

*D_NET *11 0.000630319

*CONN
*I *395:A I *C 38.83 36.76 *L 0.000389 *D CLKBUFX4
*I *622:Y O *C 37.93 28.65 *L 0 *D INVX1

*CAP
1 *622:Y 0.000258386133
2 *395:A 0.000258386133
3 *395:A *212:3 0.000113546846

*RES
1 *395:A *622:Y 47.3635
*END

*D_NET *12 0.000257492

*CONN
*I *396:Y O *C 18.1 9.595 *L 0 *D DLY1X1
*I *679:D3 I *C 15.7 11.115 *L 0.00021 *D DFF4X1

*CAP
1 *396:Y 1.69868e-05
2 *679:D3 3.88627e-05
3 *12:2 8.98845e-05
4 *12:3 0.000111758711

*RES
1 *12:3 *12:2 15.0747299
2 *679:D3 *12:3 7.52218
3 *12:2 *396:Y 6.94782
*END

*D_NET *13 0.000594854

*CONN
*I *397:Y O *C 31.5 24.605 *L 0 *D DLY1X1
*I *678:D1 I *C 28.7 29.925 *L 0.000211 *D DFF4X1

*CAP
1 *397:Y 3.30791e-05
2 *678:D1 0.000155985
3 *13:2 8.64253e-05
4 *13:3 0.000209331504
5 *13:2 *130:3 0.000110030176

*RES
1 *678:D1 *13:3 23.9728699
2 *13:3 *13:2 8.42943
3 *13:2 *397:Y 14.2054
*END

*D_NET *14 0.000163674

*CONN
*I *398:Y O *C 17.9 26.695 *L 0 *D DLY1X1
*I *677:D2 I *C 18.545 28.445 *L 0.00021 *D DFF4X1

*CAP
1 *398:Y 3.98753e-05
2 *677:D2 4.19619e-05
3 *14:2 8.18371777e-05

*RES
1 *677:D2 *14:2 7.66587257
2 *14:2 *398:Y 7.31812
*END

*D_NET *15 0.000495195

*CONN
*I *399:Y O *C 39.9 34.865 *L 0 *D DLY1X1
*I *680:D3 I *C 31.9 35.055 *L 0.00021 *D DFF4X1

*CAP
1 *399:Y 1.26377e-05
2 *680:D3 0.00023496
3 *15:2 0.000247597695

*RES
1 *680:D3 *15:2 19.497036
2 *15:2 *399:Y 13.389
*END

*D_NET *16 0.000254631

*CONN
*I *400:Y O *C 16.3 9.595 *L 0 *D DLY1X1
*I *679:D2 I *C 14.745 11.345 *L 0.00021 *D DFF4X1

*CAP
1 *400:Y 2.24713e-05
2 *679:D2 0.000104844
3 *16:2 0.000127315518

*RES
1 *679:D2 *16:2 21.8485603
2 *16:2 *400:Y 7.09138
*END

*D_NET *17 0.000426114

*CONN
*I *401:Y O *C 24.3 31.445 *L 0 *D DLY1X1
*I *677:D4 I *C 22.7 28.215 *L 0.00021 *D DFF4X1

*CAP
1 *401:Y 0.000169813633
2 *677:D4 0.000169813633
3 *677:D4 *129:4 8.64863379e-05

*RES
1 *677:D4 *401:Y 30.5728
*END

*D_NET *18 0.000111938

*CONN
*I *402:Y O *C 7.01 7.455 *L 0 *D CLKBUFX2
*I *426:A I *C 6.935 5.775 *L 0.00021 *D DLY3X1

*CAP
1 *426:A 5.59687598e-05
2 *18:2 5.59687598e-05

*RES
1 *426:A *18:2 7.80951977
2 *18:2 *402:Y 6.60001
*END

*D_NET *19 0.00051868

*CONN
*I *403:Y O *C 36.5 36.955 *L 0 *D DLY1X1
*I *680:D2 I *C 30.945 35.285 *L 0.00021 *D DFF4X1

*CAP
1 *403:Y 3.08143e-05
2 *680:D2 0.000185074
3 *19:2 0.000215888027
4 *680:D2 *394:A 8.69035742e-05

*RES
1 *680:D2 *19:2 25.0538597
2 *19:2 *403:Y 7.09151
*END

*D_NET *20 0.000540137

*CONN
*I *404:Y O *C 34.61 33.585 *L 0 *D CLKBUFX2
*I *678:D4 I *C 36.1 29.925 *L 0.00021 *D DFF4X1

*CAP
1 *678:D4 4.86368e-05
2 *404:Y 2.9981e-05
3 *20:2 0.000154078008
4 *20:3 0.000135422
5 *20:2 *107:7 8.08238965e-05
6 *678:D4 *404:A 9.11951074e-05

*RES
1 *20:3 *404:Y 7.37862
2 *20:2 *20:3 15.1654482
3 *678:D4 *20:2 8.09691
*END

*D_NET *21 0.000187278

*CONN
*I *388:Y O *C 8.81 34.815 *L 0 *D CLKBUFX2
*I *405:A I *C 9.94 36.68 *L 0.00021 *D DLY1X1

*CAP
1 *388:Y 9.36388965e-05
2 *405:A 9.36388965e-05

*RES
1 *405:A *388:Y 28.7737
*END

*D_NET *22 0.000646591

*CONN
*I *406:A I *C 14.14 19.58 *L 0.00021 *D DLY1X1
*I *527:Q O *C 5.3 19.855 *L 0 *D DFFQXL

*CAP
1 *406:A 0.000270128
2 *527:Q 1.27553e-05
3 *22:2 0.000282883652
4 *406:A *61:2 8.08238965e-05

*RES
1 *22:2 *527:Q 13.389
2 *406:A *22:2 20.1017857
*END

*D_NET *23 0.000102282

*CONN
*I *387:Y O *C 5.61 31.395 *L 0 *D CLKBUFX2
*I *407:A I *C 5.74 29.84 *L 0.00021 *D DLY1X1

*CAP
1 *407:A 5.11407861e-05
2 *23:2 5.11407861e-05

*RES
1 *23:2 *387:Y 6.60001
2 *407:A *23:2 7.80951977
*END

*D_NET *24 0.000251055

*CONN
*I *385:A I *C 37.365 36.535 *L 0.00021 *D CLKBUFX2
*I *408:Y O *C 34.7 36.955 *L 0 *D DLY1X1

*CAP
1 *385:A 0.000111401
2 *408:Y 1.41263e-05
3 *24:2 0.000125527383

*RES
1 *24:2 *408:Y 13.3891
2 *385:A *24:2 15.4149532
*END

*D_NET *25 0.00026381

*CONN
*I *409:Y O *C 15.3 30.115 *L 0 *D DLY1X1
*I *498:D I *C 18.37 29.855 *L 0.00021 *D DFFQXL

*CAP
1 *498:D 7.83211e-05
2 *409:Y 1.22184e-05
3 *25:2 9.05394531e-05
4 *25:2 *498:CK 4.64916e-06
5 *498:D *45:26 5.52535e-05
6 *498:D *45:28 8.16584e-06
7 *498:D *45:30 1.46627488e-05

*RES
1 *25:2 *409:Y 13.389
2 *498:D *25:2 15.717268
*END

*D_NET *26 0.000309348

*CONN
*I *389:A I *C 12.765 29.695 *L 0.00021 *D CLKBUFX2
*I *410:Y O *C 13.7 26.695 *L 0 *D DLY1X1

*CAP
1 *410:Y 6.45508e-05
2 *389:A 9.01233e-05
3 *26:2 0.000154674053

*RES
1 *389:A *26:2 21.6475716
2 *26:2 *410:Y 8.24039
*END

*D_NET *27 0.000148296

*CONN
*I *386:Y O *C 8.81 31.395 *L 0 *D CLKBUFX2
*I *411:A I *C 8.14 33.26 *L 0.00021 *D DLY1X1

*CAP
1 *386:Y 1.80005e-05
2 *411:A 5.61475732e-05
3 *27:2 1.80005e-05
4 *27:3 5.61475732e-05

*RES
1 *411:A *27:3 8.09681416
2 *27:2 *386:Y 0.657273
3 *27:3 *27:2 6.60004
*END

*D_NET *28 0.000350177

*CONN
*I *391:Y O *C 20.01 34.815 *L 0 *D CLKBUFX2
*I *412:A I *C 16.94 36.68 *L 0.00021 *D DLY1X1

*CAP
1 *391:Y 3.96965e-05
2 *412:A 9.2447e-05
3 *28:2 0.000132143496
4 *412:A *415:A 8.5890293e-05

*RES
1 *412:A *28:2 22.7632523
2 *28:2 *391:Y 7.52234
*END

*D_NET *29 0.000404596

*CONN
*I *413:A I *C 5.74 28.3 *L 0.00021 *D DLY1X1
*I *512:Q O *C 5.3 23.275 *L 0 *D DFFQXL

*CAP
1 *413:A 6.25261e-05
2 *512:Q 1.59152e-05
3 *29:2 0.00018638373
4 *29:3 0.000139773

*RES
1 *29:3 *512:Q 0.657159
2 *29:2 *29:3 23.2546329
3 *413:A *29:2 7.66591
*END

*D_NET *30 0.000419736

*CONN
*I *390:Y O *C 8.01 27.975 *L 0 *D CLKBUFX2
*I *414:A I *C 8.94 23 *L 0.00021 *D DLY1X1

*CAP
1 *414:A 3.73126e-05
2 *390:Y 5.22129e-05
3 *30:2 0.000157655
4 *30:3 0.000172555449

*RES
1 *30:3 *390:Y 7.6658
2 *414:A *30:2 7.52222
3 *30:2 *30:3 16.2237892
*END

*D_NET *31 0.000168443

*CONN
*I *415:Y O *C 19.3 31.445 *L 0 *D DLY1X1
*I *495:D I *C 18.57 33.275 *L 0.00021 *D DFFQXL

*CAP
1 *415:Y 2.3126e-05
2 *495:D 6.10954e-05
3 *31:2 8.42213672e-05

*RES
1 *495:D *31:2 20.9566345
2 *31:2 *415:Y 7.09128
*END

*D_NET *32 0.00021112

*CONN
*I *416:A I *C 9.54 9.32 *L 0.00021 *D DLY1X1
*I *514:Q O *C 9.1 13.015 *L 0 *D DFFQXL

*CAP
1 *416:A 6.21079e-05
2 *514:Q 2.58682e-05
3 *32:2 7.96914111e-05
4 *32:3 4.34518e-05

*RES
1 *32:3 *514:Q 7.23507
2 *416:A *32:2 8.24034214
3 *32:2 *32:3 0.362879
*END

*D_NET *33 0.000544429

*CONN
*I *417:Y O *C 10.1 19.855 *L 0 *D DLY1X1
*I *509:D I *C 13.37 23.015 *L 0.00021 *D DFFQXL

*CAP
1 *509:D 0.000204206
2 *417:Y 1.0311e-05
3 *33:2 0.000214517109
4 *509:D *133:8 0.00011539459

*RES
1 *33:2 *417:Y 6.78394
2 *509:D *33:2 18.3374882
*END

*D_NET *34 0.000260353

*CONN
*I *418:Y O *C 20.5 9.595 *L 0 *D DLY1X1
*I *679:D4 I *C 18.9 11.115 *L 0.00021 *D DFF4X1

*CAP
1 *679:D4 7.43269922e-05
2 *418:Y 5.58493e-05
3 *34:2 5.58493e-05
4 *34:3 7.43269922e-05

*RES
1 *34:3 *34:2 6.60005
2 *34:2 *418:Y 14.6589279
3 *679:D4 *34:3 7.80948
*END

*D_NET *35 0.000405431

*CONN
*I *419:Y O *C 21.1 31.445 *L 0 *D DLY1X1
*I *677:D3 I *C 19.5 28.215 *L 0.00021 *D DFF4X1

*CAP
1 *677:D3 7.98711e-05
2 *419:Y 3.93978e-05
3 *35:2 0.000119268896
4 *35:2 *129:4 8.63671289e-05
5 *677:D3 *419:A 8.0525874e-05

*RES
1 *35:2 *419:Y 21.2740898
2 *677:D3 *35:2 8.81497
*END

*D_NET *36 0.000259399

*CONN
*I *420:Y O *C 29.3 36.955 *L 0 *D DLY1X1
*I *680:D1 I *C 27.7 35.055 *L 0.000211 *D DFF4X1

*CAP
1 *420:Y 7.52806641e-05
2 *680:D1 5.4419e-05
3 *36:2 7.52806641e-05
4 *36:3 5.4419e-05

*RES
1 *680:D1 *36:3 7.52227
2 *36:3 *36:2 6.60005
3 *36:2 *420:Y 14.6589279
*END

*D_NET *37 0.000319839

*CONN
*I *421:A I *C 6.34 21.46 *L 0.00021 *D DLY1X1
*I *522:Q O *C 6.3 16.435 *L 0 *D DFFQXL

*CAP
1 *421:A 0.000159919258
2 *37:2 0.000159919258

*RES
1 *421:A *37:2 10.2511644
2 *37:2 *522:Q 6.6
*END

*D_NET *38 0.000108242

*CONN
*I *422:A I *C 9.54 26.42 *L 0.00021 *D DLY1X1
*I *520:Q O *C 9.1 28.025 *L 0 *D DFFQXL

*CAP
1 *422:A 2.22323e-05
2 *520:Q 3.18887e-05
3 *38:2 5.41210156e-05

*RES
1 *38:2 *520:Q 7.52222538
2 *422:A *38:2 7.15941
*END

*D_NET *39 0.000117183

*CONN
*I *423:Y O *C 8.3 10.925 *L 0 *D DLY1X1
*I *500:D I *C 8.365 12.975 *L 0.000307 *D DFFRHQX1

*CAP
1 *500:D 5.85913672e-05
2 *39:2 5.85913672e-05

*RES
1 *500:D *39:2 7.80951977
2 *39:2 *423:Y 6.60001
*END

*D_NET *40 0.000483572

*CONN
*I *424:Y O *C 35.01 27.975 *L 0 *D CLKBUFX2
*I *678:D2 I *C 31.945 29.695 *L 0.00021 *D DFF4X1

*CAP
1 *424:Y 5.48376e-06
2 *678:D2 4.13057e-05
3 *40:2 5.16181e-05
4 *40:3 8.74400098e-05
5 *40:3 *467:B 0.000106632705
6 *40:3 *91:3 0.0001910925

*RES
1 *678:D2 *40:3 7.52233
2 *40:3 *40:2 22.4593887
3 *40:2 *424:Y 0.165868
*END

*D_NET *41 0.000414729

*CONN
*I *425:A I *C 12.74 12.74 *L 0.00021 *D DLY1X1
*I *515:Q O *C 9.1 14.345 *L 0 *D DFFQXL

*CAP
1 *515:Q 9.64396e-05
2 *425:A 5.87709e-05
3 *41:2 0.000155210498
4 *41:2 *153:2 0.000104308125

*RES
1 *425:A *41:2 7.66592
2 *41:2 *515:Q 22.7708817
*END

*D_NET *42 0.000737369

*CONN
*I *426:Y O *C 7.89 5.55 *L 0 *D DLY3X1
*I *511:RN I *C 6.3 14.535 *L 0.000617 *D DFFRHQX1
*I *500:RN I *C 6.3 12.825 *L 0.000617 *D DFFRHQX1

*CAP
1 *426:Y 1.87763e-05
2 *511:RN 4.97084e-05
3 *500:RN 1.94905e-05
4 *42:3 0.000249623
5 *42:4 0.000300049785
6 *42:4 *423:A 9.97185742e-05

*RES
1 *500:RN *42:4 3.58487
2 *511:RN *42:4 4.31344
3 *42:4 *42:3 6.69014454
4 *42:3 *426:Y 3.61519
*END

*D_NET *43 0.000650108

*CONN
*I *428:A I *C 11.7 29.925 *L 0.000389 *D CLKBUFX3
*I *429:Y O *C 11.735 21.84 *L 0 *D BUFX2
*I *427:A I *C 11.7 26.505 *L 0.000389 *D CLKBUFX3

*CAP
1 *428:A 0.000116885
2 *429:Y 0.000158369
3 *43:3 0.000275254258
4 *43:3 *497:CK 3.75509e-06
5 *43:3 *507:CK 3.63588e-06
6 *43:3 *44:22 2.11596e-05
7 *43:3 *44:23 5.79357e-05
8 *43:3 *44:27 1.2517e-05
9 *428:A *44:26 5.96089101e-07

*RES
1 *427:A *43:3 3.29982
2 *43:3 *429:Y 20.805954
3 *428:A *43:3 5.70945
*END

*D_NET *44 0.00440329

*CONN
*I *679:CK I *C 15.3 11.115 *L 0.000211 *D DFF4X1
*I *427:Y O *C 11.485 25.92 *L 0 *D CLKBUFX3
*I *527:CK I *C 5.685 19.335 *L 0.00021 *D DFFQXL
*I *522:CK I *C 6.685 15.915 *L 0.00021 *D DFFQXL
*I *519:CK I *C 5.685 26.175 *L 0.00021 *D DFFQXL
*I *518:CK I *C 5.485 25.125 *L 0.00021 *D DFFQXL
*I *517:CK I *C 8.085 21.705 *L 0.00021 *D DFFQXL
*I *516:CK I *C 5.685 18.285 *L 0.00021 *D DFFQXL
*I *515:CK I *C 9.485 14.865 *L 0.00021 *D DFFQXL
*I *514:CK I *C 9.485 12.495 *L 0.00021 *D DFFQXL
*I *512:CK I *C 5.685 22.755 *L 0.00021 *D DFFQXL
*I *511:CK I *C 5.3 14.535 *L 0.00021 *D DFFRHQX1
*I *509:CK I *C 10.885 22.755 *L 0.00021 *D DFFQXL
*I *507:CK I *C 13.285 21.705 *L 0.00021 *D DFFQXL
*I *506:CK I *C 8.685 25.125 *L 0.00021 *D DFFQXL
*I *500:CK I *C 5.3 12.825 *L 0.00021 *D DFFRHQX1
*I *499:CK I *C 10.885 19.335 *L 0.00021 *D DFFQXL
*I *497:CK I *C 15.085 25.125 *L 0.00021 *D DFFQXL
*I *496:CK I *C 9.485 18.285 *L 0.00021 *D DFFQXL
*I *493:CK I *C 11.285 15.915 *L 0.00021 *D DFFQXL
*I *492:CK I *C 11.885 25.125 *L 0.00021 *D DFFQXL

*CAP
1 *679:CK 0.000133456
2 *497:CK 0.000147222
3 *507:CK 0.000100196
4 *492:CK 4.89343e-05
5 *493:CK 4.15457e-05
6 *427:Y 1.57361e-05
7 *509:CK 2.90277e-05
8 *499:CK 6.92602e-05
9 *496:CK 9.179e-05
10 *515:CK 8.15994e-05
11 *514:CK 8.33287e-05
12 *506:CK 4.98282e-05
13 *517:CK 0.000131847
14 *522:CK 3.86234e-05
15 *519:CK 2.17562e-05
16 *512:CK 6.43616e-06
17 *527:CK 3.30194e-05
18 *516:CK 8.40276e-06
19 *518:CK 1.32916e-05
20 *500:CK 6.61006e-05
21 *44:21 0.000188053
22 *44:22 0.000119566
23 *44:23 0.000107767
24 *44:24 0.000163852
25 *44:25 9.56647e-05
26 *44:26 2.58681e-05
27 *44:27 0.00014353
28 *44:28 0.000139892
29 *44:29 0.000148357
30 *44:30 0.000145018
31 *44:31 0.000159383
32 *44:32 0.000104366
33 *44:33 0.000196098
34 *44:34 0.000213026992
35 *44:35 0.000139177
36 *44:36 0.00019443
37 *44:37 0.00020206
38 *44:38 4.51799e-05
39 *44:39 0.000104965
40 *44:40 0.000173451
41 *44:41 0.000127972
42 *44:31 *49:4 3.83854e-05
43 *44:30 *49:4 1.74642e-05
44 *44:29 *49:4 1.63913e-05
45 *44:27 *49:4 2.52128e-05
46 *44:25 *49:4 3.74317e-05
47 *44:24 *49:4 1.9729051e-05
48 *44:27 *43:3 1.2517e-05
49 *44:26 *428:A 5.96046e-07
50 *44:23 *43:3 5.79357e-05
51 *44:22 *43:3 2.11596e-05
52 *507:CK *43:3 3.63588e-06
53 *497:CK *43:3 3.755133e-06

*RES
1 *44:41 *44:40 4.7079
2 *500:CK *44:41 7.95316
3 *511:CK *44:41 6.6001
4 *518:CK *44:39 3.49314
5 *44:38 *44:37 0.090759
6 *516:CK *44:38 3.50417
7 *527:CK *44:38 4.22228
8 *512:CK *44:36 3.35194
9 *519:CK *44:35 3.81025
10 *44:40 *44:37 5.19496
11 *44:37 *44:36 3.5076
12 *44:36 *44:39 1.64035
13 *44:39 *44:35 0.699314
14 *44:35 *44:34 5.51352
15 *522:CK *44:40 7.4435
16 *517:CK *44:33 9.37945
17 *44:34 *44:32 2.02599
18 *506:CK *44:34 7.35835
19 *514:CK *44:31 11.8485689
20 *515:CK *44:30 11.8485689
21 *496:CK *44:29 11.8485689
22 *44:33 *44:28 0.665144
23 *499:CK *44:27 10.8066
24 *509:CK *44:33 7.06166
25 *44:26 *427:Y 3.56835
26 *44:32 *44:26 3.35718
27 *493:CK *44:25 10.5042
28 *44:24 *44:31 4.25392
29 *44:31 *44:30 1.7689
30 *44:30 *44:25 0.763497
31 *44:25 *44:29 1.62535
32 *44:29 *44:27 0.763497
33 *44:27 *44:23 2.05618
34 *44:28 *44:23 3.33639
35 *44:23 *44:22 1.91263
36 *44:22 *44:21 3.97712
37 *44:21 *44:32 0.362855
38 *492:CK *44:22 10.353
39 *507:CK *44:28 8.48289
40 *497:CK *44:21 9.98711
41 *679:CK *44:24 9.73815
*END

*D_NET *45 0.00437128

*CONN
*I *680:CK I *C 31.5 35.055 *L 0.000211 *D DFF4X1
*I *428:Y O *C 11.485 29.34 *L 0 *D CLKBUFX3
*I *678:CK I *C 32.5 29.925 *L 0.000211 *D DFF4X1
*I *677:CK I *C 19.1 28.215 *L 0.000211 *D DFF4X1
*I *526:CK I *C 13.285 35.385 *L 0.00021 *D DFFQXL
*I *525:CK I *C 13.685 36.435 *L 0.00021 *D DFFQXL
*I *524:CK I *C 9.885 33.015 *L 0.00021 *D DFFQXL
*I *523:CK I *C 9.885 35.385 *L 0.00021 *D DFFQXL
*I *521:CK I *C 22.485 33.015 *L 0.00021 *D DFFQXL
*I *520:CK I *C 9.485 28.545 *L 0.00021 *D DFFQXL
*I *513:CK I *C 16.885 35.385 *L 0.00021 *D DFFQXL
*I *510:CK I *C 30.285 36.435 *L 0.00021 *D DFFQXL
*I *508:CK I *C 21.485 29.595 *L 0.00021 *D DFFQXL
*I *505:CK I *C 9.885 31.965 *L 0.00021 *D DFFQXL
*I *504:CK I *C 25.885 33.015 *L 0.00021 *D DFFQXL
*I *498:CK I *C 15.885 29.595 *L 0.00021 *D DFFQXL
*I *495:CK I *C 16.085 33.015 *L 0.00021 *D DFFQXL
*I *494:CK I *C 19.285 33.015 *L 0.00021 *D DFFQXL
*I *491:CK I *C 13.285 31.965 *L 0.00021 *D DFFQXL

*CAP
1 *678:CK 9.17906e-05
2 *680:CK 5.80543e-05
3 *510:CK 6.69364e-05
4 *504:CK 1.63895e-05
5 *521:CK 1.50795e-05
6 *508:CK 7.76648e-05
7 *494:CK 1.5497e-05
8 *677:CK 4.44647e-05
9 *513:CK 9.53679e-05
10 *495:CK 2.92665e-05
11 *498:CK 2.18167e-05
12 *525:CK 4.01136e-05
13 *526:CK 1.4662e-05
14 *491:CK 6.40753e-05
15 *428:Y 9.53715e-06
16 *523:CK 7.19425e-05
17 *524:CK 4.78621e-05
18 *505:CK 6.61482e-06
19 *520:CK 8.80945e-05
20 *45:19 6.19879e-05
21 *45:20 0.000235855586
22 *45:21 0.000173749
23 *45:22 0.000116825
24 *45:23 0.000199557
25 *45:24 0.000156283
26 *45:25 0.000150086
27 *45:26 0.000133394
28 *45:27 5.13207e-05
29 *45:28 0.000166296
30 *45:29 0.000196696
31 *45:30 0.000146329
32 *45:31 0.000121237
33 *45:32 4.89346e-05
34 *45:33 7.99897e-05
35 *45:34 0.000177859
36 *45:35 0.000198423
37 *45:36 1.78831e-05
38 *45:37 0.000213085
39 *45:38 0.000134884
40 *45:39 0.000120521
41 *45:40 0.00010872
42 *45:37 *523:D 6.21676e-05
43 *45:34 *523:D 2.80738e-05
44 *526:CK *523:D 3.18383479e-11
45 *45:30 *498:D 1.46627e-05
46 *498:CK *25:2 4.64916e-06
47 *45:28 *498:D 8.16584e-06
48 *45:26 *498:D 5.52535474e-05
49 *495:CK *55:2 4.82798e-06
50 *45:25 *55:2 5.04255e-05
51 *45:24 *55:2 5.4419e-05
52 *45:23 *55:2 4.50611788e-05
53 *45:26 *120:5 3.67761e-05
54 *45:26 *120:6 1.59144e-05
55 *508:CK *120:5 3.25441e-05
56 *45:20 *120:4 7.31945459e-05

*RES
1 *520:CK *45:40 8.77946
2 *45:39 *45:38 4.75748
3 *505:CK *45:39 3.43142
4 *524:CK *45:39 4.14442
5 *523:CK *45:37 8.20984
6 *45:36 *428:Y 3.56845
7 *45:40 *45:36 3.34676
8 *45:35 *45:40 0.283519
9 *45:34 *45:35 5.32898
10 *45:38 *45:34 3.33628
11 *45:37 *45:34 5.84416
12 *45:33 *45:37 1.26991
13 *491:CK *45:38 8.05855
14 *526:CK *45:33 6.78865
15 *45:32 *45:31 3.34676
16 *45:31 *45:33 0.362856
17 *525:CK *45:32 4.14442
18 *45:30 *45:35 3.15906
19 *498:CK *45:30 6.91933
20 *495:CK *45:29 7.00038
21 *45:28 *45:30 0.362856
22 *45:29 *45:28 9.33465
23 *513:CK *45:31 9.26819
24 *45:27 *45:26 3.35723
25 *45:26 *45:28 2.32825
26 *45:25 *45:29 2.32825
27 *677:CK *45:27 4.11025
28 *494:CK *45:25 6.77817
29 *508:CK *45:26 8.64276
30 *45:24 *45:25 2.47954
31 *521:CK *45:24 6.77817
32 *45:23 *45:24 2.63066
33 *504:CK *45:23 6.78865
34 *510:CK *45:22 11.2541914
35 *45:21 *45:20 5.54656
36 *45:20 *45:23 6.87417
37 *45:19 *45:22 3.33628
38 *45:22 *45:20 1.48165
39 *680:CK *45:19 7.77263
40 *678:CK *45:21 8.52857
*END

*D_NET *46 0.0089032

*CONN
*I *557:B0 I *C 23.5 16.435 *L 0.00039 *D OAI211X1
*I *545:B0 I *C 21.1 19.855 *L 0.00039 *D OAI211X1
*I *541:B0 I *C 23.7 19.855 *L 0.00039 *D OAI211X1
*I *560:B0 I *C 22.5 16.435 *L 0.00039 *D OAI211X1
*I *544:B0 I *C 22.3 19.855 *L 0.00039 *D OAI211X1
*I *542:B0 I *C 24.9 19.855 *L 0.00039 *D OAI211X1
*I *540:B0 I *C 31.5 17.765 *L 0.00039 *D OAI211X1
*I *621:C0 I *C 18.185 19.665 *L 0.000392 *D OAI211X1
*I *620:C0 I *C 19.385 24.795 *L 0.000392 *D OAI211X1
*I *556:B0 I *C 27.7 23.275 *L 0.00039 *D OAI211X1
*I *561:B0 I *C 31.3 23.275 *L 0.00039 *D OAI211X1
*I *634:C0 I *C 20.385 26.505 *L 0.000392 *D OAI211X1
*I *635:C0 I *C 22.385 26.505 *L 0.000392 *D OAI211X1
*I *543:B0 I *C 30.1 19.855 *L 0.00039 *D OAI211X1
*I *563:B0 I *C 32.9 23.275 *L 0.00039 *D OAI211X1
*I *546:B0 I *C 31.1 19.855 *L 0.00039 *D OAI211X1
*I *547:B0 I *C 34.3 19.855 *L 0.00039 *D OAI211X1
*I *562:B0 I *C 34.1 23.275 *L 0.00039 *D OAI211X1
*I *619:C0 I *C 34.385 31.635 *L 0.000392 *D OAI211X1
*I *640:C0 I *C 35.985 24.795 *L 0.000392 *D OAI211X1
*I *477:A I *C 37.1 31.825 *L 0.000211 *D AND2XL
*I *638:C0 I *C 30.185 28.215 *L 0.000392 *D OAI211X1
*I *469:A I *C 36.3 31.825 *L 0.000211 *D AND2XL
*I *636:C0 I *C 37.385 24.795 *L 0.000392 *D OAI211X1
*I *618:C0 I *C 31.785 33.345 *L 0.000392 *D OAI211X1
*I *460:A I *C 39.3 33.155 *L 0.000211 *D AND2XL
*I *633:C0 I *C 38.385 23.085 *L 0.000392 *D OAI211X1
*I *488:A I *C 37.7 33.155 *L 0.000211 *D AND2XL
*I *617:C0 I *C 27.785 31.635 *L 0.000392 *D OAI211X1
*I *486:A I *C 36.5 33.155 *L 0.000211 *D AND2XL
*I *471:A I *C 39.7 29.735 *L 0.000211 *D AND2XL
*I *476:A I *C 39.5 31.825 *L 0.000211 *D AND2XL
*I *467:A I *C 39.3 28.405 *L 0.000211 *D AND2XL
*I *484:A I *C 39.7 24.985 *L 0.000211 *D AND2XL
*I *458:A I *C 38.5 33.155 *L 0.000211 *D AND2XL
*I *465:A I *C 39.3 26.315 *L 0.000211 *D AND2XL
*I *479:A I *C 35.7 33.155 *L 0.000211 *D AND2XL
*I *459:A I *C 38.7 31.825 *L 0.000211 *D AND2XL
*I *643:C0 I *C 31.785 31.635 *L 0.000392 *D OAI211X1
*I *430:Y O *C 19.54 15.66 *L 0 *D BUFX3

*CAP
1 *460:A 1.5615e-05
2 *465:A 1.3292e-05
3 *459:A 3.07565e-05
4 *458:A 1.00752e-05
5 *633:C0 2.58671e-05
6 *488:A 3.25441e-05
7 *636:C0 6.80086e-05
8 *477:A 4.04733e-05
9 *486:A 2.34822e-05
10 *469:A 4.88184e-05
11 *479:A 3.95795e-05
12 *547:B0 0.000105977
13 *619:C0 0.000105084
14 *562:B0 3.48671e-05
15 *563:B0 2.8314e-05
16 *618:C0 7.86191e-05
17 *643:C0 5.89511e-05
18 *540:B0 7.4743e-05
19 *561:B0 2.00884e-05
20 *546:B0 9.06191e-06
21 *543:B0 1.12035e-05
22 *638:C0 4.88759e-05
23 *556:B0 0.00011015
24 *617:C0 0.00014496
25 *542:B0 1.94291e-05
26 *541:B0 2.22344e-05
27 *557:B0 8.29111e-05
28 *560:B0 3.54069e-05
29 *544:B0 9.2389e-06
30 *635:C0 2.23539e-05
31 *545:B0 3.52875e-05
32 *634:C0 2.69999e-05
33 *430:Y 3.7314e-05
34 *621:C0 8.55306e-05
35 *46:40 0.00014907
36 *46:41 0.000111221
37 *46:42 0.000175057
38 *46:43 0.000128685
39 *46:44 0.000138999
40 *46:45 7.52829e-05
41 *46:46 4.53007e-05
42 *46:47 0.000226857
43 *46:48 6.31192e-05
44 *46:49 8.1597e-05
45 *46:50 8.09421e-05
46 *46:51 7.79023e-05
47 *46:52 7.72475e-05
48 *46:53 4.56591e-05
49 *46:54 0.000174942
50 *46:55 5.22741e-05
51 *46:56 0.000131668
52 *46:57 0.000106154
53 *46:58 0.000174641
54 *46:59 0.000258326
55 *46:60 0.000235318
56 *46:61 0.00018972
57 *46:62 0.0001508
58 *46:63 5.51944e-05
59 *46:64 0.000124933
60 *46:65 0.000209331
61 *46:66 5.72785e-05
62 *46:67 0.000106694
63 *46:68 0.000153066
64 *46:69 0.000244499
65 *46:70 0.000140013
66 *46:71 9.17297e-05
67 *46:72 0.000116407
68 *46:73 0.000144601
69 *46:74 8.16589e-05
70 *46:75 0.000177743
71 *46:76 0.000139119
72 *46:77 4.39865e-05
73 *46:78 0.000199853
74 *46:79 0.000289976602
75 *46:80 0.000243127
76 *46:81 9.49509e-05
77 *46:82 0.000151813
78 *46:79 *456:A 8.42809668e-05
79 *541:B0 *541:A1 0.000197052949
80 *46:69 *462:AN 0.000115871426
81 *556:B0 *342:5 0.000110626221
82 *46:65 *328:6 0.000159978867
83 *540:B0 *546:A1 8.58306836e-05
84 *46:59 *469:B 8.75592187e-05
85 *46:56 *562:A0 0.000131845479
86 *547:B0 *547:A1 0.000182509414
87 *547:B0 *546:C0 8.2612041e-05
88 *46:47 *655:A 8.35657129e-05
89 *46:45 *460:B 0.000111699102
90 *459:A *458:B 9.69171484e-05

*RES
1 *621:C0 *46:82 5.03868
2 *46:82 *46:81 1.36071
3 *46:81 *430:Y 3.93494
4 *46:80 *46:82 0.241861
5 *46:79 *46:80 4.22581
6 *620:C0 *46:79 3.29999
7 *46:78 *46:79 5.83786
8 *634:C0 *46:78 6.94652
9 *46:77 *46:76 3.35725
10 *46:76 *46:80 5.04676
11 *545:B0 *46:77 4.15221
12 *46:75 *46:78 1.57236
13 *635:C0 *46:75 6.93616
14 *544:B0 *46:74 3.49267
15 *46:73 *46:72 0.844494
16 *46:72 *46:76 4.39653
17 *46:74 *46:72 0.922128
18 *560:B0 *46:73 4.01012
19 *557:B0 *46:73 11.5109682
20 *46:71 *46:74 4.37159
21 *541:B0 *46:71 6.84043
22 *46:70 *46:71 0.897362
23 *542:B0 *46:70 6.7347
24 *46:69 *46:75 4.15766
25 *46:68 *46:67 3.34689
26 *46:67 *46:69 0.514108
27 *617:C0 *46:68 6.87223
28 *556:B0 *46:69 9.63176
29 *46:66 *46:65 3.4384
30 *46:65 *46:70 3.91193
31 *46:64 *46:67 5.22153
32 *638:C0 *46:64 4.28781
33 *543:B0 *46:66 3.40204
34 *46:63 *46:66 0.695548
35 *546:B0 *46:63 3.40204
36 *46:62 *46:61 2.52101
37 *561:B0 *46:62 3.58927
38 *46:61 *46:63 0.298594
39 *540:B0 *46:61 4.65315
40 *46:60 *46:59 5.05221
41 *46:59 *46:58 6.42065
42 *643:C0 *46:60 7.4255
43 *618:C0 *46:59 11.2443
44 *46:57 *46:62 4.60642
45 *563:B0 *46:57 6.93616
46 *562:B0 *46:56 7.14465
47 *619:C0 *46:60 9.29523
48 *547:B0 *46:65 9.93808
49 *46:56 *46:57 1.84461
50 *479:A *46:58 7.08528
51 *46:58 *46:55 0.665162
52 *46:54 *46:56 1.11885
53 *46:53 *46:54 3.95198
54 *46:52 *46:53 3.35725
55 *640:C0 *46:53 3.29999
56 *469:A *46:51 4.1278
57 *486:A *46:51 3.72803
58 *46:51 *46:55 3.33635
59 *46:55 *46:50 0.514108
60 *477:A *46:50 7.2258
61 *46:50 *46:49 0.514108
62 *636:C0 *46:52 7.87796
63 *488:A *46:49 7.07738
64 *46:49 *46:48 0.665162
65 *46:47 *46:54 2.34343
66 *633:C0 *46:47 6.84992
67 *458:A *46:46 3.72803
68 *46:46 *46:48 3.33635
69 *46:48 *46:45 4.00168
70 *459:A *46:46 4.09759
71 *465:A *46:44 3.64776
72 *467:A *46:43 3.29999
73 *460:A *46:45 3.72803
74 *46:44 *46:42 1.65561
75 *46:43 *46:44 1.35316
76 *46:45 *46:41 0.797597
77 *476:A *46:41 3.29999
78 *46:41 *46:40 1.88237
79 *484:A *46:42 3.29999
80 *471:A *46:40 3.29999
81 *46:42 *46:47 5.59688
82 *46:40 *46:43 1.46645
*END

*D_NET *47 0.00415635

*CONN
*I *639:C0 I *C 17.585 12.825 *L 0.000392 *D OAI211X1
*I *641:C0 I *C 15.585 14.535 *L 0.000392 *D OAI211X1
*I *637:C0 I *C 15.185 16.245 *L 0.000392 *D OAI211X1
*I *642:C0 I *C 19.985 12.825 *L 0.000392 *D OAI211X1
*I *436:B I *C 23.1 13.015 *L 0.00039 *D NAND3BX1
*I *676:A I *C 24.9 13.015 *L 0.000395 *D INVX1
*I *559:B0 I *C 23.3 14.345 *L 0.00039 *D OAI211X1
*I *435:A I *C 24.9 7.695 *L 0.00039 *D NAND2X1
*I *558:B0 I *C 21.9 14.345 *L 0.00039 *D OAI211X1
*I *576:A I *C 26.5 7.505 *L 0.000211 *D NAND2XL
*I *564:A I *C 27.3 9.405 *L 0.00039 *D NAND2X1
*I *584:A I *C 30.5 9.595 *L 0.000211 *D NAND2XL
*I *583:A I *C 31.1 9.595 *L 0.000211 *D NAND2XL
*I *481:A I *C 40.3 9.215 *L 0.000211 *D AND2XL
*I *463:A I *C 40.1 11.305 *L 0.000211 *D AND2XL
*I *473:A I *C 40.3 14.725 *L 0.000211 *D AND2XL
*I *474:A I *C 40.1 12.635 *L 0.000211 *D AND2XL
*I *431:Y O *C 13.135 15 *L 0 *D BUFX2
*I *430:A I *C 19.945 16.24 *L 0.000389 *D BUFX3

*CAP
1 *473:A 5.20976e-05
2 *583:A 4.95297e-05
3 *564:A 8.93484e-05
4 *576:A 8.70418e-06
5 *435:A 2.40225e-05
6 *676:A 4.21381e-05
7 *559:B0 3.52245e-05
8 *436:B 2.9923e-05
9 *558:B0 4.35145e-05
10 *642:C0 2.60488e-05
11 *430:A 8.34479e-05
12 *639:C0 5.64433e-05
13 *641:C0 2.32451e-05
14 *637:C0 0.000119921
15 *431:Y 9.9002e-05
16 *47:19 7.39664e-05
17 *47:20 0.000325801
18 *47:21 6.6817e-05
19 *47:22 9.94226e-05
20 *47:23 6.97354e-05
21 *47:24 0.000417590156
22 *47:25 0.000177977
23 *47:26 0.00011051
24 *47:27 0.000242175
25 *47:28 0.000262259
26 *47:29 8.45822e-05
27 *47:30 6.95569e-05
28 *47:31 0.000142695
29 *47:32 0.000143052
30 *47:33 0.000114677
31 *47:34 0.000211118
32 *47:35 0.000116168
33 *47:36 0.000234605
34 *47:28 *338:4 9.8586084e-05
35 *47:22 *463:B 0.000155091289
36 *47:20 *154:8 0.00015735626

*RES
1 *47:36 *431:Y 8.49162
2 *637:C0 *47:36 15.6484842
3 *47:35 *47:36 0.362941
4 *641:C0 *47:35 6.92954
5 *639:C0 *47:34 7.45462
6 *47:34 *47:35 1.95797
7 *430:A *47:33 4.98256
8 *47:33 *47:32 3.33619
9 *47:32 *47:34 1.72349
10 *642:C0 *47:33 3.85792
11 *47:31 *47:32 1.65568
12 *558:B0 *47:31 7.3412
13 *436:B *47:30 7.29034
14 *47:30 *47:29 3.33619
15 *47:29 *47:31 1.11867
16 *559:B0 *47:30 3.95391
17 *47:28 *47:29 1.27005
18 *47:27 *47:28 11.6366
19 *676:A *47:28 7.19053
20 *435:A *47:27 6.83523
21 *47:26 *47:25 3.43743
22 *47:25 *47:27 1.19771
23 *576:A *47:26 3.3467
24 *564:A *47:26 5.32783
25 *47:24 *47:25 7.48184
26 *47:23 *47:24 0.414994
27 *584:A *47:23 6.60003
28 *583:A *47:23 4.22229
29 *463:A *47:22 3.2999
30 *474:A *47:21 3.2999
31 *47:22 *47:20 1.79512
32 *47:21 *47:22 1.0659
33 *481:A *47:20 3.2999
34 *473:A *47:19 4.65305
35 *47:20 *47:24 14.3861
36 *47:19 *47:21 0.52913
*END

*D_NET *48 0.000648022

*CONN
*I *436:C I *C 22.9 13.015 *L 0.000392 *D NAND3BX1
*I *644:A1 I *C 24.12 12.97 *L 0.000392 *D AOI21X1
*I *686:AN I *C 24.3 9.405 *L 0.00021 *D NAND2BX1
*I *432:Y O *C 24.535 15 *L 0 *D BUFX2

*CAP
1 *686:AN 0.000180124
2 *432:Y 4.65525e-05
3 *436:C 6.97384e-05
4 *48:4 0.000207722188
5 *48:5 0.000143886

*RES
1 *436:C *48:5 4.7892
2 *48:4 *48:5 0.347742
3 *48:5 *432:Y 4.32618
4 *644:A1 *48:4 3.29998
5 *686:AN *48:4 7.43544102
*END

*D_NET *49 0.0024932

*CONN
*I *429:A I *C 12.1 21.375 *L 0.00021 *D BUFX2
*P *49 I *C 0 0.095 *L 0
*I *433:CK I *C 21.1 6.365 *L 0.00021 *D TLATNTSCAX2
*I *434:CK I *C 17.5 20.995 *L 0.00021 *D TLATNTSCAX2

*CAP
1 *433:CK 0.000212612
2 *434:CK 0.000150326
3 *429:A 2.79518e-05
4 *49 0.000156521
5 *49:4 0.000299992
6 *49:5 0.000299692
7 *49:6 0.000491499883
8 *49:7 0.000185965
9 *49:8 0.000428022
10 *49:4 *44:27 2.52128e-05
11 *49:4 *44:29 1.63913e-05
12 *49:4 *44:25 3.74317e-05
13 *49:4 *44:30 1.74642e-05
14 *49:4 *44:31 3.83854e-05
15 *49:4 *44:24 1.9729051e-05
16 *434:CK *507:D 8.6009502e-05

*RES
1 *49:8 *49 11.5798
2 *429:A *49:7 6.93905
3 *49:6 *49:8 8.98058
4 *49:5 *49:6 3.34677
5 *49:7 *49:4 3.34677
6 *49:4 *49:5 11.0406
7 *434:CK *49:7 10.9134
8 *433:CK *49:6 13.6232376
*END

*D_NET *50 0.0006392

*CONN
*I *402:A I *C 7.365 7.925 *L 0.00021 *D CLKBUFX2
*P *50 I *C 0 2.375 *L 0

*CAP
1 *50 0.000251354
2 *402:A 6.82457e-05
3 *50:2 0.000319600098

*RES
1 *402:A *50:2 8.09689
2 *50:2 *50 11.461854
*END

*D_NET *51 0.00116479

*CONN
*P *51 I *C 0 42.655 *L 0
*I *513:D I *C 19.37 35.125 *L 0.00021 *D DFFQXL

*CAP
1 *51 0.000404839
2 *513:D 0.000177558
3 *51:2 0.000582396992

*RES
1 *513:D *51:2 8.88295
2 *51:2 *51 17.9771194
*END

*D_NET *52 0.000956655

*CONN
*P *52 I *C 0 40.185 *L 0
*I *526:D I *C 15.77 35.125 *L 0.00021 *D DFFQXL

*CAP
1 *52 0.00043887
2 *526:D 3.94573e-05
3 *52:2 0.000478327266

*RES
1 *526:D *52:2 4.22234
2 *52:2 *52 18.4723129
*END

*D_NET *53 0.000769377

*CONN
*P *53 I *C 0 37.905 *L 0
*I *525:D I *C 16.17 36.695 *L 0.00021 *D DFFQXL

*CAP
1 *53 0.00034523
2 *525:D 3.94579e-05
3 *53:2 0.000384688359

*RES
1 *525:D *53:2 4.15233
2 *53:2 *53 15.5581236
*END

*D_NET *54 0.000724673

*CONN
*P *54 I *C 0 35.435 *L 0
*I *524:D I *C 12.37 33.275 *L 0.00021 *D DFFQXL

*CAP
1 *54 0.00030488
2 *524:D 5.74564e-05
3 *54:2 0.000362336641

*RES
1 *524:D *54:2 4.43748
2 *54:2 *54 13.176918
*END

*D_NET *55 0.00127447

*CONN
*P *55 I *C 0 33.155 *L 0
*I *521:D I *C 24.97 33.275 *L 0.00021 *D DFFQXL

*CAP
1 *521:D 1.98505e-05
2 *55 0.000235676
3 *55:2 0.000324192
4 *55:3 0.000540018086
5 *55:2 *45:23 4.50611e-05
6 *55:2 *45:24 5.4419e-05
7 *55:2 *45:25 5.04255e-05
8 *55:2 *495:CK 4.82805809e-06

*RES
1 *55:3 *55 7.98271
2 *521:D *55:2 6.81197
3 *55:2 *55:3 11.2484694
*END

*D_NET *56 0.000982046

*CONN
*P *56 I *C 0 30.685 *L 0
*I *523:D I *C 12.37 35.125 *L 0.00021 *D DFFQXL

*CAP
1 *523:D 0.000144362
2 *56 1.45459e-05
3 *56:2 0.000378429883
4 *56:3 0.000248608
5 *523:D *526:CK 0
6 *523:D *45:37 6.21676e-05
7 *523:D *45:34 2.80738323e-05
8 *523:D *505:D 0.000105857852

*RES
1 *56:3 *56 0.431007
2 *56:2 *56:3 8.79926
3 *523:D *56:2 10.6229782
*END

*D_NET *57 0.000600457

*CONN
*P *57 I *C 0 28.405 *L 0
*I *520:D I *C 11.97 28.285 *L 0.00021 *D DFFQXL

*CAP
1 *520:D 0.000300228594
2 *57 0.000300228594

*RES
1 *520:D *57 15.8759
*END

*D_NET *58 0.000527143

*CONN
*P *58 I *C 0 25.935 *L 0
*I *519:D I *C 8.17 26.435 *L 0.00021 *D DFFQXL

*CAP
1 *58 0.000263571738
2 *519:D 0.000263571738

*RES
1 *519:D *58 13.7895
*END

*D_NET *59 0.000548124

*CONN
*P *59 I *C 0 23.655 *L 0
*I *518:D I *C 7.97 24.865 *L 0.00021 *D DFFQXL

*CAP
1 *59 0.000216067
2 *518:D 5.79949e-05
3 *59:2 0.000274062148

*RES
1 *518:D *59:2 4.15227
2 *59:2 *59 9.35935974
*END

*D_NET *60 0.000488639

*CONN
*P *60 I *C 0 21.375 *L 0
*I *512:D I *C 8.17 23.015 *L 0.00021 *D DFFQXL

*CAP
1 *60 0.000185908
2 *512:D 5.84115e-05
3 *60:2 0.000244319434

*RES
1 *512:D *60:2 4.36586
2 *60:2 *60 9.63532925
*END

*D_NET *61 0.000788927

*CONN
*P *61 I *C 0 18.905 *L 0
*I *517:D I *C 10.57 21.445 *L 0.00021 *D DFFQXL

*CAP
1 *61 0.00030571
2 *517:D 4.83414e-05
3 *61:2 0.000354051602
4 *61:2 *406:A 8.08238965e-05

*RES
1 *517:D *61:2 4.2222
2 *61:2 *61 12.3916864
*END

*D_NET *62 0.000610471

*CONN
*P *62 I *C 0 16.625 *L 0
*I *527:D I *C 8.17 19.595 *L 0.00021 *D DFFQXL

*CAP
1 *62 0.000305235391
2 *527:D 0.000305235391

*RES
1 *527:D *62 15.0265
*END

*D_NET *63 0.00070858

*CONN
*P *63 I *C 0 14.155 *L 0
*I *516:D I *C 8.17 18.025 *L 0.00021 *D DFFQXL

*CAP
1 *63 0.000217439
2 *516:D 0.00013685
3 *63:2 0.00035429

*RES
1 *516:D *63:2 6.15696
2 *63:2 *63 9.95564461
*END

*D_NET *64 0.000684261

*CONN
*P *64 I *C 0 11.875 *L 0
*I *522:D I *C 9.17 16.175 *L 0.00021 *D DFFQXL

*CAP
1 *64 0.000300048
2 *522:D 4.20831e-05
3 *64:2 0.000342130664

*RES
1 *522:D *64:2 4.36592
2 *64:2 *64 12.5125647
*END

*D_NET *65 0.000930905

*CONN
*P *65 I *C 0 9.405 *L 0
*I *515:D I *C 11.97 14.605 *L 0.00021 *D DFFQXL

*CAP
1 *65 0.000465452656
2 *515:D 0.000465452656

*RES
1 *515:D *65 20.0156
*END

*D_NET *66 0.000949502

*CONN
*P *66 I *C 0 7.125 *L 0
*I *514:D I *C 11.97 12.755 *L 0.00021 *D DFFQXL

*CAP
1 *66 0.000416044
2 *514:D 5.87073e-05
3 *66:2 0.000474750977

*RES
1 *514:D *66:2 4.50959
2 *66:2 *66 16.0654793
*END

*D_NET *67 0.000332594

*CONN
*P *67 O *C 45.6 8.645 *L 0
*I *481:Y O *C 40.53 9.075 *L 0 *D AND2XL

*CAP
1 *481:Y 0.000166296953
2 *67 0.000166296953

*RES
1 *67 *481:Y 12.9168
*END

*D_NET *68 0.000298262

*CONN
*P *68 O *C 45.6 10.925 *L 0
*I *463:Y O *C 40.33 11.445 *L 0 *D AND2XL

*CAP
1 *68 7.09302e-05
2 *463:Y 7.82007e-05
3 *68:2 0.00014913082

*RES
1 *68:2 *463:Y 9.25636292
2 *68 *68:2 2.37369
*END

*D_NET *69 0.000300884

*CONN
*P *69 O *C 45.6 13.015 *L 0
*I *474:Y O *C 40.33 12.495 *L 0 *D AND2XL

*CAP
1 *69 6.60421e-05
2 *474:Y 8.44e-05
3 *69:2 0.000150442119

*RES
1 *69:2 *474:Y 9.50205326
2 *69 *69:2 2.2224
*END

*D_NET *70 0.000275135

*CONN
*P *70 O *C 45.6 15.105 *L 0
*I *473:Y O *C 40.53 14.865 *L 0 *D AND2XL

*CAP
1 *70 0.000117659
2 *473:Y 1.99083e-05
3 *70:2 0.00013756752

*RES
1 *70:2 *473:Y 6.929636
2 *70 *70:2 3.88555
*END

*D_NET *71 0.00139642

*CONN
*P *71 O *C 45.6 17.195 *L 0
*I *469:Y O *C 36.53 31.965 *L 0 *D AND2XL

*CAP
1 *71 0.000127614
2 *469:Y 0.000261724
3 *71:2 0.000570595273
4 *71:3 0.000436486

*RES
1 *71:3 *71:2 8.9731
2 *71:2 *469:Y 15.8592463
3 *71 *71:3 7.58938
*END

*D_NET *72 0.00113833

*CONN
*P *72 O *C 45.6 19.285 *L 0
*I *477:Y O *C 37.33 31.965 *L 0 *D AND2XL

*CAP
1 *72 4.58389e-05
2 *477:Y 0.000523326
3 *72:2 0.000569164766

*RES
1 *72:2 *477:Y 27.1731606
2 *72 *72:2 1.61747
*END

*D_NET *73 0.000470519

*CONN
*P *73 O *C 45.6 21.375 *L 0
*I *484:Y O *C 39.93 25.125 *L 0 *D AND2XL

*CAP
1 *73 0.000124456
2 *484:Y 0.000110804
3 *73:2 0.000235259531

*RES
1 *73:2 *484:Y 9.06956196
2 *73 *73:2 4.3391
*END

*D_NET *74 0.000800371

*CONN
*P *74 O *C 45.6 23.655 *L 0
*I *459:Y O *C 38.93 31.965 *L 0 *D AND2XL

*CAP
1 *74 4.62502e-05
2 *459:Y 0.000353935
3 *74:2 0.000400185586

*RES
1 *74:2 *459:Y 23.2652435
2 *74 *74:2 1.01281
*END

*D_NET *75 0.000391483

*CONN
*P *75 O *C 45.6 25.745 *L 0
*I *465:Y O *C 39.53 26.175 *L 0 *D AND2XL

*CAP
1 *75 4.01131e-05
2 *465:Y 0.000155629
3 *75:2 0.00019574166

*RES
1 *75:2 *465:Y 12.190938
2 *75 *75:2 1.31534
*END

*D_NET *76 0.000309944

*CONN
*P *76 O *C 45.6 27.835 *L 0
*I *467:Y O *C 39.53 28.545 *L 0 *D AND2XL

*CAP
1 *76 0.000140606
2 *467:Y 1.43657e-05
3 *76:2 0.00015497208

*RES
1 *76:2 *467:Y 6.77144527
2 *76 *76:2 4.64152
*END

*D_NET *77 0.000284672

*CONN
*P *77 O *C 45.6 29.925 *L 0
*I *471:Y O *C 39.93 29.595 *L 0 *D AND2XL

*CAP
1 *77 0.000120877
2 *471:Y 2.14584e-05
3 *77:2 0.000142335889

*RES
1 *77:2 *471:Y 6.80506229
2 *77 *77:2 4.33914
*END

*D_NET *78 0.000282645

*CONN
*P *78 O *C 45.6 32.015 *L 0
*I *476:Y O *C 39.73 31.965 *L 0 *D AND2XL

*CAP
1 *78 0.000126482
2 *476:Y 1.48407e-05
3 *78:2 0.000141322617

*RES
1 *78:2 *476:Y 6.78861141
2 *78 *78:2 4.49025
*END

*D_NET *79 0.000580132

*CONN
*P *79 O *C 45.6 34.295 *L 0
*I *479:Y O *C 35.93 33.015 *L 0 *D AND2XL

*CAP
1 *479:Y 0.000244200234
2 *79 0.000244200234
3 *79 *399:A 9.17315527e-05

*RES
1 *79 *479:Y 14.6381
*END

*D_NET *80 0.000656009

*CONN
*P *80 O *C 45.6 36.385 *L 0
*I *486:Y O *C 36.73 33.015 *L 0 *D AND2XL

*CAP
1 *80 0.000228284
2 *486:Y 9.97201e-05
3 *80:2 0.000328004375

*RES
1 *80:2 *486:Y 8.79263878
2 *80 *80:2 6.75816
*END

*D_NET *81 0.000678062

*CONN
*P *81 O *C 45.6 38.475 *L 0
*I *488:Y O *C 37.93 33.015 *L 0 *D AND2XL

*CAP
1 *81 0.000165581
2 *488:Y 0.00017345
3 *81:2 0.000339031211

*RES
1 *81:2 *488:Y 10.85639
2 *81 *81:2 5.85111
*END

*D_NET *82 0.000628352

*CONN
*P *82 O *C 45.6 40.565 *L 0
*I *460:Y O *C 39.53 33.015 *L 0 *D AND2XL

*CAP
1 *82 0.000124755
2 *460:Y 0.000189421
3 *82:2 0.000314176074

*RES
1 *82:2 *460:Y 11.9525194
2 *82 *82:2 4.6416
*END

*D_NET *83 0.00164676

*CONN
*P *83 O *C 45.6 0.285 *L 0
*I *681:Q4 O *C 37.345 5.55 *L 0 *D DFF4X1
*I *654:AN I *C 37.1 11.115 *L 0.00021 *D NOR2BX1
*I *651:A I *C 35.1 10.925 *L 0.000392 *D NOR2X1
*I *589:B0 I *C 31.365 10.995 *L 0.000389 *D AOI22X1
*I *529:B I *C 37.9 9.595 *L 0.000392 *D NAND2BX1
*I *528:AN I *C 37.7 9.405 *L 0.00021 *D NAND2BX1

*CAP
1 *83 0.00017619
2 *529:B 1.83593e-05
3 *654:AN 1.17416e-05
4 *651:A 2.14001e-05
5 *589:B0 0.000146449
6 *83:7 3.23036e-05
7 *83:8 0.000242531
8 *83:9 0.000313818457
9 *83:10 0.00015265
10 *83:11 0.000116171
11 *83:12 0.00023848
12 *589:B0 *588:B1 9.03606445e-05
13 *83:7 *501:A 8.63075293e-05

*RES
1 *589:B0 *83:12 9.73463058
2 *83:12 *83:11 5.1133
3 *651:A *83:12 6.82372
4 *654:AN *83:11 7.01489
5 *83:11 *83:10 1.02417
6 *83:9 *83:8 7.49541
7 *83:8 *681:Q4 3.29994
8 *83:10 *83:8 2.72895
9 *528:AN *83:7 6.60002
10 *83:7 *83:10 0.36288
11 *529:B *83:7 3.68554
12 *83 *83:9 6.30458
*END

*D_NET *84 0.00154567

*CONN
*P *84 O *C 45.6 2.375 *L 0
*I *653:A I *C 39.1 16.245 *L 0.00039 *D NAND2X1
*I *648:B0 I *C 39.3 12.825 *L 0.000392 *D OAI22X1
*I *613:A0 I *C 38.1 16.055 *L 0.000391 *D OAI211X1
*I *599:B0 I *C 38.7 17.955 *L 0.000392 *D OAI22X1
*I *501:Y O *C 39.355 9.36 *L 0 *D NAND2X1

*CAP
1 *84 0.000125585
2 *653:A 2.77777e-05
3 *599:B0 8.33877e-05
4 *613:A0 5.72798e-05
5 *84:6 0.000318944
6 *84:7 0.000324726113
7 *84:8 0.000255406
8 *84:9 0.000187636
9 *84:10 0.000164927

*RES
1 *613:A0 *84:10 7.28559
2 *84:10 *84:9 0.362966
3 *599:B0 *84:10 7.92941
4 *84:9 *84:8 12.741
5 *653:A *84:9 6.84998
6 *84:7 *84:6 15.5067444
7 *84:6 *501:Y 3.30006
8 *84:8 *84:6 2.64582
9 *648:B0 *84:8 3.30006
10 *84 *84:7 4.76233
*END

*D_NET *85 0.000460267

*CONN
*P *85 O *C 45.6 4.465 *L 0
*I *502:Y O *C 38.95 8.02 *L 0 *D XOR2XL

*CAP
1 *85 0.000144482
2 *502:Y 7.86186e-05
3 *85:2 0.00015151501
4 *85:3 8.56516e-05

*RES
1 *85:3 *502:Y 5.57982922
2 *85:2 *85:3 3.34682
3 *85 *85:2 5.09512
*END

*D_NET *86 0.000621796

*CONN
*P *86 O *C 45.6 6.555 *L 0
*I *503:Y O *C 35.55 8.02 *L 0 *D XOR2XL

*CAP
1 *86 0.000123619
2 *503:Y 0.000187279
3 *86:2 0.000310897832

*RES
1 *86:2 *503:Y 11.6313696
2 *86 *86:2 3.85541
*END

*D_NET *87 0.000893354

*CONN
*P *87 O *C 45.6 42.655 *L 0
*I *458:Y O *C 38.73 33.015 *L 0 *D AND2XL

*CAP
1 *87 0.000144483
2 *458:Y 0.000302195
3 *87:2 0.000446677227

*RES
1 *87:2 *458:Y 43.7316895
2 *87 *87:2 5.24625
*END

*D_NET *88 0.00118983

*CONN
*P *88 I *C 0 4.655 *L 0
*I *530:AN I *C 22.1 9.405 *L 0.00021 *D NAND2BX1

*CAP
1 *88 0.00045645
2 *530:AN 0.000138464
3 *88:2 0.000594913945

*RES
1 *530:AN *88:2 6.84974
2 *88:2 *88 20.0834274
*END

*D_NET *89 0.000531614

*CONN
*I *423:A I *C 7.14 11.2 *L 0.00021 *D DLY1X1
*I *511:Q O *C 5.14 14.84 *L 0 *D DFFRHQX1

*CAP
1 *511:Q 0.000215947637
2 *423:A 0.000215947637
3 *423:A *42:4 9.97185742e-05

*RES
1 *423:A *511:Q 38.3494
*END

*D_NET *90 0.000577569

*CONN
*I *685:Q4 O *C 38.145 26.07 *L 0 *D DFF4X1
*I *670:A I *C 34.3 28.025 *L 0.000395 *D INVX1
*I *453:A I *C 33.65 28.18 *L 0.000211 *D OR2X1

*CAP
1 *685:Q4 4.91153e-05
2 *670:A 1.62121e-05
3 *453:A 4.26166e-05
4 *90:3 0.000229953
5 *90:4 0.000239670273

*RES
1 *453:A *90:4 3.98039
2 *90:4 *90:3 10.6303692
3 *670:A *90:4 3.55378
4 *90:3 *685:Q4 4.28777
*END

*D_NET *91 0.000692248

*CONN
*I *685:Q3 O *C 34.945 26.07 *L 0 *D DFF4X1
*I *658:A I *C 32.1 31.445 *L 0.000395 *D INVX1
*I *449:A I *C 32.25 28.18 *L 0.000211 *D OR2X1

*CAP
1 *685:Q3 7.83804e-05
2 *449:A 1.03106e-05
3 *658:A 8.07636e-05
4 *91:3 0.000159501
5 *91:4 0.000172197813
6 *91:3 *40:3 0.0001910925

*RES
1 *91:4 *91:3 9.33933258
2 *658:A *91:4 5.29271
3 *449:A *91:4 3.56837
4 *91:3 *685:Q3 5.14906
*END

*D_NET *92 0.000521302

*CONN
*I *685:Q2 O *C 29.19 26.07 *L 0 *D DFF4X1
*I *656:A I *C 29.1 31.445 *L 0.000395 *D INVX1
*I *454:A I *C 30.45 31.6 *L 0.000211 *D OR2X1

*CAP
1 *454:A 7.77837e-05
2 *656:A 1.52012e-05
3 *685:Q2 0.000167666
4 *92:3 0.000260651113

*RES
1 *92:3 *685:Q2 6.92117214
2 *656:A *92:3 3.6191
3 *454:A *92:3 4.81185
*END

*D_NET *93 0.000399828

*CONN
*I *685:Q1 O *C 25.99 26.07 *L 0 *D DFF4X1
*I *668:A I *C 25.3 30.115 *L 0.000395 *D INVX1
*I *451:A I *C 26.25 28.18 *L 0.000211 *D OR2X1

*CAP
1 *451:A 5.13783e-05
2 *685:Q1 6.91483e-06
3 *668:A 4.38097e-05
4 *93:3 0.000104727
5 *93:4 0.000192999844

*RES
1 *93:4 *93:3 5.47099113
2 *668:A *93:4 4.28782
3 *93:3 *685:Q1 0.23959
4 *451:A *93:4 4.60805
*END

*D_NET *94 0.000941038

*CONN
*I *684:Q4 O *C 27.145 18.39 *L 0 *D DFF4X1
*I *666:A I *C 19.3 14.345 *L 0.000395 *D INVX1
*I *447:A I *C 20.45 14.5 *L 0.000211 *D OR2X1

*CAP
1 *684:Q4 1.37719e-05
2 *447:A 4.98881e-05
3 *666:A 3.8925e-05
4 *94:3 0.000381709
5 *94:4 0.000456750391

*RES
1 *666:A *94:4 4.12784
2 *94:4 *94:3 14.8255825
3 *447:A *94:4 4.60811
4 *94:3 *684:Q4 3.57247
*END

*D_NET *95 0.000745773

*CONN
*I *684:Q3 O *C 23.945 18.39 *L 0 *D DFF4X1
*I *661:A I *C 20.3 13.015 *L 0.000395 *D INVX1
*I *445:A I *C 22.05 12.86 *L 0.000211 *D OR2X1

*CAP
1 *684:Q3 3.62409e-05
2 *445:A 6.37182e-05
3 *661:A 5.80573e-05
4 *95:3 0.000251112
5 *95:4 0.000336647031

*RES
1 *661:A *95:4 7.45391
2 *95:4 *95:3 15.0021315
3 *445:A *95:4 7.73433
4 *95:3 *684:Q3 4.14449
*END

*D_NET *96 0.000551701

*CONN
*I *684:Q2 O *C 18.19 18.39 *L 0 *D DFF4X1
*I *660:A I *C 16.5 14.345 *L 0.000395 *D INVX1
*I *442:A I *C 18.85 14.5 *L 0.000211 *D OR2X1

*CAP
1 *442:A 1.07885e-05
2 *684:Q2 4.37494e-05
3 *660:A 8.55923e-05
4 *96:3 0.000127136
5 *96:4 0.000179767617
6 *442:A *468:AN 0.000104665752

*RES
1 *660:A *96:4 12.2749805
2 *96:3 *684:Q2 4.36599
3 *96:4 *96:3 1.85578
4 *442:A *96:4 3.56846
*END

*D_NET *97 0.000486135

*CONN
*I *684:Q1 O *C 14.99 18.39 *L 0 *D DFF4X1
*I *667:A I *C 16.3 16.435 *L 0.000395 *D INVX1
*I *448:A I *C 18.45 16.28 *L 0.000211 *D OR2X1

*CAP
1 *448:A 8.21953e-05
2 *684:Q1 0.000142276
3 *97:3 0.000160872939
4 *97:4 0.000100793

*RES
1 *97:4 *97:3 3.6152
2 *97:3 *684:Q1 12.7044916
3 *667:A *97:3 3.3
4 *448:A *97:4 8.33151
*END

*D_NET *98 0.000550747

*CONN
*I *683:Q4 O *C 39.145 21.81 *L 0 *D DFF4X1
*I *669:A I *C 35.5 23.275 *L 0.000395 *D INVX1
*I *443:A I *C 35.745 19.525 *L 0.000211 *D OR2XL

*CAP
1 *683:Q4 4.24992e-05
2 *443:A 4.78631e-05
3 *669:A 5.65046e-05
4 *98:3 7.11086e-05
5 *98:4 0.000147759
6 *98:5 0.000185012813

*RES
1 *98:5 *98:4 5.86123
2 *669:A *98:5 4.57489
3 *443:A *98:3 7.66587257
4 *98:3 *98:5 0.593399
5 *98:4 *683:Q4 7.4703
*END

*D_NET *99 0.000374556

*CONN
*I *683:Q3 O *C 35.945 21.81 *L 0 *D DFF4X1
*I *673:A I *C 36.9 23.275 *L 0.000395 *D INVX1
*I *455:A I *C 36.85 19.7 *L 0.000211 *D OR2X1

*CAP
1 *673:A 6.28231e-05
2 *455:A 0.000110806
3 *683:Q3 1.36483e-05
4 *99:3 0.000187277793

*RES
1 *99:3 *683:Q3 3.57589
2 *455:A *99:3 5.67281246
3 *673:A *99:3 4.89334
*END

*D_NET *100 0.000961185

*CONN
*I *683:Q2 O *C 30.19 21.81 *L 0 *D DFF4X1
*I *655:A I *C 37.7 24.605 *L 0.000395 *D INVX1
*I *450:A I *C 39.05 23.12 *L 0.000211 *D OR2X1

*CAP
1 *450:A 5.70996e-05
2 *655:A 9.5071e-05
3 *683:Q2 0.000200152
4 *100:3 0.000352323047
5 *655:A *46:47 8.35657129e-05
6 *450:A *633:B0 0.000172972676

*RES
1 *100:3 *683:Q2 13.3137
2 *655:A *100:3 15.2177811
3 *450:A *100:3 8.02895
*END

*D_NET *101 0.000425577

*CONN
*I *683:Q1 O *C 26.99 21.81 *L 0 *D DFF4X1
*I *659:A I *C 29.5 24.605 *L 0.000395 *D INVX1
*I *457:A I *C 29.25 23.12 *L 0.000211 *D OR2X1

*CAP
1 *659:A 7.2777e-05
2 *683:Q1 0.000140012
3 *101:3 0.000212788574

*RES
1 *101:3 *683:Q1 12.5615597
2 *457:A *101:3 3.29986
3 *659:A *101:3 4.78936
*END

*D_NET *102 0.000541687

*CONN
*I *682:Q4 O *C 26.545 22.65 *L 0 *D DFF4X1
*I *671:A I *C 22.5 24.605 *L 0.000395 *D INVX1
*I *444:A I *C 24.65 24.76 *L 0.000211 *D OR2X1

*CAP
1 *682:Q4 1.93703e-05
2 *444:A 7.18826e-05
3 *671:A 2.78352e-05
4 *102:3 0.000171125
5 *102:4 0.000251471992

*RES
1 *671:A *102:4 3.79518
2 *102:4 *102:3 10.1801157
3 *444:A *102:4 5.54473
4 *102:3 *682:Q4 3.71487
*END

*D_NET *103 0.000560403

*CONN
*I *682:Q3 O *C 23.345 22.65 *L 0 *D DFF4X1
*I *672:A I *C 19.7 24.605 *L 0.000395 *D INVX1
*I *452:A I *C 22.05 21.34 *L 0.000211 *D OR2X1

*CAP
1 *452:A 4.97688e-05
2 *682:Q3 6.85456e-05
3 *672:A 8.57109e-05
4 *103:3 0.000194489961
5 *103:4 0.000161887

*RES
1 *103:4 *103:3 5.00132
2 *672:A *103:4 4.94043
3 *103:3 *682:Q3 7.87067413
4 *452:A *103:3 7.35642
*END

*D_NET *104 0.00050199

*CONN
*I *682:Q2 O *C 17.59 22.65 *L 0 *D DFF4X1
*I *662:A I *C 18.5 19.855 *L 0.000395 *D INVX1
*I *456:A I *C 19.85 19.7 *L 0.000211 *D OR2X1

*CAP
1 *456:A 5.94265e-05
2 *682:Q2 0.000129998
3 *662:A 1.94306e-05
4 *104:3 0.000208854668
5 *456:A *46:79 8.42809668e-05

*RES
1 *662:A *104:3 3.85936
2 *104:3 *682:Q2 12.7182007
3 *456:A *104:3 5.52695
*END

*D_NET *105 0.000785828

*CONN
*I *682:Q1 O *C 14.39 22.65 *L 0 *D DFF4X1
*I *657:A I *C 17.9 24.605 *L 0.000395 *D INVX1
*I *446:A I *C 21.25 24.76 *L 0.000211 *D OR2X1

*CAP
1 *446:A 6.16905e-05
2 *657:A 3.11132e-05
3 *682:Q1 8.0407e-05
4 *105:3 0.000154317
5 *105:4 0.000181019297
6 *105:5 3.91014e-05
7 *105:4 *497:D 8.41617578e-05
8 *105:3 *133:6 0.000154018398

*RES
1 *105:5 *105:4 3.34685
2 *105:4 *682:Q1 9.85395908
3 *657:A *105:5 4.14436
4 *105:3 *105:4 6.29495
5 *446:A *105:3 4.43846
*END

*D_NET *106 0.00084269

*CONN
*I *680:Q4 O *C 37.545 35.49 *L 0 *D DFF4X1
*I *619:A0 I *C 33.7 31.825 *L 0.000391 *D OAI211X1
*I *482:B I *C 33.165 31.515 *L 0.000392 *D NOR2BX1
*I *459:B I *C 38.3 31.635 *L 0.00021 *D AND2XL

*CAP
1 *459:B 4.9414e-05
2 *680:Q4 0.000133874
3 *619:A0 1.44846e-05
4 *482:B 5.71002e-05
5 *106:4 0.000141084
6 *106:5 0.000215889
7 *106:6 0.000230848789

*RES
1 *482:B *106:6 4.0446
2 *106:6 *106:5 6.67952
3 *619:A0 *106:6 3.50419
4 *106:4 *680:Q4 6.01065
5 *106:5 *106:4 3.34677
6 *459:B *106:5 7.47025013
*END

*D_NET *107 0.00166893

*CONN
*I *680:Q3 O *C 34.345 35.49 *L 0 *D DFF4X1
*I *643:A0 I *C 31.1 31.825 *L 0.000391 *D OAI211X1
*I *484:B I *C 39.3 24.795 *L 0.00021 *D AND2XL
*I *475:B I *C 31.365 28.095 *L 0.000392 *D NOR2BX1

*CAP
1 *484:B 4.04107e-05
2 *680:Q3 8.35646e-05
3 *475:B 3.46872e-05
4 *643:A0 2.19967e-05
5 *107:4 0.000316921
6 *107:5 0.000130891
7 *107:6 9.15505e-05
8 *107:7 0.000420033945
9 *107:8 0.000175057
10 *107:7 *20:2 8.08238965e-05
11 *107:6 *324:6 9.71555664e-05
12 *107:4 *121:4 8.22544141e-05
13 *107:4 *382:4 9.35792969e-05

*RES
1 *107:8 *107:7 5.96696
2 *643:A0 *107:8 3.71504
3 *475:B *107:6 4.36583
4 *107:6 *107:8 1.629
5 *107:5 *680:Q3 5.51479
6 *107:7 *107:5 4.37098
7 *107:4 *107:7 17.7339325
8 *484:B *107:4 4.14448
*END

*D_NET *108 0.000852525

*CONN
*I *680:Q2 O *C 28.59 35.49 *L 0 *D DFF4X1
*I *618:A0 I *C 31.1 33.155 *L 0.000391 *D OAI211X1
*I *478:B I *C 30.165 33.465 *L 0.000392 *D NOR2BX1
*I *469:B I *C 35.9 31.635 *L 0.00021 *D AND2XL

*CAP
1 *469:B 0.000217378
2 *618:A0 1.70467e-05
3 *478:B 9.77338e-06
4 *680:Q2 1.46044e-05
5 *108:4 0.00027036666
6 *108:5 0.000133457
7 *108:6 0.000102342
8 *469:B *46:59 8.75592187e-05

*RES
1 *108:6 *680:Q2 3.64765
2 *478:B *108:5 3.40191
3 *108:5 *108:6 2.27541
4 *108:4 *108:5 0.729438
5 *618:A0 *108:4 3.8431
6 *469:B *108:4 14.9810314
*END

*D_NET *109 0.00133485

*CONN
*I *680:Q1 O *C 25.39 35.49 *L 0 *D DFF4X1
*I *617:A0 I *C 27.1 31.825 *L 0.000391 *D OAI211X1
*I *480:B I *C 26.165 31.515 *L 0.000392 *D NOR2BX1
*I *477:B I *C 36.7 31.635 *L 0.00021 *D AND2XL

*CAP
1 *477:B 0.000250518
2 *617:A0 7.50847e-06
3 *680:Q1 9.79309e-05
4 *109:4 0.000313818457
5 *109:5 0.000116051
6 *109:6 0.00015819
7 *477:B *119:5 0.000225841992
8 *477:B *129:3 0.000164985664

*RES
1 *109:6 *680:Q1 5.62853
2 *480:B *109:5 3.30006
3 *109:5 *109:6 1.27005
4 *109:4 *109:5 1.25107
5 *617:A0 *109:4 3.35728
6 *477:B *109:4 18.8440094
*END

*D_NET *110 0.002298

*CONN
*I *679:Q4 O *C 21.345 11.55 *L 0 *D DFF4X1
*I *639:A0 I *C 16.9 12.635 *L 0.000391 *D OAI211X1
*I *470:B I *C 17.165 14.415 *L 0.000392 *D NOR2BX1
*I *463:B I *C 39.7 11.115 *L 0.00021 *D AND2XL

*CAP
1 *463:B 8.2848e-05
2 *679:Q4 1.15034e-05
3 *470:B 0.000104607
4 *639:A0 1.26347e-05
5 *110:4 0.000247241
6 *110:5 9.06563e-05
7 *110:6 0.000402927383
8 *110:7 0.000355364
9 *110:8 0.000297607
10 *110:4 *502:A 0.000121474268
11 *463:B *47:22 0.000155091289
12 *463:B *481:B 0.00041604043

*RES
1 *110:8 *110:7 11.5666
2 *639:A0 *110:8 3.57588
3 *470:B *110:8 15.2263641
4 *110:7 *679:Q4 3.5724
5 *110:6 *110:7 8.52464
6 *110:5 *110:4 3.3468
7 *110:4 *110:6 11.959
8 *463:B *110:5 5.57978
*END

*D_NET *111 0.00212026

*CONN
*I *679:Q3 O *C 18.145 11.55 *L 0 *D DFF4X1
*I *642:A0 I *C 19.3 12.635 *L 0.000391 *D OAI211X1
*I *481:B I *C 39.9 9.405 *L 0.00021 *D AND2XL
*I *466:B I *C 21.165 12.945 *L 0.000392 *D NOR2BX1

*CAP
1 *481:B 4.17268e-05
2 *466:B 3.76676e-05
3 *642:A0 6.51484e-05
4 *679:Q3 1.30498e-05
5 *111:4 0.000226376
6 *111:5 0.00050574543
7 *111:6 0.000141919
8 *111:7 0.000177619
9 *111:8 0.000342373
10 *111:4 *154:8 0.000152587891
11 *481:B *463:B 0.00041604043

*RES
1 *111:8 *679:Q3 3.576
2 *111:7 *111:8 0.189001
3 *642:A0 *111:7 4.83834
4 *466:B *111:6 4.1444
5 *111:6 *111:7 9.18034
6 *111:5 *111:8 13.1211281
7 *111:4 *111:5 8.82957
8 *481:B *111:4 7.76204
*END

*D_NET *112 0.00215292

*CONN
*I *679:Q2 O *C 12.39 11.55 *L 0 *D DFF4X1
*I *641:A0 I *C 14.9 14.725 *L 0.000391 *D OAI211X1
*I *474:B I *C 39.7 12.825 *L 0.00021 *D AND2XL
*I *468:B I *C 17.965 14.415 *L 0.000392 *D NOR2BX1

*CAP
1 *474:B 0.000187275
2 *468:B 8.91655e-05
3 *641:A0 3.21837e-05
4 *679:Q2 0.000231442
5 *112:4 0.000567436211
6 *112:5 0.000536378
7 *112:6 9.70361e-05
8 *112:7 0.00041199

*RES
1 *112:7 *679:Q2 11.7867
2 *641:A0 *112:7 7.03125
3 *468:B *112:6 11.5841
4 *112:6 *112:5 3.34694
5 *112:5 *112:7 10.6652
6 *112:4 *112:5 12.2765
7 *474:B *112:4 18.1381702
*END

*D_NET *113 0.00248885

*CONN
*I *679:Q1 O *C 9.19 11.55 *L 0 *D DFF4X1
*I *637:A0 I *C 14.5 16.055 *L 0.000391 *D OAI211X1
*I *473:B I *C 39.9 14.535 *L 0.00021 *D AND2XL
*I *472:B I *C 17.365 16.365 *L 0.000392 *D NOR2BX1

*CAP
1 *473:B 5.36464e-05
2 *472:B 0.000108123
3 *637:A0 3.98731e-05
4 *679:Q1 0.000265596
5 *113:4 0.000552828
6 *113:5 0.000735044453
7 *113:6 0.000433209
8 *637:A0 *152:2 0.000140905381
9 *113:4 *168:3 0.00015962124

*RES
1 *113:6 *679:Q1 16.7105
2 *637:A0 *113:6 4.72682
3 *113:5 *113:6 12.6729
4 *472:B *113:5 15.0419
5 *113:4 *113:5 16.9936409
6 *473:B *113:4 13.9728
*END

*D_NET *114 0.000935912

*CONN
*I *678:Q4 O *C 38.545 29.49 *L 0 *D DFF4X1
*I *640:A0 I *C 35.3 24.985 *L 0.000391 *D OAI211X1
*I *476:B I *C 39.1 31.635 *L 0.00021 *D AND2XL
*I *461:B I *C 34.965 23.205 *L 0.000392 *D NOR2BX1

*CAP
1 *476:B 4.52379e-05
2 *461:B 5.65664e-05
3 *114:4 9.54259e-05
4 *114:5 0.000333070742
5 *114:6 0.000315964
6 *114:7 8.96473e-05

*RES
1 *461:B *114:7 4.36591
2 *114:7 *114:6 0.778636
3 *640:A0 *114:6 3.29986
4 *114:6 *114:5 12.6246214
5 *114:5 *678:Q4 3.29986
6 *114:4 *114:5 1.23981
7 *476:B *114:4 4.22221
*END

*D_NET *115 0.0010879

*CONN
*I *678:Q3 O *C 35.345 29.49 *L 0 *D DFF4X1
*I *633:A0 I *C 37.7 22.895 *L 0.000391 *D OAI211X1
*I *487:B I *C 37.565 19.785 *L 0.000392 *D NOR2BX1
*I *471:B I *C 39.3 29.925 *L 0.00021 *D AND2XL

*CAP
1 *471:B 7.93909e-05
2 *633:A0 1.25148e-05
3 *487:B 8.94656e-05
4 *678:Q3 8.86887e-05
5 *115:4 0.000286402
6 *115:5 0.000110623
7 *115:6 0.000420808789

*RES
1 *115:6 *678:Q3 8.50201
2 *487:B *115:5 5.19923
3 *115:5 *115:4 0.449756
4 *115:4 *115:6 16.3297653
5 *633:A0 *115:4 3.45478
6 *471:B *115:6 8.36098
*END

*D_NET *116 0.00127405

*CONN
*I *678:Q2 O *C 29.59 29.49 *L 0 *D DFF4X1
*I *636:A0 I *C 36.7 24.985 *L 0.000391 *D OAI211X1
*I *485:B I *C 38.765 24.675 *L 0.000392 *D NOR2BX1
*I *465:B I *C 38.9 26.505 *L 0.00021 *D AND2XL

*CAP
1 *485:B 8.20129e-05
2 *636:A0 5.28088e-05
3 *678:Q2 0.000272153
4 *116:4 0.000202719
5 *116:5 0.000111879
6 *116:6 0.000451922422
7 *116:6 *118:4 0.000100553037

*RES
1 *116:6 *678:Q2 14.1197443
2 *636:A0 *116:5 4.33335
3 *116:5 *116:6 4.23769
4 *485:B *116:4 5.04627
5 *116:4 *116:6 5.78979
6 *465:B *116:4 3.30005
*END

*D_NET *117 0.00129378

*CONN
*I *678:Q1 O *C 26.39 29.49 *L 0 *D DFF4X1
*I *638:A0 I *C 29.5 28.405 *L 0.000391 *D OAI211X1
*I *490:B I *C 28.165 28.095 *L 0.000392 *D NOR2BX1
*I *467:B I *C 38.9 28.215 *L 0.00021 *D AND2XL

*CAP
1 *467:B 0.000284554
2 *638:A0 1.00749e-05
3 *678:Q1 8.13037e-05
4 *490:B 5.96035e-05
5 *117:4 0.000401616094
6 *117:5 0.000196454
7 *117:6 6.77725e-05
8 *467:B *40:3 0.000106632705
9 *467:B *424:A 8.5771084e-05

*RES
1 *490:B *117:6 4.57493
2 *117:6 *117:5 3.3572
3 *117:5 *678:Q1 8.2262
4 *638:A0 *117:4 3.39207
5 *117:4 *117:5 5.3377
6 *467:B *117:4 17.9944038
*END

*D_NET *118 0.0017814

*CONN
*I *677:Q4 O *C 25.145 28.65 *L 0 *D DFF4X1
*I *635:A0 I *C 21.7 26.315 *L 0.000391 *D OAI211X1
*I *486:B I *C 36.1 33.345 *L 0.00021 *D AND2XL
*I *462:B I *C 24.365 26.625 *L 0.000392 *D NOR2BX1

*CAP
1 *486:B 4.54823e-05
2 *677:Q4 7.34342e-05
3 *462:B 2.13355e-05
4 *635:A0 0.000114198
5 *118:4 0.000512302
6 *118:5 0.000100491
7 *118:6 0.000586748125
8 *118:4 *116:6 0.000100553037
9 *118:4 *462:AN 8.15391553e-05
10 *118:4 *404:A 0.000145316123

*RES
1 *635:A0 *118:6 9.85286
2 *462:B *118:5 3.72811
3 *118:5 *677:Q4 4.80818
4 *118:6 *118:5 3.33624
5 *118:4 *118:6 16.8291321
6 *486:B *118:4 4.22218
*END

*D_NET *119 0.00194544

*CONN
*I *677:Q3 O *C 21.945 28.65 *L 0 *D DFF4X1
*I *634:A0 I *C 19.7 26.315 *L 0.000391 *D OAI211X1
*I *483:B I *C 21.965 24.675 *L 0.000392 *D NOR2BX1
*I *479:B I *C 35.3 33.345 *L 0.00021 *D AND2XL

*CAP
1 *479:B 9.04189e-05
2 *483:B 0.000141442
3 *634:A0 4.80995e-05
4 *119:4 0.000145197
5 *119:5 0.000336764
6 *119:6 0.000403404219
7 *119:7 0.00018197
8 *119:8 0.000263095
9 *119:9 0.000109193
10 *119:5 *477:B 0.000225841992

*RES
1 *634:A0 *119:9 4.28773
2 *119:9 *119:8 4.6271
3 *119:8 *119:7 4.43473
4 *483:B *119:8 9.57142
5 *119:7 *677:Q3 3.29998
6 *119:6 *119:7 6.21078
7 *119:5 *119:6 9.44944
8 *119:4 *119:5 10.9813
9 *479:B *119:4 14.5077705
*END

*D_NET *120 0.00254267

*CONN
*I *677:Q2 O *C 16.19 28.65 *L 0 *D DFF4X1
*I *621:A0 I *C 17.5 19.475 *L 0.000391 *D OAI211X1
*I *489:B I *C 16.765 19.785 *L 0.000392 *D NOR2BX1
*I *488:B I *C 37.3 33.345 *L 0.00021 *D AND2XL

*CAP
1 *488:B 7.51619e-05
2 *621:A0 3.83873e-05
3 *677:Q2 3.99901e-05
4 *489:B 2.53871e-05
5 *120:4 0.000349285
6 *120:5 0.000561949
7 *120:6 0.000648379336
8 *120:7 0.000384328
9 *120:6 *45:26 1.59144e-05
10 *120:5 *508:CK 3.25441e-05
11 *120:5 *45:26 3.67761e-05
12 *120:4 *45:20 7.31945459e-05
13 *120:5 *131:3 0.00015616417
14 *120:4 *225:2 0.000105202197

*RES
1 *489:B *120:7 3.86703
2 *120:7 *120:6 10.3383
3 *120:6 *677:Q2 7.5828
4 *621:A0 *120:7 4.15433
5 *120:5 *120:6 16.9167519
6 *120:4 *120:5 8.08486
7 *488:B *120:4 8.22606
*END

*D_NET *121 0.00262946

*CONN
*I *677:Q1 O *C 12.99 28.65 *L 0 *D DFF4X1
*I *620:A0 I *C 18.7 24.985 *L 0.000391 *D OAI211X1
*I *464:B I *C 20.365 24.675 *L 0.000392 *D NOR2BX1
*I *460:B I *C 38.9 33.345 *L 0.00021 *D AND2XL

*CAP
1 *460:B 2.4615e-05
2 *464:B 4.57204e-05
3 *620:A0 7.32539e-05
4 *677:Q1 0.000286522
5 *121:4 0.000339806
6 *121:5 0.000615000742
7 *121:6 0.000377897
8 *121:7 5.32278e-05
9 *121:8 0.000430346
10 *121:5 *464:AN 8.79764551e-05
11 *121:4 *107:4 8.22544141e-05
12 *121:4 *212:3 0.000101149082
13 *460:B *46:45 0.000111699102

*RES
1 *121:8 *677:Q1 16.5976
2 *620:A0 *121:8 8.5331
3 *464:B *121:7 4.14432
4 *121:7 *121:6 3.35711
5 *121:6 *121:8 5.36239
6 *121:5 *121:6 9.43431
7 *121:4 *121:5 19.6088562
8 *460:B *121:4 4.22241
*END

*D_NET *122 0.00139511

*CONN
*I *642:B0 I *C 19.7 13.015 *L 0.00039 *D OAI211X1
*I *494:Q O *C 18.9 33.535 *L 0 *D DFFQXL
*I *466:AN I *C 21.5 12.825 *L 0.00021 *D NOR2BX1

*CAP
1 *466:AN 8.81572e-05
2 *642:B0 2.39029e-05
3 *494:Q 0.000117123
4 *122:3 0.000460863125
5 *122:4 0.000423071
6 *122:5 0.000119564
7 *122:6 0.000162426

*RES
1 *122:6 *494:Q 5.72332
2 *122:5 *122:4 3.34675
3 *122:4 *122:3 12.6205683
4 *122:3 *122:6 7.36925
5 *642:B0 *122:5 10.098
6 *466:AN *122:5 11.6731
*END

*D_NET *123 0.00144863

*CONN
*I *639:B0 I *C 17.3 13.015 *L 0.00039 *D OAI211X1
*I *498:Q O *C 15.5 30.115 *L 0 *D DFFQXL
*I *470:AN I *C 17.5 14.535 *L 0.00021 *D NOR2BX1

*CAP
1 *639:B0 9.41143e-05
2 *498:Q 0.000143227
3 *123:3 0.000530185
4 *123:4 0.000579297539
5 *123:3 *468:AN 0.000101804736

*RES
1 *123:4 *498:Q 7.09493
2 *639:B0 *123:3 4.78162
3 *470:AN *123:3 6.60002
4 *123:3 *123:4 17.0707703
*END

*D_NET *124 0.00171065

*CONN
*I *641:B0 I *C 15.3 14.345 *L 0.00039 *D OAI211X1
*I *495:Q O *C 15.7 33.535 *L 0 *D DFFQXL
*I *468:AN I *C 18.3 14.535 *L 0.00021 *D NOR2BX1

*CAP
1 *468:AN 9.24425e-05
2 *495:Q 0.000186916
3 *641:B0 4.18442e-05
4 *124:3 0.000573694688
5 *124:4 0.000521066
6 *124:4 *677:D1 8.8214873e-05
7 *468:AN *123:3 0.000101804736
8 *468:AN *442:A 0.000104665752

*RES
1 *641:B0 *124:4 4.1012
2 *124:4 *124:3 10.4586
3 *124:3 *495:Q 7.70975
4 *468:AN *124:4 15.4407024
*END

*D_NET *125 0.00144851

*CONN
*I *637:B0 I *C 14.9 16.435 *L 0.00039 *D OAI211X1
*I *491:Q O *C 12.9 31.445 *L 0 *D DFFQXL
*I *472:AN I *C 17.7 16.245 *L 0.00021 *D NOR2BX1

*CAP
1 *472:AN 0.000119206
2 *637:B0 3.82669e-05
3 *491:Q 0.00015867
4 *125:3 0.000215056
5 *125:4 0.000509202461
6 *125:5 0.000408116

*RES
1 *125:5 *125:4 8.01679
2 *125:4 *491:Q 6.77756
3 *125:3 *125:5 4.84069
4 *637:B0 *125:3 6.98417
5 *472:AN *125:3 9.25517082
*END

*D_NET *126 0.000353336

*CONN
*I *618:B0 I *C 31.5 33.535 *L 0.00039 *D OAI211X1
*I *510:Q O *C 29.9 36.955 *L 0 *D DFFQXL
*I *478:AN I *C 30.5 33.345 *L 0.00021 *D NOR2BX1

*CAP
1 *618:B0 4.834e-05
2 *478:AN 2.29479e-05
3 *510:Q 7.87974e-05
4 *126:3 9.78716e-05
5 *126:4 0.000105381016

*RES
1 *126:4 *510:Q 5.22768497
2 *478:AN *126:3 3.65912
3 *126:3 *126:4 0.68792
4 *618:B0 *126:3 4.2601
*END

*D_NET *127 0.000345588

*CONN
*I *617:B0 I *C 27.5 31.445 *L 0.00039 *D OAI211X1
*I *504:Q O *C 25.5 33.535 *L 0 *D DFFQXL
*I *480:AN I *C 26.5 31.635 *L 0.00021 *D NOR2BX1

*CAP
1 *617:B0 7.73074e-05
2 *480:AN 3.65972e-05
3 *504:Q 2.22922e-05
4 *127:3 0.000150501729
5 *127:4 5.88894e-05

*RES
1 *127:4 *504:Q 3.64772
2 *480:AN *127:3 3.99586
3 *127:3 *127:4 0.816471
4 *617:B0 *127:3 4.89509106
*END

*D_NET *128 0.0010401

*CONN
*I *643:B0 I *C 31.5 31.445 *L 0.00039 *D OAI211X1
*I *508:Q O *C 21.1 30.115 *L 0 *D DFFQXL
*I *475:AN I *C 31.7 28.215 *L 0.00021 *D NOR2BX1

*CAP
1 *475:AN 4.86364e-05
2 *643:B0 8.39853e-05
3 *508:Q 5.8291e-05
4 *128:3 0.000306724
5 *128:4 7.5338e-05
6 *128:5 0.000106394
7 *128:6 0.000360727305

*RES
1 *128:6 *508:Q 7.66686
2 *128:5 *128:4 0.457402
3 *643:B0 *128:5 4.65314
4 *475:AN *128:4 7.44445
5 *128:4 *128:3 3.33635
6 *128:3 *128:6 8.08858871
*END

*D_NET *129 0.00167632

*CONN
*I *619:B0 I *C 34.1 31.445 *L 0.00039 *D OAI211X1
*I *505:Q O *C 9.5 31.445 *L 0 *D DFFQXL
*I *482:AN I *C 33.5 31.635 *L 0.00021 *D NOR2BX1

*CAP
1 *619:B0 6.533e-05
2 *505:Q 1.17377e-05
3 *129:3 0.000150259
4 *129:4 0.000592172148
5 *129:5 0.000518981
6 *129:4 *35:2 8.63671289e-05
7 *129:4 *677:D4 8.64863379e-05
8 *129:3 *477:B 0.000164985664

*RES
1 *129:5 *505:Q 13.3891
2 *129:4 *129:5 16.0864601
3 *482:AN *129:3 6.59993
4 *129:3 *129:4 5.70817
5 *619:B0 *129:3 4.3876
*END

*D_NET *130 0.0020839

*CONN
*I *636:B0 I *C 37.1 24.605 *L 0.00039 *D OAI211X1
*I *506:Q O *C 8.3 24.605 *L 0 *D DFFQXL
*I *485:AN I *C 39.1 24.795 *L 0.00021 *D NOR2BX1

*CAP
1 *485:AN 8.20139e-05
2 *636:B0 2.19956e-05
3 *506:Q 0.000139712
4 *130:3 0.000475464
5 *130:4 0.000547051445
6 *130:5 0.000315309
7 *130:4 *464:AN 0.000122070313
8 *130:4 *483:AN 0.000270247461
9 *130:3 *13:2 0.000110030176

*RES
1 *130:5 *506:Q 10.2593
2 *130:4 *130:5 8.02823
3 *130:3 *130:4 11.0973
4 *636:B0 *130:3 6.75919
5 *485:AN *130:3 11.6693974
*END

*D_NET *131 0.00128806

*CONN
*I *638:B0 I *C 29.9 28.025 *L 0.00039 *D OAI211X1
*I *497:Q O *C 14.7 24.605 *L 0 *D DFFQXL
*I *490:AN I *C 28.5 28.215 *L 0.00021 *D NOR2BX1

*CAP
1 *638:B0 9.47703e-05
2 *490:AN 1.92533e-05
3 *497:Q 0.000118671
4 *131:3 0.000447275
5 *131:4 0.000451922422
6 *131:3 *120:5 0.00015616417

*RES
1 *131:4 *497:Q 8.93699
2 *490:AN *131:3 10.0971
3 *131:3 *131:4 10.4925632
4 *638:B0 *131:3 7.87791
*END

*D_NET *132 0.00188297

*CONN
*I *633:B0 I *C 38.1 23.275 *L 0.00039 *D OAI211X1
*I *507:Q O *C 12.9 21.185 *L 0 *D DFFQXL
*I *487:AN I *C 37.9 19.665 *L 0.00021 *D NOR2BX1

*CAP
1 *633:B0 4.70926e-05
2 *487:AN 8.35619e-05
3 *507:Q 4.82323e-06
4 *132:3 0.000652011
5 *132:4 0.000135661
6 *132:5 0.000666856797
7 *132:6 2.46758e-05
8 *132:3 *330:4 9.53078223e-05
9 *633:B0 *450:A 0.000172972676

*RES
1 *132:6 *507:Q 0.165959
2 *132:5 *132:6 6.85087
3 *487:AN *132:4 5.22143
4 *132:4 *132:3 3.33646
5 *132:3 *132:5 19.1822052
6 *633:B0 *132:4 4.1522
*END

*D_NET *133 0.00216055

*CONN
*I *640:B0 I *C 35.7 24.605 *L 0.00039 *D OAI211X1
*I *499:Q O *C 10.5 19.855 *L 0 *D DFFQXL
*I *461:AN I *C 35.3 23.085 *L 0.00021 *D NOR2BX1

*CAP
1 *640:B0 4.27358e-05
2 *461:AN 3.05751e-05
3 *499:Q 1.71039e-05
4 *133:3 0.000108123
5 *133:4 0.000392198555
6 *133:5 0.000364005
7 *133:6 0.000237581
8 *133:7 0.000137268
9 *133:8 0.000351132
10 *133:8 *509:D 0.00011539459
11 *133:6 *483:AN 0.000210404395
12 *133:6 *105:3 0.000154018398

*RES
1 *133:8 *133:7 16.4378891
2 *133:7 *499:Q 0.503902
3 *133:6 *133:8 9.73642
4 *133:5 *133:6 0.17382
5 *133:4 *133:5 9.97846
6 *461:AN *133:3 7.15797
7 *133:3 *133:4 4.02419
8 *640:B0 *133:3 7.54875
*END

*D_NET *134 0.00118983

*CONN
*I *634:B0 I *C 20.1 26.695 *L 0.00039 *D OAI211X1
*I *509:Q O *C 10.5 23.275 *L 0 *D DFFQXL
*I *483:AN I *C 22.3 24.795 *L 0.00021 *D NOR2BX1

*CAP
1 *483:AN 6.14514e-05
2 *634:B0 0.000108003
3 *509:Q 0.000177205
4 *134:3 0.000246584414
5 *134:4 0.000115931
6 *483:AN *130:4 0.000270247461
7 *483:AN *133:6 0.000210404395

*RES
1 *134:4 *134:3 3.3467
2 *134:3 *509:Q 14.9102211
3 *634:B0 *134:4 4.86671
4 *483:AN *134:3 11.9428
*END

*D_NET *135 0.00114691

*CONN
*I *635:B0 I *C 22.1 26.695 *L 0.00039 *D OAI211X1
*I *492:Q O *C 11.5 24.605 *L 0 *D DFFQXL
*I *462:AN I *C 24.7 26.505 *L 0.00021 *D NOR2BX1

*CAP
1 *462:AN 5.22744e-05
2 *635:B0 1.30541e-05
3 *492:Q 0.000409422
4 *135:3 0.000474750977
5 *462:AN *46:69 0.000115871426
6 *462:AN *118:4 8.15391553e-05

*RES
1 *135:3 *492:Q 17.2743797
2 *635:B0 *135:3 6.81186
3 *462:AN *135:3 8.91896
*END

*D_NET *136 0.000769496

*CONN
*I *621:B0 I *C 17.9 19.855 *L 0.00039 *D OAI211X1
*I *496:Q O *C 9.1 17.765 *L 0 *D DFFQXL
*I *489:AN I *C 17.1 19.665 *L 0.00021 *D NOR2BX1

*CAP
1 *621:B0 8.64252e-05
2 *496:Q 0.000288606
3 *489:AN 9.7163e-06
4 *136:3 0.000384747969

*RES
1 *489:AN *136:3 3.35712
2 *136:3 *496:Q 17.0949707
3 *621:B0 *136:3 10.8972
*END

*D_NET *137 0.00139034

*CONN
*I *620:B0 I *C 19.1 24.605 *L 0.00039 *D OAI211X1
*I *493:Q O *C 10.9 16.435 *L 0 *D DFFQXL
*I *464:AN I *C 20.7 24.795 *L 0.00021 *D NOR2BX1

*CAP
1 *464:AN 5.31658e-05
2 *620:B0 4.97709e-05
3 *493:Q 0.000487209
4 *137:3 0.000590145586
5 *464:AN *121:5 8.79764551e-05
6 *464:AN *130:4 0.000122070313

*RES
1 *137:3 *493:Q 19.6783543
2 *620:B0 *137:3 7.34125
3 *464:AN *137:3 11.7933
*END

*D_NET *138 0.000454307

*CONN
*I *412:Y O *C 18.1 36.955 *L 0 *D DLY1X1
*I *494:D I *C 21.77 33.275 *L 0.00021 *D DFFQXL

*CAP
1 *494:D 0.000148475
2 *412:Y 7.86778e-05
3 *138:2 0.000227153301

*RES
1 *138:2 *412:Y 8.3839
2 *494:D *138:2 16.6076431
*END

*D_NET *139 0.000384331

*CONN
*I *409:A I *C 14.14 29.84 *L 0.00021 *D DLY1X1
*I *526:Q O *C 12.9 34.865 *L 0 *D DFFQXL

*CAP
1 *409:A 0.000115215
2 *526:Q 3.39151e-05
3 *139:2 0.000158250332
4 *139:3 7.69507e-05

*RES
1 *139:3 *526:Q 7.37849
2 *409:A *139:2 9.53301
3 *139:2 *139:3 14.5146847
*END

*D_NET *140 0.000769317

*CONN
*I *415:A I *C 18.14 31.72 *L 0.00021 *D DLY1X1
*I *525:Q O *C 13.3 36.955 *L 0 *D DFFQXL

*CAP
1 *525:Q 0.000341713438
2 *415:A 0.000341713438
3 *415:A *412:A 8.5890293e-05

*RES
1 *415:A *525:Q 24.9071
*END

*D_NET *141 0.000491738

*CONN
*I *411:Y O *C 9.3 33.535 *L 0 *D DLY1X1
*I *491:D I *C 15.77 31.705 *L 0.00021 *D DFFQXL

*CAP
1 *411:Y 0.00024586916
2 *491:D 0.00024586916

*RES
1 *491:D *411:Y 25.8504
*END

*D_NET *142 0.000874043

*CONN
*I *408:A I *C 33.54 36.68 *L 0.00021 *D DLY1X1
*I *521:Q O *C 22.1 33.535 *L 0 *D DFFQXL

*CAP
1 *408:A 7.75482e-05
2 *521:Q 6.19287e-05
3 *142:2 0.000375092031
4 *142:3 0.000359478

*RES
1 *142:3 *521:Q 8.07561
2 *142:2 *142:3 8.48243
3 *408:A *142:2 11.4473104
*END

*D_NET *143 0.00120378

*CONN
*I *405:Y O *C 11.1 36.955 *L 0 *D DLY1X1
*I *504:D I *C 28.37 33.275 *L 0.00021 *D DFFQXL

*CAP
1 *504:D 4.16643e-05
2 *405:Y 7.16459e-05
3 *143:2 0.000238713
4 *143:3 4.98304e-05
5 *143:4 0.000426769258
6 *143:5 0.000267861
7 *143:2 *391:A 0.000107288359

*RES
1 *143:5 *405:Y 8.2404
2 *143:4 *143:5 12.9877329
3 *504:D *143:3 4.15221
4 *143:3 *143:2 3.35712
5 *143:2 *143:4 7.87694
*END

*D_NET *144 0.0010339

*CONN
*I *422:Y O *C 10.7 26.695 *L 0 *D DLY1X1
*I *508:D I *C 23.97 29.855 *L 0.00021 *D DFFQXL

*CAP
1 *508:D 1.93105e-05
2 *422:Y 8.03476e-05
3 *144:2 0.000383316
4 *144:3 0.000444352617
5 *144:3 *506:D 0.000106573105

*RES
1 *144:3 *422:Y 15.8457756
2 *508:D *144:2 6.81187
3 *144:2 *144:3 10.5076
*END

*D_NET *145 0.000450253

*CONN
*I *407:Y O *C 6.9 30.115 *L 0 *D DLY1X1
*I *505:D I *C 12.37 31.705 *L 0.00021 *D DFFQXL

*CAP
1 *407:Y 0.000172197813
2 *505:D 0.000172197813
3 *505:D *523:D 0.000105857852

*RES
1 *505:D *407:Y 25.2064
*END

*D_NET *146 0.000595212

*CONN
*I *410:A I *C 12.54 26.42 *L 0.00021 *D DLY1X1
*I *518:Q O *C 5.1 24.605 *L 0 *D DFFQXL

*CAP
1 *518:Q 0.000246527
2 *410:A 5.10792e-05
3 *146:2 0.000297605996

*RES
1 *410:A *146:2 7.65569
2 *146:2 *518:Q 19.0595398
*END

*D_NET *147 0.00112653

*CONN
*I *413:Y O *C 6.9 28.025 *L 0 *D DLY1X1
*I *497:D I *C 17.57 24.865 *L 0.00021 *D DFFQXL

*CAP
1 *413:Y 0.00046724
2 *497:D 5.39435e-05
3 *147:2 0.000521183008
4 *497:D *105:4 8.41617578e-05

*RES
1 *497:D *147:2 4.58048
2 *147:2 *413:Y 29.158474
*END

*D_NET *148 0.000540793

*CONN
*I *414:Y O *C 10.1 23.275 *L 0 *D DLY1X1
*I *507:D I *C 15.77 21.445 *L 0.00021 *D DFFQXL

*CAP
1 *507:D 0.000155269
2 *414:Y 7.21227e-05
3 *148:2 0.000227391719
4 *507:D *434:CK 8.6009502e-05

*RES
1 *148:2 *414:Y 14.431715
2 *507:D *148:2 10.9925
*END

*D_NET *149 0.000243068

*CONN
*I *406:Y O *C 15.3 19.855 *L 0 *D DLY1X1
*I *499:D I *C 13.37 19.595 *L 0.00021 *D DFFQXL

*CAP
1 *406:Y 4.58986e-06
2 *499:D 0.000116944
3 *149:2 0.000121533867

*RES
1 *499:D *149:2 21.9244957
2 *149:2 *406:Y 0.165932
*END

*D_NET *150 0.000315785

*CONN
*I *417:A I *C 8.94 19.58 *L 0.00021 *D DLY1X1
*I *516:Q O *C 5.3 17.765 *L 0 *D DFFQXL

*CAP
1 *417:A 4.11868e-05
2 *516:Q 0.000116706
3 *150:2 0.000157892705

*RES
1 *150:2 *516:Q 22.6347446
2 *417:A *150:2 7.52235
*END

*D_NET *151 0.00121927

*CONN
*I *421:Y O *C 7.5 21.185 *L 0 *D DLY1X1
*I *492:D I *C 14.37 24.865 *L 0.00021 *D DFFQXL

*CAP
1 *492:D 0.00056678
2 *421:Y 4.28564e-05
3 *151:2 0.000609636289

*RES
1 *151:2 *421:Y 7.6656
2 *492:D *151:2 40.1256104
*END

*D_NET *152 0.000554562

*CONN
*I *425:Y O *C 13.9 13.015 *L 0 *D DLY1X1
*I *496:D I *C 11.97 18.025 *L 0.00021 *D DFFQXL

*CAP
1 *425:Y 4.27369e-05
2 *496:D 6.63404e-05
3 *152:2 9.54865e-05
4 *152:3 0.000119090078
5 *152:2 *493:D 9.00030176e-05
6 *152:2 *637:A0 0.000140905381

*RES
1 *496:D *152:3 4.79671
2 *152:3 *152:2 14.7724152
3 *152:2 *425:Y 8.95866
*END

*D_NET *153 0.00080955

*CONN
*I *416:Y O *C 10.7 9.595 *L 0 *D DLY1X1
*I *493:D I *C 13.77 16.175 *L 0.00021 *D DFFQXL

*CAP
1 *493:D 4.61323e-05
2 *416:Y 3.32017e-05
3 *153:2 0.000274419785
4 *153:3 0.000261485
5 *493:D *152:2 9.00030176e-05
6 *153:2 *41:2 0.000104308125

*RES
1 *153:3 *416:Y 7.37868
2 *493:D *153:2 4.79685
3 *153:2 *153:3 15.691638
*END

*D_NET *154 0.00166249

*CONN
*I *681:Q3 O *C 34.145 5.55 *L 0 *D DFF4X1
*I *675:A I *C 38.7 10.925 *L 0.000395 *D INVX1
*I *651:B I *C 35.375 11.345 *L 0.000392 *D NOR2X1
*I *648:A0 I *C 38.545 12.595 *L 0.000392 *D OAI22X1
*I *588:B0 I *C 32.765 10.995 *L 0.000389 *D AOI22X1
*I *529:AN I *C 38.5 9.405 *L 0.00021 *D NAND2BX1
*I *528:B I *C 37.1 9.595 *L 0.000392 *D NAND2BX1
*I *502:B I *C 40.17 7.735 *L 0.000419 *D XOR2XL

*CAP
1 *502:B 5.15597e-05
2 *648:A0 5.01876e-05
3 *529:AN 3.57554e-06
4 *528:B 4.74469e-05
5 *651:B 8.82731e-05
6 *681:Q3 0.000110924
7 *588:B0 2.56892e-05
8 *154:8 8.15395e-05
9 *154:9 9.00044e-05
10 *154:10 7.11687e-05
11 *154:11 7.91546e-05
12 *154:12 9.36381e-05
13 *154:13 0.000122787
14 *154:14 0.000104426
15 *154:15 0.000224232676
16 *154:16 0.000107944
17 *154:8 *47:20 0.00015735626
18 *154:8 *111:4 0.000152587891

*RES
1 *588:B0 *154:16 4.0674
2 *154:15 *681:Q3 6.09327
3 *154:16 *154:15 1.48167
4 *154:14 *154:16 3.54616
5 *651:B *154:14 8.27109814
6 *154:13 *154:15 5.66467
7 *528:B *154:13 7.67591
8 *529:AN *154:12 3.33628
9 *154:11 *154:13 1.57241
10 *154:12 *154:11 3.67944
11 *154:10 *154:9 0.536632
12 *648:A0 *154:10 4.34366
13 *154:9 *154:12 1.38714
14 *675:A *154:9 3.29993
15 *502:B *154:8 4.19133
16 *154:8 *154:11 4.39654
*END

*D_NET *155 0.00191116

*CONN
*I *681:Q2 O *C 28.39 5.55 *L 0 *D DFF4X1
*I *604:B0 I *C 34.6 10.92 *L 0.000392 *D AOI21X1
*I *603:B0 I *C 36.165 9.525 *L 0.000389 *D AOI22X1
*I *602:C0 I *C 34.94 9.24 *L 0.000393 *D AOI211X1
*I *503:B I *C 36.77 7.735 *L 0.000419 *D XOR2XL
*I *502:A I *C 39.365 7.38 *L 0.000211 *D XOR2XL

*CAP
1 *502:A 8.30859e-05
2 *503:B 4.94658e-06
3 *603:B0 3.19477e-05
4 *602:C0 3.54078e-05
5 *604:B0 0.000123677
6 *681:Q2 2.40793e-05
7 *155:6 0.000419914727
8 *155:7 6.9502e-05
9 *155:8 6.84832e-05
10 *155:9 0.000129399
11 *155:10 0.000138107
12 *155:11 8.88719e-05
13 *155:12 0.000396547
14 *155:6 *156:4 0.000175714492
15 *502:A *110:4 0.000121474268

*RES
1 *155:12 *681:Q2 3.83336
2 *155:11 *155:10 1.57226
3 *155:9 *155:11 3.34692
4 *604:B0 *155:9 15.9049
5 *602:C0 *155:8 4.22223
6 *155:8 *155:11 4.12159
7 *603:B0 *155:7 4.22223
8 *155:7 *155:6 0.888169
9 *503:B *155:6 3.3363
10 *155:6 *155:12 18.3213959
11 *155:10 *155:6 3.3363
12 *502:A *155:10 12.4067
*END

*D_NET *156 0.0014466

*CONN
*I *681:Q1 O *C 25.19 5.55 *L 0 *D DFF4X1
*I *603:B1 I *C 35.94 9.33 *L 0.000392 *D AOI22X1
*I *602:B0 I *C 34.64 9.54 *L 0.000393 *D AOI211X1
*I *503:A I *C 35.965 7.38 *L 0.000211 *D XOR2XL

*CAP
1 *603:B1 6.121e-05
2 *602:B0 0.000162003
3 *681:Q1 2.89075e-05
4 *156:4 0.000158908
5 *156:5 0.000545322891
6 *156:6 0.000314537
7 *156:4 *155:6 0.000175714492

*RES
1 *156:6 *681:Q1 4.14433
2 *156:5 *156:6 15.1792765
3 *602:B0 *156:5 10.8763
4 *603:B1 *156:4 8.24025
5 *503:A *156:4 6.59994
6 *156:4 *156:5 6.69953
*END

*D_NET *157 9.88245e-05

*CONN
*I *676:Y O *C 25.13 12.39 *L 0 *D INVX1
*I *644:B0 I *C 24.4 13.02 *L 0.000392 *D AOI21X1

*CAP
1 *676:Y 6.07936e-06
2 *644:B0 4.33329e-05
3 *157:2 4.9412251e-05

*RES
1 *644:B0 *157:2 7.1669817
2 *157:2 *676:Y 0.208877
*END

*D_NET *158 0.000754774

*CONN
*I *675:Y O *C 38.93 11.55 *L 0 *D INVX1
*I *654:B I *C 36.765 10.995 *L 0.000392 *D NOR2BX1
*I *605:A0 I *C 39.1 17.575 *L 0.000391 *D AOI21X1

*CAP
1 *605:A0 0.000221611
2 *675:Y 1.76421e-05
3 *654:B 7.77258e-05
4 *158:3 3.4811e-05
5 *158:4 0.000316500664
6 *605:A0 *614:B0 8.64863379e-05

*RES
1 *654:B *158:4 8.11993
2 *158:3 *675:Y 0.4854
3 *158:4 *158:3 6.75204
4 *605:A0 *158:4 19.1633701
*END

*D_NET *159 0.000435352

*CONN
*I *674:Y O *C 38.33 14.97 *L 0 *D INVX1
*I *650:B I *C 36.9 13.205 *L 0.000392 *D NAND2X1
*I *648:B1 I *C 39.1 12.635 *L 0.000392 *D OAI22X1
*I *606:B1 I *C 37.94 12.75 *L 0.000392 *D AOI22X1

*CAP
1 *648:B1 6.96787e-05
2 *674:Y 2.6643e-05
3 *606:B1 8.88036e-06
4 *650:B 8.56525e-05
5 *159:4 0.000123143193
6 *159:5 0.000121354

*RES
1 *650:B *159:5 11.2370253
2 *606:B1 *159:5 6.73148
3 *159:5 *159:4 0.608524
4 *159:4 *674:Y 3.87627
5 *648:B1 *159:4 4.69844
*END

*D_NET *160 8.53539e-05

*CONN
*I *673:Y O *C 37.13 22.65 *L 0 *D INVX1
*I *633:A1 I *C 37.9 23.085 *L 0.000391 *D OAI211X1

*CAP
1 *673:Y 4.26769238e-05
2 *633:A1 4.26769238e-05

*RES
1 *633:A1 *673:Y 7.49779
*END

*D_NET *161 0.000139952

*CONN
*I *672:Y O *C 19.93 25.23 *L 0 *D INVX1
*I *634:A1 I *C 19.9 26.505 *L 0.000391 *D OAI211X1

*CAP
1 *634:A1 6.99758545e-05
2 *161:2 6.99758545e-05

*RES
1 *161:2 *672:Y 3.29996
2 *634:A1 *161:2 4.36592102
*END

*D_NET *162 0.000166178

*CONN
*I *671:Y O *C 22.73 25.23 *L 0 *D INVX1
*I *635:A1 I *C 21.9 26.505 *L 0.000391 *D OAI211X1

*CAP
1 *635:A1 5.19161e-05
2 *671:Y 3.11728e-05
3 *162:2 8.3088877e-05

*RES
1 *162:2 *671:Y 4.16931
2 *635:A1 *162:2 4.22227383
*END

*D_NET *163 0.000321984

*CONN
*I *670:Y O *C 34.53 28.65 *L 0 *D INVX1
*I *619:A1 I *C 33.9 31.635 *L 0.000391 *D OAI211X1

*CAP
1 *670:Y 2.44374e-05
2 *619:A1 4.98896e-05
3 *163:2 0.000111102
4 *163:3 0.000136554238

*RES
1 *163:3 *163:2 1.88229
2 *619:A1 *163:3 4.22227383
3 *163:2 *670:Y 3.79132
*END

*D_NET *164 0.000218987

*CONN
*I *669:Y O *C 35.73 22.65 *L 0 *D INVX1
*I *640:A1 I *C 35.5 24.795 *L 0.000391 *D OAI211X1

*CAP
1 *669:Y 7.98627e-06
2 *640:A1 0.000101507
3 *164:2 0.00010949373

*RES
1 *640:A1 *164:2 8.79049301
2 *164:2 *669:Y 0.24573
*END

*D_NET *165 0.000369787

*CONN
*I *668:Y O *C 25.53 29.49 *L 0 *D INVX1
*I *617:A1 I *C 27.3 31.635 *L 0.000391 *D OAI211X1

*CAP
1 *617:A1 8.20743e-05
2 *668:Y 0.000102819
3 *165:2 0.000184893613

*RES
1 *165:2 *668:Y 5.84197044
2 *617:A1 *165:2 4.94039
*END

*D_NET *166 0.000232101

*CONN
*I *667:Y O *C 16.53 15.81 *L 0 *D INVX1
*I *637:A1 I *C 14.7 16.245 *L 0.000391 *D OAI211X1

*CAP
1 *667:Y 3.19472e-05
2 *637:A1 8.4103e-05
3 *166:2 0.000116050244

*RES
1 *637:A1 *166:2 8.1859827
2 *166:2 *667:Y 0.976782
*END

*D_NET *167 0.000343204

*CONN
*I *666:Y O *C 19.53 14.97 *L 0 *D INVX1
*I *639:A1 I *C 17.1 12.825 *L 0.000391 *D OAI211X1

*CAP
1 *666:Y 2.00863e-05
2 *639:A1 0.000151515
3 *167:2 0.000171601777

*RES
1 *639:A1 *167:2 12.9143
2 *167:2 *666:Y 3.71491
*END

*D_NET *168 0.000915408

*CONN
*I *432:A I *C 24.9 14.535 *L 0.00021 *D BUFX2
*I *437:Y O *C 35.54 15.605 *L 0 *D NOR4X1

*CAP
1 *437:Y 2.77738e-05
2 *432:A 6.37773e-05
3 *168:2 0.00023246
4 *168:3 0.000268459316
5 *168:3 *113:4 0.00015962124
6 *168:3 *437:C 0.000163316729

*RES
1 *432:A *168:3 17.3577
2 *168:3 *168:2 24.7638226
3 *168:2 *437:Y 0.688094
*END

*D_NET *169 0.000492811

*CONN
*I *665:Y O *C 37.53 11.55 *L 0 *D INVX1
*I *652:B I *C 36 11.165 *L 0.000212 *D NAND2XL
*I *650:A I *C 36.7 12.825 *L 0.00039 *D NAND2X1
*I *647:B1 I *C 34.54 12.75 *L 0.000392 *D AOI22X1
*I *646:B1 I *C 35.74 12.75 *L 0.000392 *D AOI22X1

*CAP
1 *650:A 2.89681e-05
2 *652:B 7.74935e-06
3 *665:Y 8.00486e-05
4 *647:B1 5.82925e-05
5 *169:5 8.48179e-05
6 *169:6 6.97975e-05
7 *169:7 3.82666e-05
8 *169:8 0.000124871729

*RES
1 *647:B1 *169:8 7.79419
2 *646:B1 *169:7 0.500005
3 *169:7 *169:8 3.40196
4 *169:8 *169:6 1.3115
5 *169:6 *169:5 3.33628
6 *169:5 *665:Y 8.07499886
7 *652:B *169:6 3.43141
8 *650:A *169:7 0.946166
*END

*D_NET *170 0.000345588

*CONN
*I *664:Y O *C 37.33 18.39 *L 0 *D INVX1
*I *613:B0 I *C 38.5 16.435 *L 0.00039 *D OAI211X1
*I *599:B1 I *C 38.5 18.145 *L 0.000392 *D OAI22X1

*CAP
1 *613:B0 9.16136e-05
2 *664:Y 8.11803e-05
3 *170:3 0.000172793867

*RES
1 *599:B1 *170:3 3.3
2 *170:3 *664:Y 11.0595226
3 *613:B0 *170:3 4.79669
*END

*D_NET *171 0.000570655

*CONN
*I *663:Y O *C 37.93 11.55 *L 0 *D INVX1
*I *647:A1 I *C 34.1 13.205 *L 0.000392 *D AOI22X1
*I *646:A1 I *C 35.3 13.205 *L 0.000392 *D AOI22X1
*I *607:C1 I *C 34.9 14.345 *L 0.000392 *D AOI222X1

*CAP
1 *663:Y 2.39607e-05
2 *607:C1 1.60945e-05
3 *647:A1 6.40739e-05
4 *171:4 0.000157356
5 *171:5 0.000181198125
6 *171:6 0.000127971

*RES
1 *647:A1 *171:6 4.78154
2 *607:C1 *171:6 3.50419
3 *171:6 *171:5 1.11202
4 *171:5 *171:4 9.6398592
5 *646:A1 *171:5 3.30002
6 *171:4 *663:Y 3.85794
*END

*D_NET *172 0.000131845

*CONN
*I *662:Y O *C 18.73 19.23 *L 0 *D INVX1
*I *621:A1 I *C 17.7 19.665 *L 0.000391 *D OAI211X1

*CAP
1 *621:A1 2.27096e-05
2 *662:Y 4.32132e-05
3 *172:2 6.59227393e-05

*RES
1 *172:2 *662:Y 3.97706032
2 *621:A1 *172:2 3.64766
*END

*D_NET *173 0.000114918

*CONN
*I *661:Y O *C 20.53 12.39 *L 0 *D INVX1
*I *642:A1 I *C 19.5 12.825 *L 0.000391 *D OAI211X1

*CAP
1 *661:Y 1.06097e-05
2 *642:A1 4.68491e-05
3 *173:2 5.7458877e-05

*RES
1 *642:A1 *173:2 4.09758091
2 *173:2 *661:Y 3.402
*END

*D_NET *174 0.000231862

*CONN
*I *660:Y O *C 16.73 14.97 *L 0 *D INVX1
*I *641:A1 I *C 15.1 14.535 *L 0.000391 *D OAI211X1

*CAP
1 *660:Y 2.28289e-05
2 *641:A1 9.31022e-05
3 *174:2 0.000115931035

*RES
1 *641:A1 *174:2 8.05902481
2 *174:2 *660:Y 6.75922
*END

*D_NET *175 0.000217199

*CONN
*I *659:Y O *C 29.73 25.23 *L 0 *D INVX1
*I *638:A1 I *C 29.7 28.215 *L 0.000391 *D OAI211X1

*CAP
1 *638:A1 0.000108242
2 *659:Y 3.57939e-07
3 *175:2 0.000108599658

*RES
1 *175:2 *659:Y 3.31223
2 *638:A1 *175:2 5.51486015
*END

*D_NET *176 0.000110269

*CONN
*I *658:Y O *C 32.33 32.07 *L 0 *D INVX1
*I *643:A1 I *C 31.3 31.635 *L 0.000391 *D OAI211X1

*CAP
1 *658:Y 4.07692e-05
2 *643:A1 1.43651e-05
3 *176:2 5.51342969e-05

*RES
1 *643:A1 *176:2 3.50418
2 *176:2 *658:Y 4.00722027
*END

*D_NET *177 7.99894e-05

*CONN
*I *657:Y O *C 18.13 25.23 *L 0 *D INVX1
*I *620:A1 I *C 18.9 24.795 *L 0.000391 *D OAI211X1

*CAP
1 *657:Y 3.99947168e-05
2 *620:A1 3.99947168e-05

*RES
1 *620:A1 *657:Y 7.46751
*END

*D_NET *178 0.000284791

*CONN
*I *656:Y O *C 29.33 32.07 *L 0 *D INVX1
*I *618:A1 I *C 31.3 33.345 *L 0.000391 *D OAI211X1

*CAP
1 *656:Y 0.000142395498
2 *618:A1 0.000142395498

*RES
1 *618:A1 *656:Y 15.8595
*END

*D_NET *179 0.000171304

*CONN
*I *655:Y O *C 37.93 25.23 *L 0 *D INVX1
*I *636:A1 I *C 36.9 24.795 *L 0.000391 *D OAI211X1

*CAP
1 *655:Y 1.82988e-05
2 *636:A1 6.73531e-05
3 *179:2 8.5651875e-05

*RES
1 *636:A1 *179:2 4.7211647
2 *179:2 *655:Y 3.64771
*END

*D_NET *180 0.000191569

*CONN
*I *652:Y O *C 36.14 10.825 *L 0 *D NAND2XL
*I *603:A0 I *C 35.3 9.595 *L 0.000391 *D AOI22X1

*CAP
1 *652:Y 2.93851e-05
2 *603:A0 6.63996e-05
3 *180:2 9.5784668e-05

*RES
1 *603:A0 *180:2 4.45663929
2 *180:2 *652:Y 3.7913
*END

*D_NET *181 0.000872493

*CONN
*I *654:Y O *C 36.72 10.785 *L 0 *D NOR2BX1
*I *645:B I *C 35.3 14.535 *L 0.000211 *D AND2X1
*I *616:B0 I *C 32.965 12.945 *L 0.000389 *D AOI22X1
*I *615:B0 I *C 33.165 14.415 *L 0.000389 *D AOI22X1
*I *607:B0 I *C 34.495 14.78 *L 0.000391 *D AOI222X1

*CAP
1 *654:Y 2.21747e-05
2 *645:B 7.72492e-05
3 *615:B0 9.89286e-06
4 *616:B0 5.41798e-05
5 *181:5 0.000106453
6 *181:6 0.000203788
7 *181:7 0.000272750859
8 *181:8 0.000126006

*RES
1 *616:B0 *181:8 4.3778
2 *615:B0 *181:8 3.46634
3 *181:8 *181:7 4.30386
4 *181:7 *181:6 13.535738
5 *181:5 *181:7 3.64645
6 *607:B0 *181:5 3.29987
7 *645:B *181:5 4.81194
8 *181:6 *654:Y 3.64768
*END

*D_NET *182 0.000340581

*CONN
*I *653:Y O *C 39.555 16.2 *L 0 *D NAND2X1
*I *614:A1N I *C 37.9 16.435 *L 0.00021 *D OAI2BB1X1
*I *613:C0 I *C 38.785 16.245 *L 0.000392 *D OAI211X1

*CAP
1 *613:C0 5.14392e-05
2 *653:Y 4.6671e-05
3 *614:A1N 7.21802e-05
4 *182:3 0.000170290469

*RES
1 *614:A1N *182:3 7.59081
2 *182:3 *653:Y 10.5258226
3 *613:C0 *182:3 7.2153
*END

*D_NET *183 0.00071013

*CONN
*I *651:Y O *C 35.515 10.99 *L 0 *D NOR2X1
*I *616:A0 I *C 32.1 13.015 *L 0.000391 *D AOI22X1
*I *615:A0 I *C 32.3 14.345 *L 0.000391 *D AOI22X1
*I *607:A0 I *C 33.7 14.345 *L 0.000392 *D AOI222X1

*CAP
1 *651:Y 4.80994e-05
2 *607:A0 3.37952e-05
3 *615:A0 2.98615e-05
4 *616:A0 2.46165e-05
5 *183:4 0.000169338
6 *183:5 0.000211656094
7 *183:6 0.000111104
8 *615:A0 *234:7 8.16583643e-05

*RES
1 *616:A0 *183:6 3.94262
2 *183:6 *183:5 7.93713
3 *615:A0 *183:6 3.91282
4 *183:5 *183:4 9.04262066
5 *607:A0 *183:5 3.9992
6 *183:4 *651:Y 4.14449
*END

*D_NET *184 0.000398397

*CONN
*I *650:Y O *C 37.155 12.78 *L 0 *D NAND2X1
*I *649:A I *C 39.1 14.345 *L 0.000395 *D INVX1
*I *601:B1 I *C 37.74 14.795 *L 0.000793 *D OAI22X2

*CAP
1 *649:A 6.00225e-05
2 *650:Y 8.67252e-05
3 *601:B1 5.2451e-05
4 *184:3 0.00019919873

*RES
1 *601:B1 *184:3 7.55342
2 *184:3 *650:Y 8.22293758
3 *649:A *184:3 7.85894
*END

*D_NET *185 0.000263095

*CONN
*I *649:Y O *C 39.33 14.97 *L 0 *D INVX1
*I *605:B0 I *C 39.6 17.76 *L 0.000392 *D AOI21X1

*CAP
1 *605:B0 0.000109136
2 *649:Y 2.24113e-05
3 *185:2 0.000131547451

*RES
1 *185:2 *649:Y 3.80047
2 *605:B0 *185:2 5.22768497
*END

*D_NET *186 0.000553906

*CONN
*I *648:Y O *C 39.17 13.04 *L 0 *D OAI22X1
*I *614:B0 I *C 37.465 16.205 *L 0.00039 *D OAI2BB1X1

*CAP
1 *648:Y 4.55366e-05
2 *614:B0 0.000188173
3 *186:2 0.000233709805
4 *614:B0 *605:A0 8.64863379e-05

*RES
1 *614:B0 *186:2 21.7134953
2 *186:2 *648:Y 7.31923
*END

*D_NET *187 0.000172853

*CONN
*I *647:Y O *C 34.555 12.355 *L 0 *D AOI22X1
*I *604:A0 I *C 34.1 10.735 *L 0.000391 *D AOI21X1

*CAP
1 *647:Y 5.22728e-05
2 *604:A0 3.4154e-05
3 *187:2 8.64267383e-05

*RES
1 *604:A0 *187:2 3.8594
2 *187:2 *647:Y 4.34362888
*END

*D_NET *188 0.000389457

*CONN
*I *646:Y O *C 35.755 12.355 *L 0 *D AOI22X1
*I *602:A0 I *C 34.1 9.595 *L 0.000392 *D AOI211X1

*CAP
1 *646:Y 2.03241e-05
2 *602:A0 0.000174404
3 *188:2 0.000194728379

*RES
1 *602:A0 *188:2 9.73761082
2 *188:2 *646:Y 0.485276
*END

*D_NET *189 0.000762582

*CONN
*I *644:Y O *C 24.58 12.57 *L 0 *D AOI21X1
*I *531:D I *C 28.5 19.665 *L 0.000307 *D DFFHQX1

*CAP
1 *644:Y 0.000339686875
2 *531:D 0.000339686875
3 *531:D *267:5 8.32080859e-05

*RES
1 *531:D *644:Y 24.8071
*END

*D_NET *190 0.000175238

*CONN
*I *645:Y O *C 35.94 14.435 *L 0 *D AND2X1
*I *601:A0 I *C 36.835 14.425 *L 0.000791 *D OAI22X2
*I *596:A I *C 36.65 16.28 *L 0.000211 *D OR2X1

*CAP
1 *596:A 5.96647e-05
2 *645:Y 1.95507e-05
3 *601:A0 2.79545e-05
4 *190:3 6.80685059e-05

*RES
1 *190:3 *601:A0 3.34683
2 *601:A0 *645:Y 0.491468
3 *596:A *190:3 4.57382202
*END

*D_NET *191 0.000183582

*CONN
*I *643:Y O *C 31.945 32.23 *L 0 *D OAI211X1
*I *632:A I *C 32.1 33.535 *L 0.000395 *D INVX1

*CAP
1 *643:Y 9.17911523e-05
2 *632:A 9.17911523e-05

*RES
1 *632:A *643:Y 8.30889
*END

*D_NET *192 0.000388503

*CONN
*I *642:Y O *C 20.145 12.23 *L 0 *D OAI211X1
*I *631:A I *C 15.3 13.015 *L 0.000395 *D INVX1

*CAP
1 *642:Y 5.34662e-05
2 *631:A 0.000140785
3 *192:2 0.000194251543

*RES
1 *631:A *192:2 10.0288391
2 *192:2 *642:Y 7.31902
*END

*D_NET *193 0.000136375

*CONN
*I *641:Y O *C 15.745 15.13 *L 0 *D OAI211X1
*I *630:A I *C 14.9 13.015 *L 0.000395 *D INVX1

*CAP
1 *641:Y 2.81335e-05
2 *630:A 4.00542e-05
3 *193:2 6.81877148e-05

*RES
1 *630:A *193:2 4.28271294
2 *193:2 *641:Y 3.76913
*END

*D_NET *194 0.00022459

*CONN
*I *640:Y O *C 36.145 25.39 *L 0 *D OAI211X1
*I *629:A I *C 35.9 28.025 *L 0.000395 *D INVX1

*CAP
1 *640:Y 0.000112295146
2 *629:A 0.000112295146

*RES
1 *629:A *640:Y 8.89099
*END

*D_NET *195 6.28233e-05

*CONN
*I *639:Y O *C 17.745 12.23 *L 0 *D OAI211X1
*I *628:A I *C 18.7 13.015 *L 0.000395 *D INVX1

*CAP
1 *628:A 3.14116479e-05
2 *639:Y 3.14116479e-05

*RES
1 *628:A *639:Y 1.22869
*END

*D_NET *196 0.0001899

*CONN
*I *638:Y O *C 30.345 28.81 *L 0 *D OAI211X1
*I *627:A I *C 28.7 28.025 *L 0.000395 *D INVX1

*CAP
1 *627:A 1.59141e-05
2 *638:Y 7.90361e-05
3 *196:2 9.49501953e-05

*RES
1 *196:2 *638:Y 8.03673267
2 *627:A *196:2 6.7886
*END

*D_NET *197 0.000125408

*CONN
*I *637:Y O *C 15.345 15.65 *L 0 *D OAI211X1
*I *626:A I *C 14.5 14.345 *L 0.000395 *D INVX1

*CAP
1 *637:Y 2.0266e-05
2 *626:A 4.2438e-05
3 *197:2 6.27040869e-05

*RES
1 *626:A *197:2 4.29785252
2 *197:2 *637:Y 3.76915
*END

*D_NET *198 0.000257611

*CONN
*I *636:Y O *C 37.545 25.39 *L 0 *D OAI211X1
*I *625:A I *C 36.7 28.025 *L 0.000395 *D INVX1

*CAP
1 *636:Y 4.81606e-05
2 *625:A 6.31809e-05
3 *198:2 6.56248e-05
4 *198:3 8.0645083e-05

*RES
1 *198:3 *198:2 0.362907
2 *625:A *198:3 4.50956821
3 *198:2 *636:Y 4.19999
*END

*D_NET *199 1.22786e-05

*CONN
*I *635:Y O *C 22.545 25.91 *L 0 *D OAI211X1
*I *624:A I *C 22.7 26.695 *L 0.000395 *D INVX1

*CAP
1 *635:Y 6.13927856e-06
2 *624:A 6.13927856e-06

*RES
1 *624:A *635:Y 0.24569
*END

*D_NET *200 0.00024879

*CONN
*I *634:Y O *C 20.545 25.91 *L 0 *D OAI211X1
*I *623:A I *C 19.9 30.115 *L 0.000395 *D INVX1

*CAP
1 *634:Y 9.34001e-05
2 *623:A 3.09948e-05
3 *200:2 0.000124394893

*RES
1 *623:A *200:2 3.98791
2 *200:2 *634:Y 5.48493862
*END

*D_NET *201 0.00041306

*CONN
*I *633:Y O *C 38.545 22.49 *L 0 *D OAI211X1
*I *622:A I *C 37.7 28.025 *L 0.000395 *D INVX1

*CAP
1 *633:Y 2.93245e-05
2 *622:A 8.428e-05
3 *201:2 0.000122249
4 *201:3 0.000177204609

*RES
1 *201:3 *201:2 2.04863
2 *622:A *201:3 5.08403778
3 *201:2 *633:Y 3.64771
*END

*D_NET *202 0.000566781

*CONN
*I *399:A I *C 38.74 35.14 *L 0.00021 *D DLY1X1
*I *632:Y O *C 32.33 32.91 *L 0 *D INVX1

*CAP
1 *632:Y 0.000237524512
2 *399:A 0.000237524512
3 *399:A *79 9.17315527e-05

*RES
1 *399:A *632:Y 32.7424
*END

*D_NET *203 0.000365376

*CONN
*I *396:A I *C 16.94 9.32 *L 0.00021 *D DLY1X1
*I *631:Y O *C 15.53 12.39 *L 0 *D INVX1

*CAP
1 *631:Y 0.000144065
2 *396:A 3.86228e-05
3 *203:2 0.000182688242

*RES
1 *396:A *203:2 7.49273
2 *203:2 *631:Y 10.4477406
*END

*D_NET *204 0.000254273

*CONN
*I *400:A I *C 15.14 9.32 *L 0.00021 *D DLY1X1
*I *630:Y O *C 15.13 12.39 *L 0 *D INVX1

*CAP
1 *400:A 7.22417e-05
2 *630:Y 6.67604e-06
3 *204:2 0.000120460986
4 *204:3 5.48954e-05

*RES
1 *204:3 *630:Y 0.239559
2 *204:2 *204:3 4.38137
3 *400:A *204:2 8.09681416
*END

*D_NET *205 0.00056994

*CONN
*I *404:A I *C 34.965 33.115 *L 0.00021 *D CLKBUFX2
*I *629:Y O *C 36.13 28.65 *L 0 *D INVX1

*CAP
1 *629:Y 3.10533e-05
2 *404:A 0.000135661
3 *205:2 0.000166714199
4 *404:A *678:D4 9.11951074e-05
5 *404:A *118:4 0.000145316123

*RES
1 *404:A *205:2 23.5334625
2 *205:2 *629:Y 4.22221
*END

*D_NET *206 0.000265956

*CONN
*I *418:A I *C 19.34 9.32 *L 0.00021 *D DLY1X1
*I *628:Y O *C 18.93 12.39 *L 0 *D INVX1

*CAP
1 *418:A 8.01683e-05
2 *628:Y 5.28097e-05
3 *206:2 0.000132977959

*RES
1 *206:2 *628:Y 4.43388
2 *418:A *206:2 8.09681416
*END

*D_NET *207 0.000449896

*CONN
*I *397:A I *C 30.34 24.88 *L 0.00021 *D DLY1X1
*I *627:Y O *C 28.93 28.65 *L 0 *D INVX1

*CAP
1 *627:Y 9.44139e-05
2 *397:A 0.000130534
3 *207:2 0.00022494793

*RES
1 *397:A *207:2 23.1109848
2 *207:2 *627:Y 21.108
*END

*D_NET *208 0.00064373

*CONN
*I *393:A I *C 11.94 9.32 *L 0.00021 *D DLY1X1
*I *626:Y O *C 14.73 14.97 *L 0 *D INVX1

*CAP
1 *626:Y 2.5509e-05
2 *393:A 8.66656e-05
3 *208:2 0.000235198
4 *208:3 0.000296354297

*RES
1 *208:3 *208:2 10.9665394
2 *393:A *208:3 8.09689
3 *208:2 *626:Y 3.85793
*END

*D_NET *209 0.000224769

*CONN
*I *424:A I *C 35.365 28.445 *L 0.00021 *D CLKBUFX2
*I *625:Y O *C 36.93 28.65 *L 0 *D INVX1

*CAP
1 *625:Y 1.40663e-05
2 *424:A 5.54327e-05
3 *209:2 6.94990137e-05
4 *424:A *467:B 8.5771084e-05

*RES
1 *424:A *209:2 14.6589279
2 *209:2 *625:Y 13.3889
*END

*D_NET *210 0.000384331

*CONN
*I *401:A I *C 23.14 31.72 *L 0.00021 *D DLY1X1
*I *624:Y O *C 22.93 26.07 *L 0 *D INVX1

*CAP
1 *624:Y 0.000192165371
2 *401:A 0.000192165371

*RES
1 *401:A *624:Y 17.3351
*END

*D_NET *211 0.000210106

*CONN
*I *419:A I *C 19.94 31.72 *L 0.00021 *D DLY1X1
*I *623:Y O *C 20.13 29.49 *L 0 *D INVX1

*CAP
1 *419:A 5.25712988e-05
2 *623:Y 1.22189e-05
3 *211:2 5.25712988e-05
4 *211:3 1.22189e-05
5 *419:A *677:D3 8.0525874e-05

*RES
1 *211:3 *623:Y 0.411665
2 *211:2 *211:3 6.59997
3 *419:A *211:2 8.24034214
*END

*D_NET *212 0.000879526

*CONN
*I *395:Y O *C 38.56 37.14 *L 0 *D CLKBUFX4
*I *678:D3 I *C 32.9 29.925 *L 0.00021 *D DFF4X1

*CAP
1 *395:Y 2.12789e-05
2 *678:D3 7.69497e-05
3 *212:2 0.000255465
4 *212:3 0.00031113625
5 *212:3 *121:4 0.000101149082
6 *212:3 *395:A 0.000113546846

*RES
1 *678:D3 *212:3 8.50751
2 *212:3 *212:2 28.0020237
3 *212:2 *395:Y 6.94795
*END

*D_NET *213 0.000505447

*CONN
*I *621:Y O *C 18.345 19.07 *L 0 *D OAI211X1
*I *612:A I *C 18.5 26.695 *L 0.000395 *D INVX1

*CAP
1 *612:A 5.57893e-05
2 *621:Y 0.000196934
3 *213:2 0.000252723691

*RES
1 *213:2 *621:Y 7.42745399
2 *612:A *213:2 4.36596
*END

*D_NET *214 0.000230551

*CONN
*I *620:Y O *C 19.545 25.39 *L 0 *D OAI211X1
*I *611:A I *C 18.1 26.695 *L 0.000395 *D INVX1

*CAP
1 *620:Y 3.43918e-05
2 *611:A 8.08836e-05
3 *214:2 0.000115275381

*RES
1 *611:A *214:2 11.1031532
2 *214:2 *620:Y 7.30101
*END

*D_NET *215 1.45435e-05

*CONN
*I *619:Y O *C 34.545 32.23 *L 0 *D OAI211X1
*I *610:A I *C 34.7 31.445 *L 0.000395 *D INVX1

*CAP
1 *619:Y 7.27176636e-06
2 *610:A 7.27176636e-06

*RES
1 *610:A *619:Y 0.24569
*END

*D_NET *216 0.000175357

*CONN
*I *618:Y O *C 31.945 32.75 *L 0 *D OAI211X1
*I *609:A I *C 33.1 33.535 *L 0.000395 *D INVX1

*CAP
1 *618:Y 8.76784277e-05
2 *609:A 8.76784277e-05

*RES
1 *609:A *618:Y 8.43513
*END

*D_NET *217 4.86374e-05

*CONN
*I *617:Y O *C 27.945 32.23 *L 0 *D OAI211X1
*I *608:A I *C 28.7 31.445 *L 0.000395 *D INVX1

*CAP
1 *617:Y 2.43186963e-05
2 *608:A 2.43186963e-05

*RES
1 *608:A *617:Y 0.983
*END

*D_NET *218 0.000306845

*CONN
*I *616:Y O *C 32.755 12.355 *L 0 *D AOI22X1
*I *604:A1 I *C 34.32 10.97 *L 0.000392 *D AOI21X1

*CAP
1 *616:Y 0.000153422354
2 *604:A1 0.000153422354

*RES
1 *604:A1 *616:Y 12.8633
*END

*D_NET *219 0.000545144

*CONN
*I *615:Y O *C 32.955 15.005 *L 0 *D AOI22X1
*I *602:A1 I *C 34.3 9.595 *L 0.000392 *D AOI211X1

*CAP
1 *615:Y 0.000272572031
2 *602:A1 0.000272572031

*RES
1 *602:A1 *615:Y 24.706
*END

*D_NET *220 0.00023973

*CONN
*I *614:Y O *C 37.335 15.76 *L 0 *D OAI2BB1X1
*I *606:A1 I *C 37.5 13.205 *L 0.000392 *D AOI22X1

*CAP
1 *614:Y 0.000119864941
2 *606:A1 0.000119864941

*RES
1 *606:A1 *614:Y 8.94344
*END

*D_NET *221 0.000164866

*CONN
*I *613:Y O *C 38.945 15.65 *L 0 *D OAI211X1
*I *605:A1 I *C 39.32 17.81 *L 0.000392 *D AOI21X1

*CAP
1 *613:Y 8.24332227e-05
2 *605:A1 8.24332227e-05

*RES
1 *605:A1 *613:Y 7.80201
*END

*D_NET *222 0.000252485

*CONN
*I *398:A I *C 16.74 26.42 *L 0.00021 *D DLY1X1
*I *612:Y O *C 18.73 26.07 *L 0 *D INVX1

*CAP
1 *612:Y 1.82983e-05
2 *398:A 0.000107944
3 *222:2 0.000126242637

*RES
1 *398:A *222:2 14.9613619
2 *222:2 *612:Y 13.3889
*END

*D_NET *223 0.000304699

*CONN
*I *392:A I *C 14.94 26.42 *L 0.00021 *D DLY1X1
*I *611:Y O *C 18.33 26.07 *L 0 *D INVX1

*CAP
1 *611:Y 9.40552e-05
2 *392:A 5.82943e-05
3 *223:2 0.000152349473

*RES
1 *392:A *223:2 14.5456
2 *223:2 *611:Y 15.1503086
*END

*D_NET *224 0.00108099

*CONN
*I *394:A I *C 26.34 36.68 *L 0.00021 *D DLY1X1
*I *610:Y O *C 34.93 32.07 *L 0 *D INVX1

*CAP
1 *610:Y 4.44629e-05
2 *394:A 0.000391485
3 *224:2 0.000435948359
4 *394:A *680:D2 8.69035742e-05
5 *394:A *680:D4 0.000122189521

*RES
1 *394:A *224:2 30.7006836
2 *224:2 *610:Y 7.37864
*END

*D_NET *225 0.000489771

*CONN
*I *403:A I *C 35.34 36.68 *L 0.00021 *D DLY1X1
*I *609:Y O *C 33.33 32.91 *L 0 *D INVX1

*CAP
1 *609:Y 5.46589e-05
2 *403:A 0.000137626
3 *225:2 0.00019228459
4 *225:2 *120:4 0.000105202197

*RES
1 *403:A *225:2 8.95869
2 *225:2 *609:Y 21.5613842
*END

*D_NET *226 0.000451088

*CONN
*I *420:A I *C 28.14 36.68 *L 0.00021 *D DLY1X1
*I *608:Y O *C 28.93 32.07 *L 0 *D INVX1

*CAP
1 *608:Y 1.3651e-05
2 *420:A 7.30145e-05
3 *226:2 0.000152528
4 *226:3 0.000211894512

*RES
1 *226:3 *226:2 6.32142
2 *420:A *226:3 7.95316696
3 *226:2 *608:Y 0.485301
*END

*D_NET *227 0.000483513

*CONN
*I *607:Y O *C 35.14 14.94 *L 0 *D AOI222X1
*I *603:A1 I *C 35.5 9.785 *L 0.000392 *D AOI22X1

*CAP
1 *607:Y 0.000241756445
2 *603:A1 0.000241756445

*RES
1 *603:A1 *607:Y 11.6875
*END

*D_NET *228 0.00025475

*CONN
*I *606:Y O *C 37.955 12.355 *L 0 *D AOI22X1
*I *601:A1 I *C 36.655 14.565 *L 0.00079 *D OAI22X2

*CAP
1 *606:Y 3.28413e-05
2 *601:A1 9.45338e-05
3 *228:2 0.000127375127

*RES
1 *601:A1 *228:2 11.6072893
2 *228:2 *606:Y 3.72806
*END

*D_NET *229 0.000194788

*CONN
*I *605:Y O *C 39.78 18.21 *L 0 *D AOI21X1
*I *599:A1 I *C 38.1 17.955 *L 0.000391 *D OAI22X1

*CAP
1 *605:Y 2.0742e-05
2 *599:A1 7.6652e-05
3 *229:2 9.73939941e-05

*RES
1 *599:A1 *229:2 8.09538364
2 *229:2 *605:Y 6.80503
*END

*D_NET *230 0.000597358

*CONN
*I *604:Y O *C 34.78 11.37 *L 0 *D AOI21X1
*I *598:A I *C 33.315 9.555 *L 0.000793 *D NOR3X2
*I *577:B0 I *C 29.37 10.965 *L 0.000392 *D OAI32X1

*CAP
1 *604:Y 1.82379e-05
2 *598:A 2.2708e-05
3 *577:B0 0.000112475
4 *230:3 0.000119686
5 *230:4 0.000236630449
6 *230:4 *232:4 8.76188281e-05

*RES
1 *577:B0 *230:4 9.44852829
2 *230:4 *230:3 5.60992
3 *598:A *230:4 6.92968
4 *230:3 *604:Y 6.87244
*END

*D_NET *231 0.000382185

*CONN
*I *603:Y O *C 35.955 8.935 *L 0 *D AOI22X1
*I *598:B I *C 33.145 9.5 *L 0.000794 *D NOR3X2

*CAP
1 *603:Y 8.88049e-06
2 *598:B 4.82811e-05
3 *231:2 0.000142814
4 *231:3 0.000182211406

*RES
1 *598:B *231:3 4.15226
2 *231:3 *231:2 12.8699541
3 *231:2 *603:Y 0.239583
*END

*D_NET *232 0.000644565

*CONN
*I *602:Y O *C 35.1 9.08 *L 0 *D AOI211X1
*I *598:C I *C 32.92 9.38 *L 0.000793 *D NOR3X2
*I *579:B0 I *C 29 9.6 *L 0.000392 *D AOI21X1
*I *573:A I *C 29.5 9.595 *L 0.000392 *D NOR2X1

*CAP
1 *602:Y 4.48822e-05
2 *598:C 1.56772e-05
3 *573:A 2.15177e-05
4 *579:B0 5.59103e-05
5 *232:4 0.00011605
6 *232:5 0.00015616417
7 *232:6 0.000146747
8 *232:4 *230:4 8.76188281e-05

*RES
1 *579:B0 *232:6 7.28548
2 *232:6 *232:5 2.32832
3 *573:A *232:6 6.70831
4 *232:5 *232:4 1.59502
5 *598:C *232:5 6.7493
6 *232:4 *602:Y 7.31909275
*END

*D_NET *233 0.000517726

*CONN
*I *600:Y O *C 28.33 14.97 *L 0 *D INVX1
*I *594:A1 I *C 28.9 14.155 *L 0.000392 *D AOI22X1
*I *593:A1 I *C 31.3 14.155 *L 0.000392 *D AOI22X1
*I *582:B0 I *C 27.7 14.535 *L 0.000392 *D OAI22X1
*I *581:A0 I *C 28.14 13.105 *L 0.000392 *D AOI221X1

*CAP
1 *593:A1 9.67388e-05
2 *594:A1 5.06644e-05
3 *581:A0 1.20992e-05
4 *582:B0 2.15164e-05
5 *600:Y 9.72148e-05
6 *233:5 0.000133872031
7 *593:A1 *440:D 0.000105619434

*RES
1 *582:B0 *600:Y 0.737258
2 *581:A0 *233:5 3.56849
3 *233:5 *600:Y 3.98403
4 *594:A1 *600:Y 1.27786
5 *593:A1 *233:5 12.8879547
*END

*D_NET *234 0.00162339

*CONN
*I *601:Y O *C 37.655 14.185 *L 0 *D OAI22X2
*I *600:A I *C 28.1 14.345 *L 0.000395 *D INVX1
*I *594:B1 I *C 29.34 14.61 *L 0.000392 *D AOI22X1
*I *593:B1 I *C 31.74 14.61 *L 0.000392 *D AOI22X1
*I *588:A1 I *C 32.1 10.735 *L 0.000392 *D AOI22X1
*I *582:A0 I *C 26.945 14.765 *L 0.000392 *D OAI22X1
*I *581:B0 I *C 28.7 13.015 *L 0.00039 *D AOI221X1

*CAP
1 *588:A1 7.68295e-05
2 *601:Y 0.000216603
3 *594:B1 1.12672e-05
4 *581:B0 7.73064e-05
5 *600:A 1.54952e-05
6 *582:A0 6.31824e-05
7 *234:7 0.000110805
8 *234:8 0.000300526621
9 *234:9 9.04813e-05
10 *234:10 0.000101923
11 *234:11 8.49371e-05
12 *234:12 0.000109732
13 *234:11 *607:C0 0.000149250029
14 *234:8 *324:5 0.000133395195
15 *234:7 *615:A0 8.16583643e-05

*RES
1 *582:A0 *234:12 7.84008
2 *234:12 *234:11 0.967517
3 *600:A *234:12 6.78868
4 *581:B0 *234:10 5.00468
5 *594:B1 *234:10 3.37192
6 *234:10 *234:11 3.3572
7 *234:11 *234:9 5.15749
8 *593:B1 *234:9 6.59996
9 *234:9 *234:8 0.805112
10 *234:8 *601:Y 14.6200657
11 *234:7 *234:8 1.02418
12 *588:A1 *234:7 4.79676
*END

*D_NET *235 0.000329733

*CONN
*I *599:Y O *C 38.57 17.74 *L 0 *D OAI22X1
*I *596:B I *C 36.3 16.435 *L 0.00021 *D OR2X1

*CAP
1 *599:Y 8.78583e-05
2 *596:B 7.70081e-05
3 *235:2 0.000164866445

*RES
1 *596:B *235:2 5.00463
2 *235:2 *599:Y 11.6890669
*END

*D_NET *236 0.000545859

*CONN
*I *597:Y O *C 30.33 11.55 *L 0 *D INVX1
*I *589:B1 I *C 31.14 11.19 *L 0.000392 *D AOI22X1
*I *588:B1 I *C 32.54 11.19 *L 0.000392 *D AOI22X1
*I *577:A0 I *C 28.5 10.955 *L 0.000392 *D OAI32X1

*CAP
1 *588:B1 5.40013e-05
2 *589:B1 2.66437e-05
3 *597:Y 1.63319e-05
4 *577:A0 7.07511e-05
5 *236:4 0.000100137
6 *236:5 0.000106573105
7 *588:B1 *589:B0 9.03606445e-05
8 *588:B1 *248:5 8.10623145e-05

*RES
1 *577:A0 *236:5 8.32454
2 *236:5 *597:Y 6.78861
3 *589:B1 *236:4 10.4277134
4 *236:4 *236:5 0.585859
5 *588:B1 *236:4 8.0943
*END

*D_NET *237 0.000885844

*CONN
*I *598:Y O *C 33.54 9.72 *L 0 *D NOR3X2
*I *597:A I *C 30.1 10.925 *L 0.000395 *D INVX1
*I *589:A0 I *C 30.5 10.925 *L 0.000391 *D AOI22X1
*I *588:A0 I *C 31.9 10.925 *L 0.000391 *D AOI22X1
*I *579:A0 I *C 28.5 9.785 *L 0.000391 *D AOI21X1
*I *577:B1 I *C 29.1 11.115 *L 0.000392 *D OAI32X1

*CAP
1 *598:Y 7.85593e-05
2 *588:A0 2.38426e-05
3 *589:A0 3.32004e-05
4 *597:A 2.80735e-05
5 *577:B1 8.88171e-06
6 *579:A0 8.97654e-05
7 *237:6 0.000119925
8 *237:7 9.09557e-05
9 *237:8 0.000102222
10 *237:9 9.95394e-05
11 *237:10 0.000126838682
12 *237:7 *583:B 8.40425488e-05

*RES
1 *579:A0 *237:10 4.95969
2 *577:B1 *237:10 3.38694
3 *237:10 *237:9 0.57828
4 *237:9 *237:8 4.17353
5 *597:A *237:9 4.01449
6 *589:A0 *237:8 7.14385509
7 *237:8 *237:7 0.967651
8 *237:7 *237:6 4.17353
9 *588:A0 *237:7 6.92966
10 *237:6 *598:Y 4.82845
*END

*D_NET *238 0.00155401

*CONN
*I *595:Y O *C 27.13 12.39 *L 0 *D INVX1
*I *592:B1 I *C 26.3 12.635 *L 0.000392 *D OAI22X1
*I *591:B1 I *C 30.1 12.635 *L 0.000392 *D OAI22X1
*I *590:A1 I *C 26.1 16.625 *L 0.000392 *D AOI22X1
*I *589:A1 I *C 30.7 10.735 *L 0.000392 *D AOI22X1
*I *587:A1 I *C 28.9 16.625 *L 0.000392 *D AOI22X1
*I *585:B1 I *C 30.5 14.725 *L 0.000392 *D OAI22X1

*CAP
1 *589:A1 9.03621e-05
2 *587:A1 1.54367e-05
3 *595:Y 6.73382e-06
4 *592:B1 2.46774e-05
5 *590:A1 4.90525e-05
6 *238:7 0.000239431
7 *238:8 0.000190912
8 *238:9 0.000231626
9 *238:10 1.35299e-05
10 *238:11 0.000196397
11 *238:12 0.000291287891
12 *238:7 *440:A 0.000109195713
13 *589:A1 *250:3 9.53674316e-05

*RES
1 *590:A1 *238:12 7.24538
2 *592:B1 *238:11 3.90347
3 *238:12 *238:11 13.3342743
4 *238:10 *595:Y 0.239682
5 *238:11 *238:10 3.35717
6 *238:9 *238:12 2.10912
7 *587:A1 *238:9 6.78861
8 *591:B1 *238:8 3.3
9 *238:8 *238:7 2.29814
10 *585:B1 *238:7 3.3
11 *238:7 *238:9 6.43763
12 *589:A1 *238:8 5.34095
*END

*D_NET *239 0.00164127

*CONN
*I *596:Y O *C 36.95 16.16 *L 0 *D OR2X1
*I *595:A I *C 26.9 13.015 *L 0.000395 *D INVX1
*I *592:A1 I *C 25.9 12.825 *L 0.000391 *D OAI22X1
*I *591:A1 I *C 29.7 12.825 *L 0.000391 *D OAI22X1
*I *590:B1 I *C 26.54 16.17 *L 0.000392 *D AOI22X1
*I *587:B1 I *C 29.34 16.17 *L 0.000392 *D AOI22X1
*I *585:A1 I *C 30.1 14.535 *L 0.000391 *D OAI22X1

*CAP
1 *596:Y 1.41862e-05
2 *591:A1 6.68178e-05
3 *587:B1 4.08289e-05
4 *595:A 3.01591e-05
5 *590:B1 4.76839e-05
6 *592:A1 7.74272e-05
7 *239:7 0.000159682
8 *239:8 7.47455e-05
9 *239:9 0.000104667
10 *239:10 0.000197470195
11 *239:11 0.000104667
12 *239:12 0.000159263
13 *239:13 0.000170409
14 *239:10 *646:A0 0.000197529785
15 *239:10 *268:7 9.05990625e-05
16 *239:10 *653:B 0.000105142598

*RES
1 *592:A1 *239:13 4.69846
2 *590:B1 *239:12 4.24115
3 *239:13 *239:12 1.29266
4 *239:12 *239:11 5.50782
5 *595:A *239:13 3.98037
6 *587:B1 *239:11 7.2544
7 *239:11 *239:10 0.665201
8 *239:9 *239:8 0.710645
9 *591:A1 *239:9 4.50963
10 *239:8 *239:10 3.91508
11 *239:10 *239:7 8.5580349
12 *585:A1 *239:8 3.29989
13 *239:7 *596:Y 3.57242
*END

*D_NET *240 7.79629e-05

*CONN
*I *594:Y O *C 29.355 15.005 *L 0 *D AOI22X1
*I *585:A0 I *C 29.945 14.765 *L 0.000392 *D OAI22X1

*CAP
1 *594:Y 3.8981438e-05
2 *585:A0 3.8981438e-05

*RES
1 *585:A0 *594:Y 7.04122
*END

*D_NET *241 6.86646e-05

*CONN
*I *593:Y O *C 31.755 15.005 *L 0 *D AOI22X1
*I *585:B0 I *C 30.7 14.535 *L 0.000392 *D OAI22X1

*CAP
1 *585:B0 3.43322754e-05
2 *593:Y 3.43322754e-05

*RES
1 *585:B0 *593:Y 0.983
*END

*D_NET *242 0.000298321

*CONN
*I *592:Y O *C 26.37 13.04 *L 0 *D OAI22X1
*I *581:A1 I *C 28.34 12.935 *L 0.000392 *D AOI221X1

*CAP
1 *592:Y 9.14335254e-05
2 *581:A1 9.14335254e-05
3 *581:A1 *647:A0 0.000115454199

*RES
1 *581:A1 *592:Y 15.2609
*END

*D_NET *243 0.000221968

*CONN
*I *591:Y O *C 30.17 13.04 *L 0 *D OAI22X1
*I *581:B1 I *C 28.5 13.015 *L 0.000392 *D AOI221X1

*CAP
1 *581:B1 3.84443e-05
2 *591:Y 7.25396e-05
3 *243:2 0.000110983848

*RES
1 *243:2 *591:Y 7.92384148
2 *581:B1 *243:2 7.08522
*END

*D_NET *244 0.000331163

*CONN
*I *590:Y O *C 26.555 15.775 *L 0 *D AOI22X1
*I *582:A1 I *C 27.1 14.535 *L 0.000391 *D OAI22X1

*CAP
1 *582:A1 9.63802e-05
2 *590:Y 6.92015e-05
3 *244:2 0.000165581699

*RES
1 *244:2 *590:Y 11.0589266
2 *582:A1 *244:2 5.29271
*END

*D_NET *245 0.000210404

*CONN
*I *587:Y O *C 29.355 15.775 *L 0 *D AOI22X1
*I *582:B1 I *C 27.5 14.725 *L 0.000392 *D OAI22X1

*CAP
1 *587:Y 1.84768e-05
2 *582:B1 8.67254e-05
3 *245:2 0.000105202197

*RES
1 *582:B1 *245:2 8.35430622
2 *245:2 *587:Y 0.485303
*END

*D_NET *246 0.00123215

*CONN
*I *589:Y O *C 31.155 11.585 *L 0 *D AOI22X1
*I *567:B I *C 27.9 17.765 *L 0.000392 *D NAND2BX1
*I *565:A I *C 29.5 17.955 *L 0.00039 *D NAND2X1
*I *566:A I *C 30.25 16.28 *L 0.000211 *D OR2X1
*I *568:AN I *C 28.1 16.245 *L 0.00021 *D NAND2BX1
*I *584:B I *C 30.8 9.355 *L 0.000212 *D NAND2XL

*CAP
1 *589:Y 0.000188052
2 *584:B 8.88718e-05
3 *565:A 9.96601e-05
4 *568:AN 8.04632e-06
5 *567:B 7.96928e-05
6 *246:6 0.000213921074
7 *246:7 0.000105262
8 *246:8 0.000186978
9 *246:9 0.000154375
10 *246:8 *268:5 0.000107288359

*RES
1 *567:B *246:9 4.67207
2 *568:AN *246:9 3.34688
3 *246:9 *246:8 5.15341
4 *565:A *246:7 8.52115
5 *246:7 *246:8 3.33626
6 *246:8 *246:6 12.2079849
7 *566:A *246:7 3.29993
8 *584:B *589:Y 8.48613
9 *246:6 *589:Y 5.33354
*END

*D_NET *247 8.34465e-05

*CONN
*I *586:Y O *C 25.53 11.55 *L 0 *D INVX1
*I *572:A I *C 26.3 11.115 *L 0.00039 *D NAND2X1
*I *570:A I *C 25.7 11.115 *L 0.00039 *D NAND2X1

*CAP
1 *572:A 3.71336e-05
2 *586:Y 4.58965e-06
3 *247:3 4.1723252e-05

*RES
1 *247:3 *586:Y 0.165828
2 *570:A *247:3 0.500009
3 *572:A *247:3 7.19714165
*END

*D_NET *248 0.000972271

*CONN
*I *588:Y O *C 32.555 11.585 *L 0 *D AOI22X1
*I *571:A I *C 24.1 11.115 *L 0.00039 *D NAND2X1
*I *569:A I *C 23.5 11.115 *L 0.00039 *D NAND2X1
*I *586:A I *C 25.3 10.925 *L 0.000395 *D INVX1
*I *583:B I *C 31.4 9.355 *L 0.000212 *D NAND2XL

*CAP
1 *588:Y 4.94132e-05
2 *583:B 8.10045e-05
3 *586:A 1.51408e-05
4 *571:A 5.4851e-06
5 *569:A 2.39027e-05
6 *248:5 0.000309884551
7 *248:6 0.000243784
8 *248:7 7.85599e-05
9 *248:5 *588:B1 8.10623145e-05
10 *583:B *237:7 8.40425488e-05

*RES
1 *569:A *248:7 3.75015
2 *248:7 *248:6 4.32483
3 *571:A *248:7 3.37179
4 *248:6 *248:5 5.57141
5 *586:A *248:6 6.78855
6 *583:B *248:5 8.21065903
7 *248:5 *588:Y 7.31149
*END

*D_NET *249 0.000486851

*CONN
*I *681:D4 I *C 34.9 5.985 *L 0.00021 *D DFF4X1
*I *584:Y O *C 30.94 9.695 *L 0 *D NAND2XL

*CAP
1 *681:D4 5.63851e-05
2 *584:Y 0.00018704
3 *249:2 0.000243425371

*RES
1 *249:2 *584:Y 15.4029131
2 *681:D4 *249:2 4.71846
*END

*D_NET *250 0.000718117

*CONN
*I *585:Y O *C 30.57 14.32 *L 0 *D OAI22X1
*I *581:C0 I *C 28.9 13.015 *L 0.000392 *D AOI221X1
*I *580:A I *C 27.945 11.255 *L 0.000211 *D OR2XL

*CAP
1 *585:Y 7.31931e-05
2 *581:C0 9.85248e-05
3 *580:A 7.78451e-05
4 *250:3 0.000135003
5 *250:4 0.000238180156
6 *250:3 *589:A1 9.53674316e-05

*RES
1 *580:A *250:4 11.3483667
2 *581:C0 *250:4 8.19179
3 *250:4 *250:3 4.32473
4 *250:3 *585:Y 5.43557
*END

*D_NET *251 0.000200868

*CONN
*I *681:D3 I *C 31.7 5.985 *L 0.00021 *D DFF4X1
*I *583:Y O *C 31.54 9.695 *L 0 *D NAND2XL

*CAP
1 *681:D3 9.24463e-05
2 *583:Y 7.9875e-06
3 *251:2 0.000100433828

*RES
1 *251:2 *583:Y 3.3572
2 *681:D3 *251:2 5.7233572
*END

*D_NET *252 0.000310898

*CONN
*I *582:Y O *C 27.57 14.32 *L 0 *D OAI22X1
*I *580:B I *C 27.5 10.925 *L 0.00021 *D OR2XL
*I *577:A1 I *C 28.565 11.205 *L 0.000392 *D OAI32X1

*CAP
1 *577:A1 4.93518e-05
2 *582:Y 8.0527e-05
3 *580:B 2.55701e-05
4 *252:3 0.000155448916

*RES
1 *580:B *252:3 3.74923
2 *252:3 *582:Y 5.36179543
3 *577:A1 *252:3 4.26008
*END

*D_NET *253 0.000154495

*CONN
*I *581:Y O *C 29.14 12.555 *L 0 *D AOI221X1
*I *577:A2 I *C 28.785 11.09 *L 0.000391 *D OAI32X1

*CAP
1 *581:Y 2.90873e-05
2 *577:A2 4.81603e-05
3 *253:2 7.72476172e-05

*RES
1 *577:A2 *253:2 4.26852703
2 *253:2 *581:Y 3.7913
*END

*D_NET *254 0.000143409

*CONN
*I *580:Y O *C 28.125 11.345 *L 0 *D OR2XL
*I *579:A1 I *C 28.72 9.55 *L 0.000392 *D AOI21X1

*CAP
1 *580:Y 7.17043896e-05
2 *579:A1 7.17043896e-05

*RES
1 *579:A1 *580:Y 8.01802
*END

*D_NET *255 0.000359893

*CONN
*I *579:Y O *C 29.18 9.15 *L 0 *D AOI21X1
*I *578:A I *C 26.5 9.595 *L 0.000395 *D INVX1
*I *574:B I *C 25.375 9.175 *L 0.000392 *D NOR2X1

*CAP
1 *578:A 2.0146e-05
2 *579:Y 9.42361e-05
3 *574:B 6.55644e-05
4 *255:3 0.000179946426

*RES
1 *574:B *255:3 7.72672
2 *255:3 *579:Y 9.04893875
3 *578:A *255:3 6.92961
*END

*D_NET *256 0.0002352

*CONN
*I *578:Y O *C 26.73 8.97 *L 0 *D INVX1
*I *576:B I *C 26.8 7.745 *L 0.000212 *D NAND2XL
*I *575:B I *C 25.975 9.175 *L 0.000392 *D NOR2X1

*CAP
1 *576:B 6.58038e-05
2 *578:Y 1.46627e-05
3 *575:B 1.43642e-05
4 *256:3 3.74319e-05
5 *256:4 0.000102937217

*RES
1 *256:4 *256:3 3.91999
2 *575:B *256:4 3.57249
3 *256:3 *578:Y 0.528338
4 *576:B *256:4 4.84132767
*END

*D_NET *257 0.000192642

*CONN
*I *577:Y O *C 29.15 10.99 *L 0 *D OAI32X1
*I *573:B I *C 29.775 9.175 *L 0.000392 *D NOR2X1

*CAP
1 *577:Y 9.63211035e-05
2 *573:B 9.63211035e-05

*RES
1 *573:B *577:Y 11.6353
*END

*D_NET *258 0.000366688

*CONN
*I *681:D2 I *C 30.745 5.755 *L 0.00021 *D DFF4X1
*I *576:Y O *C 26.94 7.405 *L 0 *D NAND2XL

*CAP
1 *576:Y 0.000140428
2 *681:D2 4.29159e-05
3 *258:2 0.000183343887

*RES
1 *681:D2 *258:2 4.36598
2 *258:2 *576:Y 8.61418247
*END

*D_NET *259 0.000296831

*CONN
*I *575:Y O *C 26.115 9.53 *L 0 *D NOR2X1
*I *572:B I *C 26.5 10.735 *L 0.000392 *D NAND2X1
*I *571:B I *C 24.3 10.735 *L 0.000392 *D NAND2X1

*CAP
1 *572:B 3.36169e-05
2 *575:Y 1.19801e-05
3 *571:B 0.000102819
4 *259:3 0.000148415566

*RES
1 *571:B *259:3 11.6991997
2 *259:3 *575:Y 3.57245
3 *572:B *259:3 4.13906
*END

*D_NET *260 0.000299335

*CONN
*I *574:Y O *C 25.515 9.53 *L 0 *D NOR2X1
*I *570:B I *C 25.9 10.735 *L 0.000392 *D NAND2X1
*I *569:B I *C 23.7 10.735 *L 0.000392 *D NAND2X1

*CAP
1 *570:B 3.98757e-05
2 *574:Y 2.64641e-05
3 *569:B 7.49237e-05
4 *260:3 3.48694e-05
5 *260:4 0.000123202803

*RES
1 *569:B *260:4 8.04817677
2 *260:3 *574:Y 3.85793
3 *260:4 *260:3 3.35713
4 *570:B *260:4 7.30263
*END

*D_NET *261 0.00124913

*CONN
*I *573:Y O *C 29.915 9.53 *L 0 *D NOR2X1
*I *568:B I *C 27.5 16.435 *L 0.000392 *D NAND2BX1
*I *567:AN I *C 28.5 17.955 *L 0.00021 *D NAND2BX1
*I *566:B I *C 29.9 16.435 *L 0.00021 *D OR2X1
*I *565:B I *C 29.7 17.575 *L 0.000392 *D NAND2X1
*I *564:B I *C 27.5 9.785 *L 0.000392 *D NAND2X1

*CAP
1 *566:B 6.69939e-05
2 *565:B 0.00013262
3 *573:Y 2.46175e-05
4 *567:AN 1.60319e-05
5 *564:B 1.40671e-05
6 *568:B 6.66395e-05
7 *261:6 0.000117539
8 *261:7 0.000246467
9 *261:8 7.40902e-05
10 *261:9 0.000101386
11 *261:10 0.000293970117
12 *261:7 *262:8 9.47117773e-05

*RES
1 *261:10 *261:9 5.05425
2 *261:8 *261:7 3.35724
3 *261:7 *261:10 13.0274296
4 *568:B *261:8 4.33466
5 *564:B *261:10 6.78863
6 *567:AN *261:6 6.81308
7 *261:6 *261:7 0.747622
8 *261:9 *573:Y 3.5117
9 *565:B *261:6 7.89883
10 *566:B *565:B 7.77181
*END

*D_NET *262 0.00182396

*CONN
*I *572:Y O *C 26.755 11.16 *L 0 *D NAND2X1
*I *563:A0 I *C 32.5 22.895 *L 0.000391 *D OAI211X1
*I *562:A1 I *C 33.9 23.085 *L 0.000391 *D OAI211X1
*I *547:A1 I *C 34.1 19.665 *L 0.000391 *D OAI211X1
*I *546:A0 I *C 30.7 19.475 *L 0.000391 *D OAI211X1

*CAP
1 *547:A1 6.76494e-05
2 *562:A1 5.51945e-05
3 *563:A0 5.3881e-05
4 *546:A0 1.64529e-05
5 *572:Y 0.000315728
6 *262:5 0.000113546
7 *262:6 0.000189543
8 *262:7 0.00019032
9 *262:8 0.00037753582
10 *262:8 *261:7 9.47117773e-05
11 *546:A0 *546:A1 8.2850459e-05
12 *262:5 *330:4 8.40425488e-05
13 *547:A1 *547:B0 0.000182509414

*RES
1 *262:8 *572:Y 22.9827156
2 *546:A0 *262:8 6.85
3 *262:7 *262:8 1.1187
4 *262:6 *262:7 4.83108
5 *563:A0 *262:6 4.50389
6 *262:5 *262:6 8.10441
7 *562:A1 *262:5 4.4313
8 *547:A1 *262:7 8.35445
*END

*D_NET *263 0.00126719

*CONN
*I *571:Y O *C 24.555 11.16 *L 0 *D NAND2X1
*I *559:A1 I *C 23.1 14.535 *L 0.000391 *D OAI211X1
*I *558:A0 I *C 21.5 14.725 *L 0.000391 *D OAI211X1
*I *544:A0 I *C 21.9 19.475 *L 0.000391 *D OAI211X1
*I *542:A1 I *C 24.7 19.665 *L 0.000391 *D OAI211X1

*CAP
1 *542:A1 0.000142694
2 *559:A1 3.57621e-05
3 *571:Y 5.93051e-05
4 *544:A0 2.83118e-05
5 *558:A0 3.24248e-05
6 *263:5 0.000130834
7 *263:6 0.000290453438
8 *263:7 0.000150144
9 *263:8 0.00019473
10 *263:7 *329:6 8.05854785e-05
11 *263:7 *265:8 0.000121951104

*RES
1 *558:A0 *263:8 7.1344
2 *263:8 *263:7 0.873186
3 *263:6 *263:8 13.2772923
4 *544:A0 *263:6 3.83351
5 *263:5 *571:Y 7.77278
6 *559:A1 *263:7 6.95186
7 *263:7 *263:5 8.90366
8 *542:A1 *263:6 12.8705
*END

*D_NET *264 0.00179768

*CONN
*I *570:Y O *C 26.155 11.16 *L 0 *D NAND2X1
*I *561:A1 I *C 31.1 23.085 *L 0.000391 *D OAI211X1
*I *556:A0 I *C 27.3 22.895 *L 0.000391 *D OAI211X1
*I *543:A0 I *C 29.7 19.475 *L 0.000391 *D OAI211X1
*I *540:A1 I *C 31.3 17.955 *L 0.000391 *D OAI211X1

*CAP
1 *540:A1 0.000129222
2 *561:A1 8.70262e-05
3 *543:A0 0.000106394
4 *570:Y 0.000308035
5 *556:A0 0.00010914
6 *264:5 0.000222263
7 *264:6 0.000519990938
8 *264:7 0.000220715
9 *264:7 *342:4 9.48905957e-05

*RES
1 *556:A0 *264:7 8.49592
2 *264:6 *570:Y 17.8887844
3 *264:7 *264:6 5.98795
4 *543:A0 *264:5 5.4363
5 *264:5 *264:7 3.85039
6 *561:A1 *264:5 5.41282
7 *540:A1 *264:6 12.2751
*END

*D_NET *265 0.00140989

*CONN
*I *569:Y O *C 23.955 11.16 *L 0 *D NAND2X1
*I *560:A0 I *C 22.1 16.055 *L 0.000391 *D OAI211X1
*I *557:A1 I *C 23.3 16.245 *L 0.000391 *D OAI211X1
*I *545:A0 I *C 20.7 19.475 *L 0.000391 *D OAI211X1
*I *541:A1 I *C 23.5 19.665 *L 0.000391 *D OAI211X1

*CAP
1 *569:Y 3.52244e-05
2 *541:A1 2.65233e-05
3 *557:A1 2.05646e-05
4 *560:A0 9.01237e-05
5 *545:A0 4.54201e-05
6 *265:5 0.000193297
7 *265:6 0.000252425664
8 *265:7 0.000127555
9 *265:8 0.00016278
10 *265:8 *263:7 0.000121951104
11 *265:8 *270:7 0.000136971475
12 *541:A1 *541:B0 0.000197052949

*RES
1 *545:A0 *265:8 8.08767
2 *560:A0 *265:8 9.26705
3 *265:8 *265:7 4.47018
4 *557:A1 *265:6 3.64774
5 *265:6 *265:5 17.3923969
6 *265:7 *265:6 1.94661
7 *541:A1 *265:7 3.85793
8 *265:5 *569:Y 3.93489
*END

*D_NET *266 0.00158608

*CONN
*I *568:Y O *C 27.72 15.785 *L 0 *D NAND2BX1
*I *563:A1 I *C 32.7 23.085 *L 0.000391 *D OAI211X1
*I *560:A1 I *C 22.3 16.245 *L 0.000391 *D OAI211X1
*I *558:A1 I *C 21.7 14.535 *L 0.000391 *D OAI211X1
*I *556:A1 I *C 27.5 23.085 *L 0.000391 *D OAI211X1

*CAP
1 *563:A1 0.000194906
2 *558:A1 9.43571e-05
3 *266:5 0.000480175
4 *266:6 0.000428322
5 *266:7 0.000150028
6 *266:8 0.000101325
7 *563:A1 *562:A0 0.000136971475

*RES
1 *558:A1 *266:8 5.19744
2 *266:8 *266:7 3.34685
3 *266:7 *266:6 7.34093
4 *560:A1 *266:8 3.3
5 *266:5 *266:6 5.48074
6 *556:A1 *266:5 3.3
7 *266:6 *568:Y 3.3
8 *563:A1 *266:5 14.2817497
*END

*D_NET *267 0.00115073

*CONN
*I *567:Y O *C 28.12 18.415 *L 0 *D NAND2BX1
*I *547:A0 I *C 33.9 19.475 *L 0.000391 *D OAI211X1
*I *542:A0 I *C 24.5 19.475 *L 0.000391 *D OAI211X1
*I *541:A0 I *C 23.3 19.475 *L 0.000391 *D OAI211X1
*I *540:A0 I *C 31.1 18.145 *L 0.000391 *D OAI211X1

*CAP
1 *547:A0 0.000169932
2 *540:A0 3.00983e-05
3 *567:Y 2.09227e-05
4 *542:A0 7.80983e-06
5 *541:A0 7.40875e-05
6 *267:5 0.00028324127
7 *267:6 0.000244024
8 *267:7 0.000155509
9 *267:8 8.18973e-05
10 *267:5 *531:D 8.32080859e-05

*RES
1 *541:A0 *267:8 7.77264
2 *267:7 *267:6 6.89204
3 *267:8 *267:7 3.3572
4 *542:A0 *267:7 3.3572
5 *267:6 *567:Y 6.80501
6 *267:5 *267:6 1.87473
7 *540:A0 *267:5 7.23455
8 *547:A0 *267:5 10.2214813
*END

*D_NET *268 0.00162256

*CONN
*I *566:Y O *C 30.55 16.16 *L 0 *D OR2X1
*I *562:A0 I *C 33.7 22.895 *L 0.000391 *D OAI211X1
*I *561:A0 I *C 30.9 22.895 *L 0.000391 *D OAI211X1
*I *559:A0 I *C 22.9 14.725 *L 0.000391 *D OAI211X1
*I *557:A0 I *C 23.1 16.055 *L 0.000391 *D OAI211X1

*CAP
1 *562:A0 6.93209e-05
2 *561:A0 2.08619e-05
3 *566:Y 2.44398e-05
4 *557:A0 1.54389e-05
5 *559:A0 4.04732e-05
6 *268:5 0.000298084
7 *268:6 0.000367522227
8 *268:7 0.000191094
9 *268:7 *239:10 9.05990625e-05
10 *268:7 *560:C0 0.000128626826
11 *268:5 *246:8 0.000107288359
12 *562:A0 *46:56 0.000131845479
13 *562:A0 *563:A1 0.000136971475

*RES
1 *559:A0 *268:7 4.23868
2 *268:7 *268:6 9.22517
3 *557:A0 *268:7 3.58927
4 *268:6 *566:Y 6.84981
5 *268:5 *268:6 12.2827291
6 *561:A0 *268:5 6.80502
7 *562:A0 *268:5 8.98227
*END

*D_NET *269 0.000191808

*CONN
*I *681:D1 I *C 27.5 5.985 *L 0.000211 *D DFF4X1
*I *564:Y O *C 27.755 9.36 *L 0 *D NAND2X1

*CAP
1 *681:D1 9.5903877e-05
2 *269:2 9.5903877e-05

*RES
1 *681:D1 *269:2 5.65850735
2 *269:2 *564:Y 3.29999
*END

*D_NET *270 0.00114274

*CONN
*I *565:Y O *C 29.955 18 *L 0 *D NAND2X1
*I *546:A1 I *C 30.9 19.665 *L 0.000391 *D OAI211X1
*I *545:A1 I *C 20.9 19.665 *L 0.000391 *D OAI211X1
*I *544:A1 I *C 22.1 19.665 *L 0.000391 *D OAI211X1
*I *543:A1 I *C 29.9 19.665 *L 0.000391 *D OAI211X1

*CAP
1 *546:A1 7.84386e-05
2 *543:A1 2.30058e-05
3 *565:Y 2.49724e-05
4 *544:A1 2.03837e-05
5 *545:A1 3.45707e-05
6 *270:5 0.000103296
7 *270:6 0.00026214
8 *270:7 0.000290274629
9 *270:7 *265:8 0.000136971475
10 *546:A1 *540:B0 8.58306836e-05
11 *546:A1 *546:A0 8.2850459e-05

*RES
1 *545:A1 *270:7 7.80732
2 *270:7 *270:6 9.81414318
3 *544:A1 *270:7 6.98413
4 *270:6 *565:Y 3.85791
5 *270:5 *270:6 0.0226125
6 *543:A1 *270:5 3.73317
7 *546:A1 *270:5 5.23518
*END

*D_NET *271 0.000116467

*CONN
*I *563:Y O *C 33.345 22.49 *L 0 *D OAI211X1
*I *555:A I *C 33.1 24.605 *L 0.000395 *D INVX1

*CAP
1 *563:Y 5.82337402e-05
2 *555:A 5.82337402e-05

*RES
1 *555:A *563:Y 7.61819
*END

*D_NET *272 0.000106812

*CONN
*I *562:Y O *C 34.545 22.49 *L 0 *D OAI211X1
*I *554:A I *C 34.5 24.605 *L 0.000395 *D INVX1

*CAP
1 *562:Y 5.34057617e-05
2 *554:A 5.34057617e-05

*RES
1 *554:A *562:Y 7.37858
*END

*D_NET *273 8.63075e-05

*CONN
*I *561:Y O *C 31.745 22.49 *L 0 *D OAI211X1
*I *553:A I *C 31.7 24.605 *L 0.000395 *D INVX1

*CAP
1 *561:Y 4.31537646e-05
2 *553:A 4.31537646e-05

*RES
1 *553:A *561:Y 7.34794
*END

*D_NET *274 0.000244737

*CONN
*I *560:Y O *C 22.945 15.65 *L 0 *D OAI211X1
*I *552:A I *C 20.9 16.435 *L 0.000395 *D INVX1

*CAP
1 *552:A 1.53784e-05
2 *560:Y 0.00010699
3 *274:2 0.00012236834

*RES
1 *274:2 *560:Y 8.42225552
2 *552:A *274:2 6.78859
*END

*D_NET *275 0.000145555

*CONN
*I *559:Y O *C 23.745 15.13 *L 0 *D OAI211X1
*I *551:A I *C 24.3 16.435 *L 0.000395 *D INVX1

*CAP
1 *559:Y 7.27772705e-05
2 *551:A 7.27772705e-05

*RES
1 *551:A *559:Y 8.26883
*END

*D_NET *276 0.000127435

*CONN
*I *558:Y O *C 22.345 15.13 *L 0 *D OAI211X1
*I *550:A I *C 21.7 16.435 *L 0.000395 *D INVX1

*CAP
1 *550:A 4.35118e-05
2 *558:Y 2.02056e-05
3 *276:2 6.37173633e-05

*RES
1 *276:2 *558:Y 3.69359
2 *550:A *276:2 4.19259071
*END

*D_NET *277 0.000280261

*CONN
*I *557:Y O *C 23.945 15.65 *L 0 *D OAI211X1
*I *549:A I *C 21.3 16.435 *L 0.000395 *D INVX1

*CAP
1 *549:A 2.68223e-05
2 *557:Y 0.000113308
3 *277:2 0.000140130518

*RES
1 *277:2 *557:Y 8.5285902
2 *549:A *277:2 7.0617
*END

*D_NET *278 8.63075e-05

*CONN
*I *556:Y O *C 28.145 22.49 *L 0 *D OAI211X1
*I *548:A I *C 28.1 24.605 *L 0.000395 *D INVX1

*CAP
1 *556:Y 4.31537646e-05
2 *548:A 4.31537646e-05

*RES
1 *548:A *556:Y 7.34794
*END

*D_NET *279 0.000128865

*CONN
*I *685:D3 I *C 32.5 26.505 *L 0.00021 *D DFF4X1
*I *555:Y O *C 33.33 25.23 *L 0 *D INVX1

*CAP
1 *685:D3 3.62995e-05
2 *555:Y 2.1696e-05
3 *279:2 4.27365283e-05
4 *279:3 2.81337e-05

*RES
1 *279:3 *555:Y 0.731106
2 *279:2 *279:3 3.3468
3 *685:D3 *279:2 4.14443016
*END

*D_NET *280 0.000168085

*CONN
*I *685:D4 I *C 35.7 26.505 *L 0.00021 *D DFF4X1
*I *554:Y O *C 34.73 25.23 *L 0 *D INVX1

*CAP
1 *554:Y 8.40425488e-05
2 *685:D4 8.40425488e-05

*RES
1 *685:D4 *554:Y 8.39913
*END

*D_NET *281 0.000105977

*CONN
*I *685:D2 I *C 31.545 26.275 *L 0.00021 *D DFF4X1
*I *553:Y O *C 31.93 25.23 *L 0 *D INVX1

*CAP
1 *553:Y 4.41043e-06
2 *685:D2 3.85642e-05
3 *281:2 1.4424e-05
4 *281:3 4.85777832e-05

*RES
1 *685:D2 *281:3 4.22224
2 *281:3 *281:2 6.8116188
3 *281:2 *553:Y 0.16578
*END

*D_NET *282 0.000392556

*CONN
*I *684:D1 I *C 17.3 17.955 *L 0.000211 *D DFF4X1
*I *552:Y O *C 21.13 15.81 *L 0 *D INVX1

*CAP
1 *552:Y 1.99078e-05
2 *684:D1 0.00017637
3 *282:2 0.000196278086

*RES
1 *684:D1 *282:2 17.1294212
2 *282:2 *552:Y 0.731064
*END

*D_NET *283 9.83477e-05

*CONN
*I *684:D4 I *C 24.7 17.955 *L 0.00021 *D DFF4X1
*I *551:Y O *C 24.53 15.81 *L 0 *D INVX1

*CAP
1 *684:D4 4.26173e-05
2 *551:Y 6.55651e-06
3 *283:2 4.9173833e-05

*RES
1 *283:2 *551:Y 3.3468
2 *684:D4 *283:2 4.28783894
*END

*D_NET *284 0.000144482

*CONN
*I *684:D3 I *C 21.5 17.955 *L 0.00021 *D DFF4X1
*I *550:Y O *C 21.93 15.81 *L 0 *D INVX1

*CAP
1 *550:Y 2.57492e-05
2 *684:D3 4.64916e-05
3 *284:2 7.22408301e-05

*RES
1 *684:D3 *284:2 4.26852703
2 *284:2 *550:Y 3.7913
*END

*D_NET *285 0.000186682

*CONN
*I *684:D2 I *C 20.545 18.185 *L 0.00021 *D DFF4X1
*I *549:Y O *C 21.53 15.81 *L 0 *D INVX1

*CAP
1 *549:Y 1.76427e-05
2 *684:D2 7.56982e-05
3 *285:2 9.33408691e-05

*RES
1 *684:D2 *285:2 4.87232208
2 *285:2 *549:Y 3.6477
*END

*D_NET *286 8.66652e-05

*CONN
*I *685:D1 I *C 28.3 26.505 *L 0.000211 *D DFF4X1
*I *548:Y O *C 28.33 25.23 *L 0 *D INVX1

*CAP
1 *685:D1 4.33325781e-05
2 *286:2 4.33325781e-05

*RES
1 *685:D1 *286:2 4.22227383
2 *286:2 *548:Y 3.29994
*END

*D_NET *287 0.000136137

*CONN
*I *547:Y O *C 34.745 19.07 *L 0 *D OAI211X1
*I *539:A I *C 35.3 17.765 *L 0.000395 *D INVX1

*CAP
1 *539:A 4.72663e-05
2 *547:Y 2.08023e-05
3 *287:2 6.80685059e-05

*RES
1 *287:2 *547:Y 3.84249
2 *539:A *287:2 4.43136692
*END

*D_NET *288 0.00018394

*CONN
*I *546:Y O *C 31.545 19.07 *L 0 *D OAI211X1
*I *538:A I *C 33.3 19.855 *L 0.000395 *D INVX1

*CAP
1 *546:Y 9.19699707e-05
2 *538:A 9.19699707e-05

*RES
1 *538:A *546:Y 8.77321
*END

*D_NET *289 0.000490308

*CONN
*I *545:Y O *C 21.545 19.07 *L 0 *D OAI211X1
*I *537:A I *C 16.1 21.185 *L 0.000395 *D INVX1

*CAP
1 *545:Y 2.52131e-05
2 *537:A 0.000219941
3 *289:2 0.000245153906

*RES
1 *537:A *289:2 14.8742199
2 *289:2 *545:Y 3.61915
*END

*D_NET *290 0.000317395

*CONN
*I *544:Y O *C 22.745 19.07 *L 0 *D OAI211X1
*I *536:A I *C 21.1 21.185 *L 0.000395 *D INVX1

*CAP
1 *544:Y 4.69682e-05
2 *536:A 6.13923e-05
3 *290:2 5.47769e-05
4 *290:3 6.92009912e-05
5 *536:A *384:7 8.50558301e-05

*RES
1 *536:A *290:3 8.09395313
2 *290:2 *544:Y 3.96917
3 *290:3 *290:2 3.35721
*END

*D_NET *291 0.000306606

*CONN
*I *543:Y O *C 30.545 19.07 *L 0 *D OAI211X1
*I *535:A I *C 32.9 19.855 *L 0.000395 *D INVX1

*CAP
1 *543:Y 0.000153303145
2 *535:A 0.000153303145

*RES
1 *535:A *543:Y 19.4541
*END

*D_NET *292 0.000154257

*CONN
*I *542:Y O *C 25.345 19.07 *L 0 *D OAI211X1
*I *534:A I *C 24.1 21.185 *L 0.000395 *D INVX1

*CAP
1 *542:Y 2.98616e-05
2 *534:A 4.72668e-05
3 *292:2 7.71284082e-05

*RES
1 *534:A *292:2 4.58665
2 *292:2 *542:Y 7.09140301
*END

*D_NET *293 0.000191569

*CONN
*I *541:Y O *C 24.145 19.07 *L 0 *D OAI211X1
*I *533:A I *C 22.9 21.185 *L 0.000395 *D INVX1

*CAP
1 *541:Y 9.5784668e-05
2 *533:A 9.5784668e-05

*RES
1 *533:A *541:Y 8.35145
*END

*D_NET *294 0.000157952

*CONN
*I *540:Y O *C 31.945 18.55 *L 0 *D OAI211X1
*I *532:A I *C 32.5 19.855 *L 0.000395 *D INVX1

*CAP
1 *540:Y 7.89761523e-05
2 *532:A 7.89761523e-05

*RES
1 *532:A *540:Y 8.30245
*END

*D_NET *295 0.000297904

*CONN
*I *683:D4 I *C 36.7 21.375 *L 0.00021 *D DFF4X1
*I *539:Y O *C 35.53 18.39 *L 0 *D INVX1

*CAP
1 *683:D4 0.000106036
2 *539:Y 4.29162e-05
3 *295:2 0.000148952012

*RES
1 *295:2 *539:Y 4.57976
2 *683:D4 *295:2 5.57982922
*END

*D_NET *296 0.000100493

*CONN
*I *683:D3 I *C 33.5 21.375 *L 0.00021 *D DFF4X1
*I *538:Y O *C 33.53 19.23 *L 0 *D INVX1

*CAP
1 *683:D3 5.02467139e-05
2 *296:2 5.02467139e-05

*RES
1 *296:2 *538:Y 3.29996
2 *683:D3 *296:2 4.36592102
*END

*D_NET *297 0.000103712

*CONN
*I *682:D1 I *C 16.7 23.085 *L 0.000211 *D DFF4X1
*I *537:Y O *C 16.33 21.81 *L 0 *D INVX1

*CAP
1 *537:Y 1.29341e-05
2 *682:D1 3.89219e-05
3 *297:2 5.185604e-05

*RES
1 *682:D1 *297:2 4.14443016
2 *297:2 *537:Y 3.58894
*END

*D_NET *298 0.000108361

*CONN
*I *682:D3 I *C 20.9 23.085 *L 0.00021 *D DFF4X1
*I *536:Y O *C 21.33 21.81 *L 0 *D INVX1

*CAP
1 *682:D3 3.8743e-05
2 *536:Y 7.21208e-06
3 *298:2 4.69684619e-05
4 *298:3 1.54376e-05

*RES
1 *298:3 *536:Y 0.239613
2 *298:2 *298:3 3.34933
3 *682:D3 *298:2 4.14443016
*END

*D_NET *299 0.000415981

*CONN
*I *683:D1 I *C 29.3 21.375 *L 0.000211 *D DFF4X1
*I *535:Y O *C 33.13 19.23 *L 0 *D INVX1

*CAP
1 *535:Y 2.15171e-05
2 *683:D1 0.000138343
3 *299:2 0.000159859658
4 *683:D1 *683:CK 2.28286e-05
5 *683:D1 *384:6 7.34328982e-05

*RES
1 *683:D1 *299:2 13.5053396
2 *299:2 *535:Y 3.71492
*END

*D_NET *300 0.000103116

*CONN
*I *682:D4 I *C 24.1 23.085 *L 0.00021 *D DFF4X1
*I *534:Y O *C 24.33 21.81 *L 0 *D INVX1

*CAP
1 *534:Y 5.15580176e-05
2 *682:D4 5.15580176e-05

*RES
1 *682:D4 *534:Y 7.76482
*END

*D_NET *301 0.000386477

*CONN
*I *682:D2 I *C 19.945 22.855 *L 0.00021 *D DFF4X1
*I *533:Y O *C 23.13 21.81 *L 0 *D INVX1

*CAP
1 *533:Y 0.000135005
2 *682:D2 5.01874e-05
3 *301:2 0.000143051152
4 *301:3 5.82333e-05

*RES
1 *682:D2 *301:3 4.28779
2 *301:3 *301:2 3.34937
3 *301:2 *533:Y 9.28449631
*END

*D_NET *302 0.000129342

*CONN
*I *683:D2 I *C 32.545 21.605 *L 0.00021 *D DFF4X1
*I *532:Y O *C 32.73 19.23 *L 0 *D INVX1

*CAP
1 *532:Y 1.68085e-05
2 *683:D2 4.78626e-05
3 *302:2 6.467104e-05

*RES
1 *683:D2 *302:2 4.29034233
2 *302:2 *532:Y 3.64767
*END

*D_NET *303 0.000391483

*CONN
*I *490:Y O *C 28.12 27.885 *L 0 *D NOR2BX1
*I *457:B I *C 28.9 23.275 *L 0.00021 *D OR2X1

*CAP
1 *490:Y 0.00019574166
2 *457:B 0.00019574166

*RES
1 *457:B *490:Y 10.6797
*END

*D_NET *304 0.000321507

*CONN
*I *489:Y O *C 16.72 19.995 *L 0 *D NOR2BX1
*I *456:B I *C 19.5 19.855 *L 0.00021 *D OR2X1

*CAP
1 *489:Y 0.00016075373
2 *456:B 0.00016075373

*RES
1 *456:B *489:Y 16.0595
*END

*D_NET *305 0.000186205

*CONN
*I *487:Y O *C 37.52 19.995 *L 0 *D NOR2BX1
*I *455:B I *C 36.5 19.855 *L 0.00021 *D OR2X1

*CAP
1 *455:B 4.25571e-05
2 *487:Y 5.05454e-05
3 *305:2 9.31024512e-05

*RES
1 *305:2 *487:Y 7.64894485
2 *455:B *305:2 7.40606
*END

*D_NET *306 9.53674e-05

*CONN
*I *485:Y O *C 38.72 24.465 *L 0 *D NOR2BX1
*I *450:B I *C 38.7 23.275 *L 0.00021 *D OR2X1

*CAP
1 *450:B 4.76837158e-05
2 *306:2 4.76837158e-05

*RES
1 *450:B *306:2 4.22227383
2 *306:2 *485:Y 3.29994
*END

*D_NET *307 0.000333786

*CONN
*I *483:Y O *C 21.92 24.465 *L 0 *D NOR2BX1
*I *452:B I *C 21.7 21.185 *L 0.00021 *D OR2X1

*CAP
1 *452:B 8.91685449e-05
2 *307:2 8.91685449e-05
3 *452:B *339:5 0.000155448916

*RES
1 *452:B *307:2 5.80215454
2 *307:2 *483:Y 3.29992
*END

*D_NET *308 0.000287652

*CONN
*I *482:Y O *C 33.12 31.305 *L 0 *D NOR2BX1
*I *453:B I *C 33.3 28.025 *L 0.00021 *D OR2X1

*CAP
1 *482:Y 2.00261e-05
2 *453:B 0.0001238
3 *308:2 0.000143826006

*RES
1 *453:B *308:2 5.828619
2 *308:2 *482:Y 3.5117
*END

*D_NET *309 0.000263691

*CONN
*I *480:Y O *C 26.12 31.305 *L 0 *D NOR2BX1
*I *451:B I *C 25.9 28.025 *L 0.00021 *D OR2X1

*CAP
1 *480:Y 0.000131845479
2 *451:B 0.000131845479

*RES
1 *451:B *480:Y 9.53686
*END

*D_NET *310 0.000135422

*CONN
*I *478:Y O *C 30.12 33.675 *L 0 *D NOR2BX1
*I *454:B I *C 30.1 31.445 *L 0.00021 *D OR2X1

*CAP
1 *454:B 9.11904e-06
2 *478:Y 5.85918e-05
3 *310:2 6.77108789e-05

*RES
1 *310:2 *478:Y 4.57489491
2 *454:B *310:2 3.35718
*END

*D_NET *311 7.34329e-05

*CONN
*I *475:Y O *C 31.32 27.885 *L 0 *D NOR2BX1
*I *449:B I *C 31.9 28.025 *L 0.00021 *D OR2X1

*CAP
1 *475:Y 3.671646e-05
2 *449:B 3.671646e-05

*RES
1 *449:B *475:Y 7.32946
*END

*D_NET *312 0.000103831

*CONN
*I *472:Y O *C 17.32 16.575 *L 0 *D NOR2BX1
*I *448:B I *C 18.1 16.435 *L 0.00021 *D OR2X1

*CAP
1 *472:Y 5.19156445e-05
2 *448:B 5.19156445e-05

*RES
1 *448:B *472:Y 7.5109
*END

*D_NET *313 0.000388026

*CONN
*I *470:Y O *C 17.12 14.205 *L 0 *D NOR2BX1
*I *447:B I *C 20.1 14.345 *L 0.00021 *D OR2X1

*CAP
1 *470:Y 0.000194013125
2 *447:B 0.000194013125

*RES
1 *447:B *470:Y 16.7844
*END

*D_NET *314 8.2612e-05

*CONN
*I *468:Y O *C 17.92 14.205 *L 0 *D NOR2BX1
*I *442:B I *C 18.5 14.345 *L 0.00021 *D OR2X1

*CAP
1 *468:Y 4.13060205e-05
2 *442:B 4.13060205e-05

*RES
1 *442:B *468:Y 7.29454
*END

*D_NET *315 8.52346e-05

*CONN
*I *466:Y O *C 21.12 13.155 *L 0 *D NOR2BX1
*I *445:B I *C 21.7 13.015 *L 0.00021 *D OR2X1

*CAP
1 *466:Y 4.26173193e-05
2 *445:B 4.26173193e-05

*RES
1 *445:B *466:Y 7.31814
*END

*D_NET *316 8.2612e-05

*CONN
*I *464:Y O *C 20.32 24.465 *L 0 *D NOR2BX1
*I *446:B I *C 20.9 24.605 *L 0.00021 *D OR2X1

*CAP
1 *464:Y 4.13060205e-05
2 *446:B 4.13060205e-05

*RES
1 *446:B *464:Y 7.33709
*END

*D_NET *317 0.000116229

*CONN
*I *462:Y O *C 24.32 26.835 *L 0 *D NOR2BX1
*I *444:B I *C 24.3 24.605 *L 0.00021 *D OR2X1

*CAP
1 *444:B 7.68919e-06
2 *462:Y 5.04253e-05
3 *317:2 5.81145264e-05

*RES
1 *317:2 *462:Y 4.57489491
2 *444:B *317:2 3.34677
*END

*D_NET *318 0.000269532

*CONN
*I *461:Y O *C 34.92 23.415 *L 0 *D NOR2BX1
*I *443:B I *C 35.3 19.855 *L 0.00021 *D OR2XL

*CAP
1 *443:B 0.000110566
2 *461:Y 2.41997e-05
3 *318:2 0.000134766104

*RES
1 *318:2 *461:Y 3.79137
2 *443:B *318:2 5.80215454
*END

*D_NET *319 0.000684977

*CONN
*I *431:A I *C 13.5 14.535 *L 0.00021 *D BUFX2
*I *500:Q O *C 5.14 12.52 *L 0 *D DFFRHQX1

*CAP
1 *500:Q 0.000286162
2 *431:A 5.63262e-05
3 *319:2 0.000342488281

*RES
1 *431:A *319:2 7.69374
2 *319:2 *500:Q 16.7965889
*END

*D_NET *320 0.000490069

*CONN
*I *686:B I *C 23.7 9.595 *L 0.000392 *D NAND2BX1
*I *644:A0 I *C 23.9 13.205 *L 0.000391 *D AOI21X1
*I *530:Y O *C 21.72 8.945 *L 0 *D NAND2BX1
*I *436:AN I *C 23.5 12.825 *L 0.00021 *D NAND3BX1

*CAP
1 *644:A0 4.02937e-05
2 *686:B 3.14708e-05
3 *530:Y 3.92202e-05
4 *320:4 0.000160574
5 *320:5 0.000173270703
6 *320:6 4.52405e-05

*RES
1 *320:6 *320:5 3.47147
2 *320:5 *530:Y 4.10890579
3 *320:4 *320:5 3.06155
4 *436:AN *320:4 3.29993
5 *686:B *320:6 1.22259
6 *644:A0 *320:4 4.05217
*END

*D_NET *321 0.000463963

*CONN
*I *665:A I *C 37.3 10.925 *L 0.000395 *D INVX1
*I *606:A0 I *C 37.3 13.015 *L 0.000391 *D AOI22X1
*I *528:Y O *C 37.32 8.945 *L 0 *D NAND2BX1
*I *501:A I *C 38.9 9.405 *L 0.00039 *D NAND2X1

*CAP
1 *501:A 8.12417e-05
2 *606:A0 7.29565e-05
3 *321:4 0.000107586
4 *321:5 0.000115871426
5 *501:A *83:7 8.63075293e-05

*RES
1 *321:5 *528:Y 3.30003
2 *321:4 *321:5 0.994799
3 *665:A *321:4 3.30003
4 *606:A0 *321:4 4.94038
5 *501:A *321:5 11.41572
*END

*D_NET *322 0.000239372

*CONN
*I *663:A I *C 37.7 10.925 *L 0.000395 *D INVX1
*I *529:Y O *C 38.12 8.945 *L 0 *D NAND2BX1
*I *501:B I *C 39.1 9.785 *L 0.000392 *D NAND2X1

*CAP
1 *501:B 6.0737e-05
2 *529:Y 1.38287e-05
3 *663:A 4.51204e-05
4 *322:3 0.000119686123

*RES
1 *663:A *322:3 4.3811
2 *322:3 *529:Y 3.56835
3 *501:B *322:3 10.9621286
*END

*D_NET *323 0.000911593

*CONN
*I *648:A1 I *C 38.7 12.825 *L 0.000391 *D OAI22X1
*I *606:B0 I *C 38.165 12.945 *L 0.000389 *D AOI22X1
*I *599:A0 I *C 37.945 18.185 *L 0.000392 *D OAI22X1
*I *439:Y O *C 34.155 16.56 *L 0 *D OR4X1
*I *437:A I *C 34.82 16.31 *L 0.000392 *D NOR4X1

*CAP
1 *648:A1 5.26301e-05
2 *606:B0 2.62845e-05
3 *599:A0 0.000105677
4 *439:Y 1.2934e-05
5 *323:5 0.000245335
6 *323:6 0.000363945977
7 *323:7 0.000104783

*RES
1 *323:7 *439:Y 0.485296
2 *437:A *323:7 0.499988
3 *323:6 *323:7 8.37742
4 *599:A0 *323:6 8.82461
5 *606:B0 *323:5 6.98417
6 *323:5 *323:6 10.5803013
7 *648:A1 *323:5 7.30011
*END

*D_NET *324 0.00185013

*CONN
*I *615:B1 I *C 32.94 14.61 *L 0.000392 *D AOI22X1
*I *594:B0 I *C 29.565 14.415 *L 0.000389 *D AOI22X1
*I *561:C0 I *C 31.585 23.085 *L 0.000392 *D OAI211X1
*I *454:Y O *C 30.75 31.72 *L 0 *D OR2X1
*I *439:C I *C 33.37 16.23 *L 0.00021 *D OR4X1

*CAP
1 *439:C 8.24958e-05
2 *615:B1 7.33525e-06
3 *454:Y 5.79921e-05
4 *594:B0 7.84991e-05
5 *324:5 0.000153604
6 *324:6 0.000519692891
7 *324:7 0.000284909
8 *324:8 0.000435056
9 *324:6 *107:6 9.71555664e-05
10 *324:5 *234:8 0.000133395195

*RES
1 *594:B0 *324:8 11.7474
2 *324:7 *454:Y 4.91043
3 *324:6 *324:7 5.51841
4 *561:C0 *324:6 3.29984
5 *324:8 *324:6 17.2413597
6 *615:B1 *324:5 3.37193
7 *324:5 *324:8 4.67997
8 *439:C *324:5 4.96673
*END

*D_NET *325 0.00169051

*CONN
*I *616:B1 I *C 32.74 12.75 *L 0.000392 *D AOI22X1
*I *591:A0 I *C 29.545 12.595 *L 0.000392 *D OAI22X1
*I *563:C0 I *C 33.185 23.085 *L 0.000392 *D OAI211X1
*I *449:Y O *C 32.55 28.3 *L 0 *D OR2X1
*I *439:D I *C 33.16 16.395 *L 0.000208 *D OR4X1

*CAP
1 *439:D 5.26892e-05
2 *449:Y 6.43966e-06
3 *616:B1 6.32971e-05
4 *591:A0 0.00014752
5 *325:5 0.000348509
6 *325:6 0.000187457
7 *325:7 0.000395894063
8 *325:8 0.000386537
9 *325:8 *440:B 0.000102162363

*RES
1 *591:A0 *325:8 9.55571
2 *325:8 *325:7 7.9239
3 *616:B1 *325:8 7.67014
4 *325:6 *449:Y 0.239592
5 *325:7 *325:5 11.6052628
6 *325:5 *325:6 7.36751
7 *439:D *325:7 10.74
8 *563:C0 *325:5 3.29993
*END

*D_NET *326 0.00110388

*CONN
*I *607:B1 I *C 34.16 14.78 *L 0.000392 *D AOI222X1
*I *562:C0 I *C 34.385 23.085 *L 0.000392 *D OAI211X1
*I *453:Y O *C 33.95 28.3 *L 0 *D OR2X1
*I *439:A I *C 33.955 16.335 *L 0.000212 *D OR4X1

*CAP
1 *607:B1 7.95149e-05
2 *453:Y 7.98693e-06
3 *326:4 0.000174047
4 *326:5 0.000464439375
5 *326:6 0.000377894

*RES
1 *439:A *326:6 6.60005
2 *326:6 *326:5 6.31963
3 *326:4 *453:Y 0.270316
4 *607:B1 *326:6 4.86771
5 *326:5 *326:4 6.96635246
6 *562:C0 *326:5 3.29992
*END

*D_NET *327 0.000991821

*CONN
*I *653:B I *C 39.3 16.625 *L 0.000392 *D NAND2X1
*I *645:A I *C 35.765 14.79 *L 0.00021 *D AND2X1
*I *601:B0 I *C 37.73 14.415 *L 0.000793 *D OAI22X2
*I *440:Y O *C 32.955 16.56 *L 0 *D OR4X1
*I *437:D I *C 35.405 16.25 *L 0.000392 *D NOR4X1

*CAP
1 *653:B 0.000202297
2 *601:B0 7.5581e-05
3 *645:A 6.73512e-06
4 *437:D 1.23378e-05
5 *440:Y 9.38194e-05
6 *327:5 0.000130535
7 *327:6 0.000300467012
8 *327:7 6.49075e-05
9 *653:B *239:10 0.000105142598

*RES
1 *327:7 *327:6 3.33626
2 *327:6 *440:Y 8.72464
3 *437:D *327:7 3.56836
4 *645:A *327:5 6.73144
5 *327:5 *327:7 1.04331
6 *601:B0 *327:5 14.6820545
7 *653:B *327:6 10.3576
*END

*D_NET *328 0.00175941

*CONN
*I *615:A1 I *C 32.5 14.155 *L 0.000392 *D AOI22X1
*I *593:A0 I *C 31.1 14.345 *L 0.000391 *D AOI22X1
*I *541:C0 I *C 23.985 19.665 *L 0.000392 *D OAI211X1
*I *456:Y O *C 20.15 19.58 *L 0 *D OR2X1
*I *440:C I *C 32.17 16.23 *L 0.00021 *D OR4X1

*CAP
1 *615:A1 8.86294e-05
2 *593:A0 0.000106451
3 *541:C0 1.91362e-05
4 *456:Y 0.000143291
5 *328:5 0.000160041
6 *328:6 0.000325085
7 *328:7 0.000114319
8 *328:8 0.000408232227
9 *328:6 *46:65 0.000159978867
10 *328:5 *441:B 0.000133156777
11 *615:A1 *332:7 0.000101089473

*RES
1 *328:8 *456:Y 10.232
2 *541:C0 *328:8 6.78868
3 *328:7 *328:6 3.35723
4 *328:6 *328:8 14.1801834
5 *593:A0 *328:7 5.72327
6 *440:C *328:5 3.2999
7 *328:5 *328:6 5.0259
8 *615:A1 *328:5 5.59799
*END

*D_NET *329 0.00170004

*CONN
*I *616:A1 I *C 32.3 13.205 *L 0.000392 *D AOI22X1
*I *592:B0 I *C 26.5 12.825 *L 0.000392 *D OAI22X1
*I *544:C0 I *C 22.585 19.665 *L 0.000392 *D OAI211X1
*I *452:Y O *C 22.35 21.46 *L 0 *D OR2X1
*I *440:D I *C 31.96 16.395 *L 0.000208 *D OR4X1

*CAP
1 *616:A1 3.80904e-05
2 *440:D 0.0001387
3 *592:B0 2.39032e-05
4 *544:C0 3.95208e-05
5 *452:Y 6.97264e-06
6 *329:5 0.000285028
7 *329:6 0.000452876094
8 *329:7 0.000367221
9 *329:6 *263:7 8.05854785e-05
10 *440:D *593:A1 0.000105619434
11 *616:A1 *647:A0 0.000161528584

*RES
1 *329:7 *452:Y 3.43141
2 *544:C0 *329:7 3.99632
3 *329:6 *329:7 19.0738449
4 *592:B0 *329:6 6.90327
5 *329:5 *329:6 3.84032
6 *440:D *329:5 9.48453
7 *616:A1 *329:5 10.6749
*END

*D_NET *330 0.00175226

*CONN
*I *607:A1 I *C 33.9 13.965 *L 0.000392 *D AOI222X1
*I *542:C0 I *C 25.185 19.665 *L 0.000392 *D OAI211X1
*I *444:Y O *C 24.95 24.88 *L 0 *D OR2X1
*I *440:B I *C 32.35 16.03 *L 0.000211 *D OR4X1

*CAP
1 *607:A1 9.66194e-05
2 *440:B 8.78551e-05
3 *444:Y 0.000127612
4 *542:C0 7.31337e-05
5 *330:4 0.000391663
6 *330:5 0.00040793418
7 *440:B *325:8 0.000102162363
8 *330:4 *683:CK 1.70469e-05
9 *330:4 *384:6 0.000146925
10 *330:4 *384:7 1.7285827e-05
11 *330:4 *262:5 8.40425488e-05
12 *330:4 *132:3 9.53078223e-05
13 *330:4 *333:7 0.000104665752

*RES
1 *542:C0 *330:5 4.64553
2 *330:5 *444:Y 6.49593
3 *440:B *330:4 11.4016
4 *330:4 *330:5 16.3016319
5 *607:A1 *330:4 12.1725
*END

*D_NET *331 0.000469804

*CONN
*I *664:A I *C 37.1 17.765 *L 0.000395 *D INVX1
*I *614:A0N I *C 37.645 15.98 *L 0.000209 *D OAI2BB1X1
*I *441:Y O *C 34.955 17.64 *L 0 *D OR4X1
*I *437:B I *C 35.025 15.99 *L 0.000392 *D NOR4X1

*CAP
1 *614:A0N 4.81013e-05
2 *437:B 3.57621e-05
3 *441:Y 1.64506e-05
4 *331:4 8.80359e-05
5 *331:5 7.8678e-05
6 *331:6 9.46518e-05
7 *331:7 0.000108122822

*RES
1 *331:7 *441:Y 3.59526
2 *437:B *331:7 7.34914
3 *331:6 *331:7 4.50959
4 *331:5 *331:6 1.38838
5 *664:A *331:5 0.499982
6 *331:4 *331:5 4.10178
7 *614:A0N *331:4 7.52222538
*END

*D_NET *332 0.0015738

*CONN
*I *646:B0 I *C 35.965 12.945 *L 0.000389 *D AOI22X1
*I *593:B0 I *C 31.965 14.415 *L 0.000389 *D AOI22X1
*I *540:C0 I *C 31.785 17.955 *L 0.000392 *D OAI211X1
*I *450:Y O *C 39.35 23 *L 0 *D OR2X1
*I *441:D I *C 33.96 17.805 *L 0.000208 *D OR4X1

*CAP
1 *450:Y 0.000133037
2 *646:B0 0.000132559
3 *441:D 1.17434e-05
4 *593:B0 5.40637e-05
5 *332:5 0.000275077
6 *332:6 0.000382125391
7 *332:7 0.000101923
8 *332:8 0.000184891
9 *332:9 0.000113486
10 *332:7 *615:A1 0.000101089473
11 *332:6 *652:A 8.38041309e-05

*RES
1 *332:9 *332:8 5.04678
2 *540:C0 *332:9 3.29992
3 *593:B0 *332:7 4.6531
4 *332:7 *332:9 1.39101
5 *332:8 *332:6 12.258
6 *441:D *332:8 0.411544
7 *646:B0 *332:6 13.7747526
8 *332:6 *332:5 7.71152
9 *332:5 *450:Y 9.45039
*END

*D_NET *333 0.00145328

*CONN
*I *647:B0 I *C 34.765 12.945 *L 0.000389 *D AOI22X1
*I *591:B0 I *C 30.3 12.825 *L 0.000392 *D OAI22X1
*I *546:C0 I *C 31.385 19.665 *L 0.000392 *D OAI211X1
*I *455:Y O *C 37.15 19.58 *L 0 *D OR2X1
*I *441:C I *C 34.17 17.97 *L 0.00021 *D OR4X1

*CAP
1 *647:B0 5.93066e-05
2 *455:Y 9.65023e-05
3 *441:C 4.02919e-05
4 *546:C0 8.77372e-05
5 *591:B0 2.80747e-05
6 *333:5 0.000243902
7 *333:6 0.000231446
8 *333:7 0.000333189961
9 *333:8 0.000145554
10 *333:7 *330:4 0.000104665752
11 *546:C0 *547:B0 8.2612041e-05

*RES
1 *591:B0 *333:8 0.976859
2 *333:8 *333:7 8.92634
3 *546:C0 *333:6 9.10365
4 *441:C *333:5 10.3658438
5 *333:7 *333:5 7.87862
6 *333:5 *333:6 4.91909
7 *333:6 *455:Y 8.96572
8 *647:B0 *333:7 7.61431
*END

*D_NET *334 0.000956059

*CONN
*I *652:A I *C 35.7 10.925 *L 0.000211 *D NAND2XL
*I *547:C0 I *C 34.585 19.665 *L 0.000392 *D OAI211X1
*I *443:Y O *C 35.925 19.435 *L 0 *D OR2XL
*I *441:A I *C 34.755 17.865 *L 0.000212 *D OR4X1

*CAP
1 *443:Y 6.42536e-05
2 *652:A 0.000233114
3 *547:C0 9.13726e-05
4 *334:4 8.29107e-05
5 *334:5 0.000280499453
6 *334:6 0.000120105
7 *652:A *332:6 8.38041309e-05

*RES
1 *547:C0 *334:6 5.2294
2 *441:A *334:6 6.59989
3 *334:6 *334:5 4.01197
4 *334:5 *334:4 3.64463
5 *652:A *334:5 19.2904472
6 *334:4 *443:Y 4.65307
*END

*D_NET *335 0.00123036

*CONN
*I *674:A I *C 38.1 14.345 *L 0.000395 *D INVX1
*I *613:A1 I *C 38.3 16.245 *L 0.000391 *D OAI211X1
*I *438:Y O *C 26.555 14.22 *L 0 *D OR4X1
*I *437:C I *C 35.185 15.8 *L 0.000392 *D NOR4X1

*CAP
1 *613:A1 4.10654e-05
2 *674:A 3.75514e-05
3 *437:C 5.71007e-05
4 *438:Y 4.4404e-05
5 *335:4 0.000190081
6 *335:5 0.000410497188
7 *335:6 0.000286343
8 *437:C *168:3 0.000163316729

*RES
1 *335:6 *438:Y 7.21266
2 *335:5 *335:6 14.611
3 *437:C *335:5 17.16745
4 *335:4 *335:5 12.6257
5 *674:A *335:4 4.14438
6 *613:A1 *335:4 4.09749
*END

*D_NET *336 0.00183249

*CONN
*I *646:A0 I *C 35.1 13.015 *L 0.000391 *D AOI22X1
*I *594:A0 I *C 28.7 14.345 *L 0.000391 *D AOI22X1
*I *557:C0 I *C 23.785 16.245 *L 0.000392 *D OAI211X1
*I *442:Y O *C 19.15 14.62 *L 0 *D OR2X1
*I *438:C I *C 25.77 14.55 *L 0.00021 *D OR4X1

*CAP
1 *646:A0 0.000233472
2 *594:A0 3.87423e-05
3 *438:C 2.08616e-05
4 *557:C0 6.72934e-05
5 *442:Y 0.00012851
6 *336:5 0.000327229492
7 *336:6 0.000122249
8 *336:7 0.000183046
9 *336:8 7.54573e-05
10 *438:C *341:4 0.000165939336
11 *646:A0 *239:10 0.000197529785
12 *646:A0 *607:C0 0.000272154805

*RES
1 *336:8 *336:7 3.3492
2 *336:7 *442:Y 10.3263
3 *557:C0 *336:8 4.43755
4 *438:C *336:6 7.06902
5 *336:6 *336:7 1.57251
6 *336:5 *336:6 2.32829
7 *594:A0 *336:5 7.1906
8 *646:A0 *336:5 20.2746391
*END

*D_NET *337 0.00124329

*CONN
*I *647:A0 I *C 33.9 13.015 *L 0.000391 *D AOI22X1
*I *592:A0 I *C 25.745 12.595 *L 0.000392 *D OAI22X1
*I *558:C0 I *C 22.185 14.535 *L 0.000392 *D OAI211X1
*I *445:Y O *C 22.35 12.74 *L 0 *D OR2X1
*I *438:D I *C 25.56 14.385 *L 0.000208 *D OR4X1

*CAP
1 *647:A0 0.000240564
2 *592:A0 7.69102e-06
3 *438:D 6.69932e-05
4 *558:C0 4.55979e-05
5 *337:5 0.000362873086
6 *337:6 8.76189e-05
7 *337:7 0.000154972
8 *647:A0 *581:A1 0.000115454199
9 *647:A0 *616:A1 0.000161528584

*RES
1 *558:C0 *337:7 4.29132
2 *337:7 *445:Y 3.29989
3 *438:D *337:6 4.67951
4 *592:A0 *337:6 3.34679
5 *337:6 *337:5 3.43748
6 *337:5 *337:7 6.26675
7 *647:A0 *337:5 13.5391951
*END

*D_NET *338 0.00136793

*CONN
*I *607:C0 I *C 34.74 14.6 *L 0.000389 *D AOI222X1
*I *559:C0 I *C 23.585 14.535 *L 0.000392 *D OAI211X1
*I *447:Y O *C 20.75 14.62 *L 0 *D OR2X1
*I *438:B I *C 25.95 14.75 *L 0.000211 *D OR4X1

*CAP
1 *607:C0 0.000231326
2 *438:B 2.0505e-05
3 *559:C0 1.60935e-05
4 *447:Y 9.19085e-05
5 *338:4 0.000315964219
6 *338:5 0.00017214
7 *338:4 *47:28 9.8586084e-05
8 *607:C0 *234:11 0.000149250029
9 *607:C0 *646:A0 0.000272154805

*RES
1 *338:5 *447:Y 8.9193
2 *559:C0 *338:5 6.75925
3 *438:B *338:4 6.81205
4 *338:4 *338:5 1.87469
5 *607:C0 *338:4 14.7260427
*END

*D_NET *339 0.00175452

*CONN
*I *590:B0 I *C 26.765 16.365 *L 0.000389 *D AOI22X1
*I *545:C0 I *C 21.385 19.665 *L 0.000392 *D OAI211X1
*I *446:Y O *C 21.55 24.88 *L 0 *D OR2X1
*I *440:A I *C 32.755 16.335 *L 0.000212 *D OR4X1

*CAP
1 *440:A 0.000218811
2 *590:B0 2.41955e-05
3 *446:Y 4.41092e-05
4 *545:C0 9.60806e-05
5 *339:4 0.000604748711
6 *339:5 0.000501932
7 *339:5 *452:B 0.000155448916
8 *440:A *238:7 0.000109195713

*RES
1 *545:C0 *339:5 5.7577
2 *339:5 *446:Y 4.65308
3 *590:B0 *339:4 3.68985
4 *339:4 *339:5 15.0793
5 *440:A *339:4 18.6818848
*END

*D_NET *340 0.00113213

*CONN
*I *587:B0 I *C 29.565 16.365 *L 0.000389 *D AOI22X1
*I *543:C0 I *C 30.385 19.665 *L 0.000392 *D OAI211X1
*I *457:Y O *C 29.55 23 *L 0 *D OR2X1
*I *441:B I *C 34.35 18.17 *L 0.000211 *D OR4X1

*CAP
1 *441:B 0.000125648
2 *457:Y 2.48564e-05
3 *587:B0 7.34937e-05
4 *340:4 0.000173689
5 *340:5 0.000126542
6 *340:6 0.000227451
7 *340:7 0.000247299668
8 *441:B *328:5 0.000133156777

*RES
1 *340:7 *340:6 9.01515
2 *587:B0 *340:7 4.72791
3 *340:6 *340:5 5.37129
4 *340:5 *457:Y 0.903127
5 *543:C0 *340:6 3.29992
6 *340:4 *340:7 4.4089
7 *441:B *340:4 9.78302956
*END

*D_NET *341 0.000967622

*CONN
*I *590:A0 I *C 25.9 16.435 *L 0.000391 *D AOI22X1
*I *560:C0 I *C 22.785 16.245 *L 0.000392 *D OAI211X1
*I *448:Y O *C 18.75 16.16 *L 0 *D OR2X1
*I *438:A I *C 26.355 14.445 *L 0.000212 *D OR4X1

*CAP
1 *438:A 5.62067e-05
2 *590:A0 3.09347e-05
3 *560:C0 5.16785e-05
4 *448:Y 0.000128807
5 *341:4 0.000149249
6 *341:5 0.000197708613
7 *341:6 5.84724e-05
8 *560:C0 *268:7 0.000128626826
9 *341:4 *438:C 0.000165939336

*RES
1 *341:6 *341:5 3.34926
2 *341:5 *448:Y 10.1071596
3 *560:C0 *341:6 4.1523
4 *341:4 *341:5 6.14101
5 *590:A0 *341:4 4.00116
6 *438:A *341:4 7.8663
*END

*D_NET *342 0.00140703

*CONN
*I *587:A0 I *C 28.7 16.435 *L 0.000391 *D AOI22X1
*I *556:C0 I *C 27.985 23.085 *L 0.000392 *D OAI211X1
*I *451:Y O *C 26.55 28.3 *L 0 *D OR2X1
*I *439:B I *C 33.55 16.03 *L 0.000211 *D OR4X1

*CAP
1 *439:B 0.000199079
2 *587:A0 2.60445e-05
3 *451:Y 0.000157653
4 *342:4 0.000443100938
5 *342:5 0.00037563
6 *342:5 *556:B0 0.000110626221
7 *342:4 *264:7 9.48905957e-05

*RES
1 *342:5 *451:Y 8.04174
2 *556:C0 *342:5 3.29994
3 *342:4 *342:5 16.4823532
4 *587:A0 *342:4 6.85465
5 *439:B *342:4 10.689
*END

*D_NET *343 0.000885248

*CONN
*I *436:Y O *C 23.215 12.2 *L 0 *D NAND3BX1
*I *434:E I *C 16.9 20.995 *L 0.00021 *D TLATNTSCAX2

*CAP
1 *436:Y 8.40199e-06
2 *434:E 0.000434222
3 *343:2 0.000442624102

*RES
1 *434:E *343:2 27.6858807
2 *343:2 *436:Y 3.50171
*END

*D_NET *344 0.000375509

*CONN
*I *435:Y O *C 25.355 7.74 *L 0 *D NAND2X1
*I *433:E I *C 20.5 6.365 *L 0.00021 *D TLATNTSCAX2

*CAP
1 *435:Y 3.12939e-05
2 *433:E 0.000156464
3 *344:2 0.000187754629

*RES
1 *433:E *344:2 13.9286518
2 *344:2 *435:Y 4.00117
*END

*D_NET *345 0.000452161

*CONN
*I *686:Y O *C 23.92 8.945 *L 0 *D NAND2BX1
*I *575:A I *C 25.7 9.595 *L 0.000392 *D NOR2X1
*I *574:A I *C 25.1 9.595 *L 0.000392 *D NOR2X1
*I *435:B I *C 25.1 7.315 *L 0.000392 *D NAND2X1

*CAP
1 *575:A 6.56843e-05
2 *574:A 3.65368e-05
3 *435:B 3.95774e-05
4 *686:Y 1.31719e-05
5 *345:4 0.000135004521
6 *345:5 8.42802e-05
7 *345:6 7.79024e-05

*RES
1 *345:6 *345:5 4.15946
2 *345:5 *686:Y 3.61913
3 *345:4 *345:5 0.786179
4 *435:B *345:6 1.22263
5 *574:A *345:4 4.22685
6 *575:A *345:4 7.97200203
*END

*D_NET *382 0.00264764

*CONN
*I *531:Q O *C 25.94 19.79 *L 0 *D DFFHQX1
*I *530:B I *C 21.5 9.595 *L 0.000392 *D NAND2BX1
*I *458:B I *C 38.1 33.345 *L 0.00021 *D AND2XL

*CAP
1 *458:B 2.87243e-05
2 *530:B 0.000144362
3 *382:3 7.98696e-05
4 *382:4 0.000320432
5 *382:5 0.000677944
6 *382:6 0.000735044453
7 *382:7 0.00047076
8 *382:4 *107:4 9.35792969e-05
9 *458:B *459:A 9.69171484e-05

*RES
1 *530:B *382:7 10.0405
2 *382:7 *382:6 17.915844
3 *382:6 *531:Q 3.2999
4 *382:5 *382:6 12.5457
5 *382:4 *382:5 8.37591
6 *382:3 *382:4 4.37863
7 *458:B *382:3 4.36606
*END

*D_NET *383 0.000445366

*CONN
*I *681:CK I *C 31.3 5.985 *L 0.000211 *D DFF4X1
*I *433:ECK O *C 23.76 6.31 *L 0 *D TLATNTSCAX2

*CAP
1 *433:ECK 0.000222682949
2 *681:CK 0.000222682949

*RES
1 *681:CK *433:ECK 19.3599
*END

*D_NET *384 0.00198168

*CONN
*I *685:CK I *C 32.1 26.505 *L 0.000211 *D DFF4X1
*I *684:CK I *C 21.1 17.955 *L 0.000211 *D DFF4X1
*I *683:CK I *C 33.1 21.375 *L 0.000211 *D DFF4X1
*I *682:CK I *C 20.5 23.085 *L 0.000211 *D DFF4X1
*I *531:CK I *C 26.275 19.41 *L 0.00021 *D DFFHQX1
*I *434:ECK O *C 20.16 21.05 *L 0 *D TLATNTSCAX2

*CAP
1 *683:CK 4.083e-05
2 *685:CK 0.000185727
3 *531:CK 6.77129e-05
4 *684:CK 0.000127433
5 *434:ECK 5.04857e-05
6 *682:CK 7.89753e-05
7 *384:6 0.000336408633
8 *384:7 0.000253917
9 *384:8 7.57567e-05
10 *384:9 0.000190973
11 *384:10 0.00021088
12 *384:7 *330:4 1.72853e-05
13 *384:6 *330:4 0.000146925
14 *683:CK *330:4 1.70474267e-05
15 *384:7 *536:A 8.50558301e-05
16 *384:6 *683:D1 7.34329e-05
17 *683:CK *683:D1 2.28285985e-05

*RES
1 *682:CK *384:10 11.7201
2 *384:9 *434:ECK 7.31903
3 *384:10 *384:9 3.33626
4 *684:CK *384:10 12.7143
5 *384:8 *384:7 3.35716
6 *384:7 *384:9 4.14264
7 *531:CK *384:8 7.73131
8 *685:CK *384:6 17.7875748
9 *384:6 *384:7 4.74735
10 *683:CK *384:6 7.56846
*END

